c Ordered Ramsey CNF instance
c n = 10, N = 13
c Positive literal = blue edge
c Negative literal = red edge
p cnf 78 572
1 2 0
1 3 0
1 4 0
1 5 0
1 6 0
1 7 0
1 8 0
1 9 0
1 10 0
1 11 0
1 12 0
2 3 0
2 4 0
2 5 0
2 6 0
2 7 0
2 8 0
2 9 0
2 10 0
2 11 0
2 12 0
3 4 0
3 5 0
3 6 0
3 7 0
3 8 0
3 9 0
3 10 0
3 11 0
3 12 0
4 5 0
4 6 0
4 7 0
4 8 0
4 9 0
4 10 0
4 11 0
4 12 0
5 6 0
5 7 0
5 8 0
5 9 0
5 10 0
5 11 0
5 12 0
6 7 0
6 8 0
6 9 0
6 10 0
6 11 0
6 12 0
7 8 0
7 9 0
7 10 0
7 11 0
7 12 0
8 9 0
8 10 0
8 11 0
8 12 0
9 10 0
9 11 0
9 12 0
10 11 0
10 12 0
11 12 0
13 14 0
13 15 0
13 16 0
13 17 0
13 18 0
13 19 0
13 20 0
13 21 0
13 22 0
13 23 0
14 15 0
14 16 0
14 17 0
14 18 0
14 19 0
14 20 0
14 21 0
14 22 0
14 23 0
15 16 0
15 17 0
15 18 0
15 19 0
15 20 0
15 21 0
15 22 0
15 23 0
16 17 0
16 18 0
16 19 0
16 20 0
16 21 0
16 22 0
16 23 0
17 18 0
17 19 0
17 20 0
17 21 0
17 22 0
17 23 0
18 19 0
18 20 0
18 21 0
18 22 0
18 23 0
19 20 0
19 21 0
19 22 0
19 23 0
20 21 0
20 22 0
20 23 0
21 22 0
21 23 0
22 23 0
24 25 0
24 26 0
24 27 0
24 28 0
24 29 0
24 30 0
24 31 0
24 32 0
24 33 0
25 26 0
25 27 0
25 28 0
25 29 0
25 30 0
25 31 0
25 32 0
25 33 0
26 27 0
26 28 0
26 29 0
26 30 0
26 31 0
26 32 0
26 33 0
27 28 0
27 29 0
27 30 0
27 31 0
27 32 0
27 33 0
28 29 0
28 30 0
28 31 0
28 32 0
28 33 0
29 30 0
29 31 0
29 32 0
29 33 0
30 31 0
30 32 0
30 33 0
31 32 0
31 33 0
32 33 0
34 35 0
34 36 0
34 37 0
34 38 0
34 39 0
34 40 0
34 41 0
34 42 0
35 36 0
35 37 0
35 38 0
35 39 0
35 40 0
35 41 0
35 42 0
36 37 0
36 38 0
36 39 0
36 40 0
36 41 0
36 42 0
37 38 0
37 39 0
37 40 0
37 41 0
37 42 0
38 39 0
38 40 0
38 41 0
38 42 0
39 40 0
39 41 0
39 42 0
40 41 0
40 42 0
41 42 0
43 44 0
43 45 0
43 46 0
43 47 0
43 48 0
43 49 0
43 50 0
44 45 0
44 46 0
44 47 0
44 48 0
44 49 0
44 50 0
45 46 0
45 47 0
45 48 0
45 49 0
45 50 0
46 47 0
46 48 0
46 49 0
46 50 0
47 48 0
47 49 0
47 50 0
48 49 0
48 50 0
49 50 0
51 52 0
51 53 0
51 54 0
51 55 0
51 56 0
51 57 0
52 53 0
52 54 0
52 55 0
52 56 0
52 57 0
53 54 0
53 55 0
53 56 0
53 57 0
54 55 0
54 56 0
54 57 0
55 56 0
55 57 0
56 57 0
58 59 0
58 60 0
58 61 0
58 62 0
58 63 0
59 60 0
59 61 0
59 62 0
59 63 0
60 61 0
60 62 0
60 63 0
61 62 0
61 63 0
62 63 0
64 65 0
64 66 0
64 67 0
64 68 0
65 66 0
65 67 0
65 68 0
66 67 0
66 68 0
67 68 0
69 70 0
69 71 0
69 72 0
70 71 0
70 72 0
71 72 0
73 74 0
73 75 0
74 75 0
76 77 0
-9 -19 -20 -28 -29 -36 -37 -43 -44 0
-10 -19 -21 -28 -29 -36 -37 -43 -44 0
-11 -19 -22 -28 -29 -36 -37 -43 -44 0
-12 -19 -23 -28 -29 -36 -37 -43 -44 0
-10 -20 -21 -28 -30 -36 -37 -43 -44 0
-11 -20 -22 -28 -30 -36 -37 -43 -44 0
-12 -20 -23 -28 -30 -36 -37 -43 -44 0
-11 -21 -22 -28 -31 -36 -37 -43 -44 0
-12 -21 -23 -28 -31 -36 -37 -43 -44 0
-12 -22 -23 -28 -32 -36 -37 -43 -44 0
-10 -20 -21 -29 -30 -36 -38 -43 -44 0
-11 -20 -22 -29 -30 -36 -38 -43 -44 0
-12 -20 -23 -29 -30 -36 -38 -43 -44 0
-11 -21 -22 -29 -31 -36 -38 -43 -44 0
-12 -21 -23 -29 -31 -36 -38 -43 -44 0
-12 -22 -23 -29 -32 -36 -38 -43 -44 0
-11 -21 -22 -30 -31 -36 -39 -43 -44 0
-12 -21 -23 -30 -31 -36 -39 -43 -44 0
-12 -22 -23 -30 -32 -36 -39 -43 -44 0
-12 -22 -23 -31 -32 -36 -40 -43 -44 0
-10 -20 -21 -29 -30 -37 -38 -43 -45 0
-11 -20 -22 -29 -30 -37 -38 -43 -45 0
-12 -20 -23 -29 -30 -37 -38 -43 -45 0
-11 -21 -22 -29 -31 -37 -38 -43 -45 0
-12 -21 -23 -29 -31 -37 -38 -43 -45 0
-12 -22 -23 -29 -32 -37 -38 -43 -45 0
-11 -21 -22 -30 -31 -37 -39 -43 -45 0
-12 -21 -23 -30 -31 -37 -39 -43 -45 0
-12 -22 -23 -30 -32 -37 -39 -43 -45 0
-12 -22 -23 -31 -32 -37 -40 -43 -45 0
-11 -21 -22 -30 -31 -38 -39 -43 -46 0
-12 -21 -23 -30 -31 -38 -39 -43 -46 0
-12 -22 -23 -30 -32 -38 -39 -43 -46 0
-12 -22 -23 -31 -32 -38 -40 -43 -46 0
-12 -22 -23 -31 -32 -39 -40 -43 -47 0
-10 -20 -21 -29 -30 -37 -38 -44 -45 0
-11 -20 -22 -29 -30 -37 -38 -44 -45 0
-12 -20 -23 -29 -30 -37 -38 -44 -45 0
-11 -21 -22 -29 -31 -37 -38 -44 -45 0
-12 -21 -23 -29 -31 -37 -38 -44 -45 0
-12 -22 -23 -29 -32 -37 -38 -44 -45 0
-11 -21 -22 -30 -31 -37 -39 -44 -45 0
-12 -21 -23 -30 -31 -37 -39 -44 -45 0
-12 -22 -23 -30 -32 -37 -39 -44 -45 0
-12 -22 -23 -31 -32 -37 -40 -44 -45 0
-11 -21 -22 -30 -31 -38 -39 -44 -46 0
-12 -21 -23 -30 -31 -38 -39 -44 -46 0
-12 -22 -23 -30 -32 -38 -39 -44 -46 0
-12 -22 -23 -31 -32 -38 -40 -44 -46 0
-12 -22 -23 -31 -32 -39 -40 -44 -47 0
-11 -21 -22 -30 -31 -38 -39 -45 -46 0
-12 -21 -23 -30 -31 -38 -39 -45 -46 0
-12 -22 -23 -30 -32 -38 -39 -45 -46 0
-12 -22 -23 -31 -32 -38 -40 -45 -46 0
-12 -22 -23 -31 -32 -39 -40 -45 -47 0
-12 -22 -23 -31 -32 -39 -40 -46 -47 0
-10 -20 -21 -29 -30 -37 -38 -51 -52 0
-11 -20 -22 -29 -30 -37 -38 -51 -52 0
-12 -20 -23 -29 -30 -37 -38 -51 -52 0
-11 -21 -22 -29 -31 -37 -38 -51 -52 0
-12 -21 -23 -29 -31 -37 -38 -51 -52 0
-12 -22 -23 -29 -32 -37 -38 -51 -52 0
-11 -21 -22 -30 -31 -37 -39 -51 -52 0
-12 -21 -23 -30 -31 -37 -39 -51 -52 0
-12 -22 -23 -30 -32 -37 -39 -51 -52 0
-12 -22 -23 -31 -32 -37 -40 -51 -52 0
-11 -21 -22 -30 -31 -38 -39 -51 -53 0
-12 -21 -23 -30 -31 -38 -39 -51 -53 0
-12 -22 -23 -30 -32 -38 -39 -51 -53 0
-12 -22 -23 -31 -32 -38 -40 -51 -53 0
-12 -22 -23 -31 -32 -39 -40 -51 -54 0
-11 -21 -22 -30 -31 -38 -39 -52 -53 0
-12 -21 -23 -30 -31 -38 -39 -52 -53 0
-12 -22 -23 -30 -32 -38 -39 -52 -53 0
-12 -22 -23 -31 -32 -38 -40 -52 -53 0
-12 -22 -23 -31 -32 -39 -40 -52 -54 0
-12 -22 -23 -31 -32 -39 -40 -53 -54 0
-11 -21 -22 -30 -31 -38 -39 -58 -59 0
-12 -21 -23 -30 -31 -38 -39 -58 -59 0
-12 -22 -23 -30 -32 -38 -39 -58 -59 0
-12 -22 -23 -31 -32 -38 -40 -58 -59 0
-12 -22 -23 -31 -32 -39 -40 -58 -60 0
-12 -22 -23 -31 -32 -39 -40 -59 -60 0
-12 -22 -23 -31 -32 -39 -40 -64 -65 0
-10 -20 -21 -29 -30 -45 -46 -51 -52 0
-11 -20 -22 -29 -30 -45 -46 -51 -52 0
-12 -20 -23 -29 -30 -45 -46 -51 -52 0
-11 -21 -22 -29 -31 -45 -46 -51 -52 0
-12 -21 -23 -29 -31 -45 -46 -51 -52 0
-12 -22 -23 -29 -32 -45 -46 -51 -52 0
-11 -21 -22 -30 -31 -45 -47 -51 -52 0
-12 -21 -23 -30 -31 -45 -47 -51 -52 0
-12 -22 -23 -30 -32 -45 -47 -51 -52 0
-12 -22 -23 -31 -32 -45 -48 -51 -52 0
-11 -21 -22 -30 -31 -46 -47 -51 -53 0
-12 -21 -23 -30 -31 -46 -47 -51 -53 0
-12 -22 -23 -30 -32 -46 -47 -51 -53 0
-12 -22 -23 -31 -32 -46 -48 -51 -53 0
-12 -22 -23 -31 -32 -47 -48 -51 -54 0
-11 -21 -22 -30 -31 -46 -47 -52 -53 0
-12 -21 -23 -30 -31 -46 -47 -52 -53 0
-12 -22 -23 -30 -32 -46 -47 -52 -53 0
-12 -22 -23 -31 -32 -46 -48 -52 -53 0
-12 -22 -23 -31 -32 -47 -48 -52 -54 0
-12 -22 -23 -31 -32 -47 -48 -53 -54 0
-11 -21 -22 -30 -31 -46 -47 -58 -59 0
-12 -21 -23 -30 -31 -46 -47 -58 -59 0
-12 -22 -23 -30 -32 -46 -47 -58 -59 0
-12 -22 -23 -31 -32 -46 -48 -58 -59 0
-12 -22 -23 -31 -32 -47 -48 -58 -60 0
-12 -22 -23 -31 -32 -47 -48 -59 -60 0
-12 -22 -23 -31 -32 -47 -48 -64 -65 0
-11 -21 -22 -30 -31 -53 -54 -58 -59 0
-12 -21 -23 -30 -31 -53 -54 -58 -59 0
-12 -22 -23 -30 -32 -53 -54 -58 -59 0
-12 -22 -23 -31 -32 -53 -55 -58 -59 0
-12 -22 -23 -31 -32 -54 -55 -58 -60 0
-12 -22 -23 -31 -32 -54 -55 -59 -60 0
-12 -22 -23 -31 -32 -54 -55 -64 -65 0
-12 -22 -23 -31 -32 -60 -61 -64 -65 0
-10 -20 -21 -38 -39 -45 -46 -51 -52 0
-11 -20 -22 -38 -39 -45 -46 -51 -52 0
-12 -20 -23 -38 -39 -45 -46 -51 -52 0
-11 -21 -22 -38 -40 -45 -46 -51 -52 0
-12 -21 -23 -38 -40 -45 -46 -51 -52 0
-12 -22 -23 -38 -41 -45 -46 -51 -52 0
-11 -21 -22 -39 -40 -45 -47 -51 -52 0
-12 -21 -23 -39 -40 -45 -47 -51 -52 0
-12 -22 -23 -39 -41 -45 -47 -51 -52 0
-12 -22 -23 -40 -41 -45 -48 -51 -52 0
-11 -21 -22 -39 -40 -46 -47 -51 -53 0
-12 -21 -23 -39 -40 -46 -47 -51 -53 0
-12 -22 -23 -39 -41 -46 -47 -51 -53 0
-12 -22 -23 -40 -41 -46 -48 -51 -53 0
-12 -22 -23 -40 -41 -47 -48 -51 -54 0
-11 -21 -22 -39 -40 -46 -47 -52 -53 0
-12 -21 -23 -39 -40 -46 -47 -52 -53 0
-12 -22 -23 -39 -41 -46 -47 -52 -53 0
-12 -22 -23 -40 -41 -46 -48 -52 -53 0
-12 -22 -23 -40 -41 -47 -48 -52 -54 0
-12 -22 -23 -40 -41 -47 -48 -53 -54 0
-11 -21 -22 -39 -40 -46 -47 -58 -59 0
-12 -21 -23 -39 -40 -46 -47 -58 -59 0
-12 -22 -23 -39 -41 -46 -47 -58 -59 0
-12 -22 -23 -40 -41 -46 -48 -58 -59 0
-12 -22 -23 -40 -41 -47 -48 -58 -60 0
-12 -22 -23 -40 -41 -47 -48 -59 -60 0
-12 -22 -23 -40 -41 -47 -48 -64 -65 0
-11 -21 -22 -39 -40 -53 -54 -58 -59 0
-12 -21 -23 -39 -40 -53 -54 -58 -59 0
-12 -22 -23 -39 -41 -53 -54 -58 -59 0
-12 -22 -23 -40 -41 -53 -55 -58 -59 0
-12 -22 -23 -40 -41 -54 -55 -58 -60 0
-12 -22 -23 -40 -41 -54 -55 -59 -60 0
-12 -22 -23 -40 -41 -54 -55 -64 -65 0
-12 -22 -23 -40 -41 -60 -61 -64 -65 0
-11 -21 -22 -47 -48 -53 -54 -58 -59 0
-12 -21 -23 -47 -48 -53 -54 -58 -59 0
-12 -22 -23 -47 -49 -53 -54 -58 -59 0
-12 -22 -23 -48 -49 -53 -55 -58 -59 0
-12 -22 -23 -48 -49 -54 -55 -58 -60 0
-12 -22 -23 -48 -49 -54 -55 -59 -60 0
-12 -22 -23 -48 -49 -54 -55 -64 -65 0
-12 -22 -23 -48 -49 -60 -61 -64 -65 0
-12 -22 -23 -55 -56 -60 -61 -64 -65 0
-10 -30 -31 -38 -39 -45 -46 -51 -52 0
-11 -30 -32 -38 -39 -45 -46 -51 -52 0
-12 -30 -33 -38 -39 -45 -46 -51 -52 0
-11 -31 -32 -38 -40 -45 -46 -51 -52 0
-12 -31 -33 -38 -40 -45 -46 -51 -52 0
-12 -32 -33 -38 -41 -45 -46 -51 -52 0
-11 -31 -32 -39 -40 -45 -47 -51 -52 0
-12 -31 -33 -39 -40 -45 -47 -51 -52 0
-12 -32 -33 -39 -41 -45 -47 -51 -52 0
-12 -32 -33 -40 -41 -45 -48 -51 -52 0
-11 -31 -32 -39 -40 -46 -47 -51 -53 0
-12 -31 -33 -39 -40 -46 -47 -51 -53 0
-12 -32 -33 -39 -41 -46 -47 -51 -53 0
-12 -32 -33 -40 -41 -46 -48 -51 -53 0
-12 -32 -33 -40 -41 -47 -48 -51 -54 0
-11 -31 -32 -39 -40 -46 -47 -52 -53 0
-12 -31 -33 -39 -40 -46 -47 -52 -53 0
-12 -32 -33 -39 -41 -46 -47 -52 -53 0
-12 -32 -33 -40 -41 -46 -48 -52 -53 0
-12 -32 -33 -40 -41 -47 -48 -52 -54 0
-12 -32 -33 -40 -41 -47 -48 -53 -54 0
-11 -31 -32 -39 -40 -46 -47 -58 -59 0
-12 -31 -33 -39 -40 -46 -47 -58 -59 0
-12 -32 -33 -39 -41 -46 -47 -58 -59 0
-12 -32 -33 -40 -41 -46 -48 -58 -59 0
-12 -32 -33 -40 -41 -47 -48 -58 -60 0
-12 -32 -33 -40 -41 -47 -48 -59 -60 0
-12 -32 -33 -40 -41 -47 -48 -64 -65 0
-11 -31 -32 -39 -40 -53 -54 -58 -59 0
-12 -31 -33 -39 -40 -53 -54 -58 -59 0
-12 -32 -33 -39 -41 -53 -54 -58 -59 0
-12 -32 -33 -40 -41 -53 -55 -58 -59 0
-12 -32 -33 -40 -41 -54 -55 -58 -60 0
-12 -32 -33 -40 -41 -54 -55 -59 -60 0
-12 -32 -33 -40 -41 -54 -55 -64 -65 0
-12 -32 -33 -40 -41 -60 -61 -64 -65 0
-11 -31 -32 -47 -48 -53 -54 -58 -59 0
-12 -31 -33 -47 -48 -53 -54 -58 -59 0
-12 -32 -33 -47 -49 -53 -54 -58 -59 0
-12 -32 -33 -48 -49 -53 -55 -58 -59 0
-12 -32 -33 -48 -49 -54 -55 -58 -60 0
-12 -32 -33 -48 -49 -54 -55 -59 -60 0
-12 -32 -33 -48 -49 -54 -55 -64 -65 0
-12 -32 -33 -48 -49 -60 -61 -64 -65 0
-12 -32 -33 -55 -56 -60 -61 -64 -65 0
-11 -40 -41 -47 -48 -53 -54 -58 -59 0
-12 -40 -42 -47 -48 -53 -54 -58 -59 0
-12 -41 -42 -47 -49 -53 -54 -58 -59 0
-12 -41 -42 -48 -49 -53 -55 -58 -59 0
-12 -41 -42 -48 -49 -54 -55 -58 -60 0
-12 -41 -42 -48 -49 -54 -55 -59 -60 0
-12 -41 -42 -48 -49 -54 -55 -64 -65 0
-12 -41 -42 -48 -49 -60 -61 -64 -65 0
-12 -41 -42 -55 -56 -60 -61 -64 -65 0
-12 -49 -50 -55 -56 -60 -61 -64 -65 0
-21 -30 -31 -38 -39 -45 -46 -51 -52 0
-22 -30 -32 -38 -39 -45 -46 -51 -52 0
-23 -30 -33 -38 -39 -45 -46 -51 -52 0
-22 -31 -32 -38 -40 -45 -46 -51 -52 0
-23 -31 -33 -38 -40 -45 -46 -51 -52 0
-23 -32 -33 -38 -41 -45 -46 -51 -52 0
-22 -31 -32 -39 -40 -45 -47 -51 -52 0
-23 -31 -33 -39 -40 -45 -47 -51 -52 0
-23 -32 -33 -39 -41 -45 -47 -51 -52 0
-23 -32 -33 -40 -41 -45 -48 -51 -52 0
-22 -31 -32 -39 -40 -46 -47 -51 -53 0
-23 -31 -33 -39 -40 -46 -47 -51 -53 0
-23 -32 -33 -39 -41 -46 -47 -51 -53 0
-23 -32 -33 -40 -41 -46 -48 -51 -53 0
-23 -32 -33 -40 -41 -47 -48 -51 -54 0
-22 -31 -32 -39 -40 -46 -47 -52 -53 0
-23 -31 -33 -39 -40 -46 -47 -52 -53 0
-23 -32 -33 -39 -41 -46 -47 -52 -53 0
-23 -32 -33 -40 -41 -46 -48 -52 -53 0
-23 -32 -33 -40 -41 -47 -48 -52 -54 0
-23 -32 -33 -40 -41 -47 -48 -53 -54 0
-22 -31 -32 -39 -40 -46 -47 -58 -59 0
-23 -31 -33 -39 -40 -46 -47 -58 -59 0
-23 -32 -33 -39 -41 -46 -47 -58 -59 0
-23 -32 -33 -40 -41 -46 -48 -58 -59 0
-23 -32 -33 -40 -41 -47 -48 -58 -60 0
-23 -32 -33 -40 -41 -47 -48 -59 -60 0
-23 -32 -33 -40 -41 -47 -48 -64 -65 0
-22 -31 -32 -39 -40 -53 -54 -58 -59 0
-23 -31 -33 -39 -40 -53 -54 -58 -59 0
-23 -32 -33 -39 -41 -53 -54 -58 -59 0
-23 -32 -33 -40 -41 -53 -55 -58 -59 0
-23 -32 -33 -40 -41 -54 -55 -58 -60 0
-23 -32 -33 -40 -41 -54 -55 -59 -60 0
-23 -32 -33 -40 -41 -54 -55 -64 -65 0
-23 -32 -33 -40 -41 -60 -61 -64 -65 0
-22 -31 -32 -47 -48 -53 -54 -58 -59 0
-23 -31 -33 -47 -48 -53 -54 -58 -59 0
-23 -32 -33 -47 -49 -53 -54 -58 -59 0
-23 -32 -33 -48 -49 -53 -55 -58 -59 0
-23 -32 -33 -48 -49 -54 -55 -58 -60 0
-23 -32 -33 -48 -49 -54 -55 -59 -60 0
-23 -32 -33 -48 -49 -54 -55 -64 -65 0
-23 -32 -33 -48 -49 -60 -61 -64 -65 0
-23 -32 -33 -55 -56 -60 -61 -64 -65 0
-22 -40 -41 -47 -48 -53 -54 -58 -59 0
-23 -40 -42 -47 -48 -53 -54 -58 -59 0
-23 -41 -42 -47 -49 -53 -54 -58 -59 0
-23 -41 -42 -48 -49 -53 -55 -58 -59 0
-23 -41 -42 -48 -49 -54 -55 -58 -60 0
-23 -41 -42 -48 -49 -54 -55 -59 -60 0
-23 -41 -42 -48 -49 -54 -55 -64 -65 0
-23 -41 -42 -48 -49 -60 -61 -64 -65 0
-23 -41 -42 -55 -56 -60 -61 -64 -65 0
-23 -49 -50 -55 -56 -60 -61 -64 -65 0
-32 -40 -41 -47 -48 -53 -54 -58 -59 0
-33 -40 -42 -47 -48 -53 -54 -58 -59 0
-33 -41 -42 -47 -49 -53 -54 -58 -59 0
-33 -41 -42 -48 -49 -53 -55 -58 -59 0
-33 -41 -42 -48 -49 -54 -55 -58 -60 0
-33 -41 -42 -48 -49 -54 -55 -59 -60 0
-33 -41 -42 -48 -49 -54 -55 -64 -65 0
-33 -41 -42 -48 -49 -60 -61 -64 -65 0
-33 -41 -42 -55 -56 -60 -61 -64 -65 0
-33 -49 -50 -55 -56 -60 -61 -64 -65 0
-42 -49 -50 -55 -56 -60 -61 -64 -65 0
