c Ordered Ramsey CNF instance
c n = 12, N = 15
c Positive literal = blue edge
c Negative literal = red edge
p cnf 105 910
1 2 0
1 3 0
1 4 0
1 5 0
1 6 0
1 7 0
1 8 0
1 9 0
1 10 0
1 11 0
1 12 0
1 13 0
1 14 0
2 3 0
2 4 0
2 5 0
2 6 0
2 7 0
2 8 0
2 9 0
2 10 0
2 11 0
2 12 0
2 13 0
2 14 0
3 4 0
3 5 0
3 6 0
3 7 0
3 8 0
3 9 0
3 10 0
3 11 0
3 12 0
3 13 0
3 14 0
4 5 0
4 6 0
4 7 0
4 8 0
4 9 0
4 10 0
4 11 0
4 12 0
4 13 0
4 14 0
5 6 0
5 7 0
5 8 0
5 9 0
5 10 0
5 11 0
5 12 0
5 13 0
5 14 0
6 7 0
6 8 0
6 9 0
6 10 0
6 11 0
6 12 0
6 13 0
6 14 0
7 8 0
7 9 0
7 10 0
7 11 0
7 12 0
7 13 0
7 14 0
8 9 0
8 10 0
8 11 0
8 12 0
8 13 0
8 14 0
9 10 0
9 11 0
9 12 0
9 13 0
9 14 0
10 11 0
10 12 0
10 13 0
10 14 0
11 12 0
11 13 0
11 14 0
12 13 0
12 14 0
13 14 0
15 16 0
15 17 0
15 18 0
15 19 0
15 20 0
15 21 0
15 22 0
15 23 0
15 24 0
15 25 0
15 26 0
15 27 0
16 17 0
16 18 0
16 19 0
16 20 0
16 21 0
16 22 0
16 23 0
16 24 0
16 25 0
16 26 0
16 27 0
17 18 0
17 19 0
17 20 0
17 21 0
17 22 0
17 23 0
17 24 0
17 25 0
17 26 0
17 27 0
18 19 0
18 20 0
18 21 0
18 22 0
18 23 0
18 24 0
18 25 0
18 26 0
18 27 0
19 20 0
19 21 0
19 22 0
19 23 0
19 24 0
19 25 0
19 26 0
19 27 0
20 21 0
20 22 0
20 23 0
20 24 0
20 25 0
20 26 0
20 27 0
21 22 0
21 23 0
21 24 0
21 25 0
21 26 0
21 27 0
22 23 0
22 24 0
22 25 0
22 26 0
22 27 0
23 24 0
23 25 0
23 26 0
23 27 0
24 25 0
24 26 0
24 27 0
25 26 0
25 27 0
26 27 0
28 29 0
28 30 0
28 31 0
28 32 0
28 33 0
28 34 0
28 35 0
28 36 0
28 37 0
28 38 0
28 39 0
29 30 0
29 31 0
29 32 0
29 33 0
29 34 0
29 35 0
29 36 0
29 37 0
29 38 0
29 39 0
30 31 0
30 32 0
30 33 0
30 34 0
30 35 0
30 36 0
30 37 0
30 38 0
30 39 0
31 32 0
31 33 0
31 34 0
31 35 0
31 36 0
31 37 0
31 38 0
31 39 0
32 33 0
32 34 0
32 35 0
32 36 0
32 37 0
32 38 0
32 39 0
33 34 0
33 35 0
33 36 0
33 37 0
33 38 0
33 39 0
34 35 0
34 36 0
34 37 0
34 38 0
34 39 0
35 36 0
35 37 0
35 38 0
35 39 0
36 37 0
36 38 0
36 39 0
37 38 0
37 39 0
38 39 0
40 41 0
40 42 0
40 43 0
40 44 0
40 45 0
40 46 0
40 47 0
40 48 0
40 49 0
40 50 0
41 42 0
41 43 0
41 44 0
41 45 0
41 46 0
41 47 0
41 48 0
41 49 0
41 50 0
42 43 0
42 44 0
42 45 0
42 46 0
42 47 0
42 48 0
42 49 0
42 50 0
43 44 0
43 45 0
43 46 0
43 47 0
43 48 0
43 49 0
43 50 0
44 45 0
44 46 0
44 47 0
44 48 0
44 49 0
44 50 0
45 46 0
45 47 0
45 48 0
45 49 0
45 50 0
46 47 0
46 48 0
46 49 0
46 50 0
47 48 0
47 49 0
47 50 0
48 49 0
48 50 0
49 50 0
51 52 0
51 53 0
51 54 0
51 55 0
51 56 0
51 57 0
51 58 0
51 59 0
51 60 0
52 53 0
52 54 0
52 55 0
52 56 0
52 57 0
52 58 0
52 59 0
52 60 0
53 54 0
53 55 0
53 56 0
53 57 0
53 58 0
53 59 0
53 60 0
54 55 0
54 56 0
54 57 0
54 58 0
54 59 0
54 60 0
55 56 0
55 57 0
55 58 0
55 59 0
55 60 0
56 57 0
56 58 0
56 59 0
56 60 0
57 58 0
57 59 0
57 60 0
58 59 0
58 60 0
59 60 0
61 62 0
61 63 0
61 64 0
61 65 0
61 66 0
61 67 0
61 68 0
61 69 0
62 63 0
62 64 0
62 65 0
62 66 0
62 67 0
62 68 0
62 69 0
63 64 0
63 65 0
63 66 0
63 67 0
63 68 0
63 69 0
64 65 0
64 66 0
64 67 0
64 68 0
64 69 0
65 66 0
65 67 0
65 68 0
65 69 0
66 67 0
66 68 0
66 69 0
67 68 0
67 69 0
68 69 0
70 71 0
70 72 0
70 73 0
70 74 0
70 75 0
70 76 0
70 77 0
71 72 0
71 73 0
71 74 0
71 75 0
71 76 0
71 77 0
72 73 0
72 74 0
72 75 0
72 76 0
72 77 0
73 74 0
73 75 0
73 76 0
73 77 0
74 75 0
74 76 0
74 77 0
75 76 0
75 77 0
76 77 0
78 79 0
78 80 0
78 81 0
78 82 0
78 83 0
78 84 0
79 80 0
79 81 0
79 82 0
79 83 0
79 84 0
80 81 0
80 82 0
80 83 0
80 84 0
81 82 0
81 83 0
81 84 0
82 83 0
82 84 0
83 84 0
85 86 0
85 87 0
85 88 0
85 89 0
85 90 0
86 87 0
86 88 0
86 89 0
86 90 0
87 88 0
87 89 0
87 90 0
88 89 0
88 90 0
89 90 0
91 92 0
91 93 0
91 94 0
91 95 0
92 93 0
92 94 0
92 95 0
93 94 0
93 95 0
94 95 0
96 97 0
96 98 0
96 99 0
97 98 0
97 99 0
98 99 0
100 101 0
100 102 0
101 102 0
103 104 0
-11 -23 -24 -34 -35 -44 -45 -53 -54 -61 -62 0
-12 -23 -25 -34 -35 -44 -45 -53 -54 -61 -62 0
-13 -23 -26 -34 -35 -44 -45 -53 -54 -61 -62 0
-14 -23 -27 -34 -35 -44 -45 -53 -54 -61 -62 0
-12 -24 -25 -34 -36 -44 -45 -53 -54 -61 -62 0
-13 -24 -26 -34 -36 -44 -45 -53 -54 -61 -62 0
-14 -24 -27 -34 -36 -44 -45 -53 -54 -61 -62 0
-13 -25 -26 -34 -37 -44 -45 -53 -54 -61 -62 0
-14 -25 -27 -34 -37 -44 -45 -53 -54 -61 -62 0
-14 -26 -27 -34 -38 -44 -45 -53 -54 -61 -62 0
-12 -24 -25 -35 -36 -44 -46 -53 -54 -61 -62 0
-13 -24 -26 -35 -36 -44 -46 -53 -54 -61 -62 0
-14 -24 -27 -35 -36 -44 -46 -53 -54 -61 -62 0
-13 -25 -26 -35 -37 -44 -46 -53 -54 -61 -62 0
-14 -25 -27 -35 -37 -44 -46 -53 -54 -61 -62 0
-14 -26 -27 -35 -38 -44 -46 -53 -54 -61 -62 0
-13 -25 -26 -36 -37 -44 -47 -53 -54 -61 -62 0
-14 -25 -27 -36 -37 -44 -47 -53 -54 -61 -62 0
-14 -26 -27 -36 -38 -44 -47 -53 -54 -61 -62 0
-14 -26 -27 -37 -38 -44 -48 -53 -54 -61 -62 0
-12 -24 -25 -35 -36 -45 -46 -53 -55 -61 -62 0
-13 -24 -26 -35 -36 -45 -46 -53 -55 -61 -62 0
-14 -24 -27 -35 -36 -45 -46 -53 -55 -61 -62 0
-13 -25 -26 -35 -37 -45 -46 -53 -55 -61 -62 0
-14 -25 -27 -35 -37 -45 -46 -53 -55 -61 -62 0
-14 -26 -27 -35 -38 -45 -46 -53 -55 -61 -62 0
-13 -25 -26 -36 -37 -45 -47 -53 -55 -61 -62 0
-14 -25 -27 -36 -37 -45 -47 -53 -55 -61 -62 0
-14 -26 -27 -36 -38 -45 -47 -53 -55 -61 -62 0
-14 -26 -27 -37 -38 -45 -48 -53 -55 -61 -62 0
-13 -25 -26 -36 -37 -46 -47 -53 -56 -61 -62 0
-14 -25 -27 -36 -37 -46 -47 -53 -56 -61 -62 0
-14 -26 -27 -36 -38 -46 -47 -53 -56 -61 -62 0
-14 -26 -27 -37 -38 -46 -48 -53 -56 -61 -62 0
-14 -26 -27 -37 -38 -47 -48 -53 -57 -61 -62 0
-12 -24 -25 -35 -36 -45 -46 -54 -55 -61 -63 0
-13 -24 -26 -35 -36 -45 -46 -54 -55 -61 -63 0
-14 -24 -27 -35 -36 -45 -46 -54 -55 -61 -63 0
-13 -25 -26 -35 -37 -45 -46 -54 -55 -61 -63 0
-14 -25 -27 -35 -37 -45 -46 -54 -55 -61 -63 0
-14 -26 -27 -35 -38 -45 -46 -54 -55 -61 -63 0
-13 -25 -26 -36 -37 -45 -47 -54 -55 -61 -63 0
-14 -25 -27 -36 -37 -45 -47 -54 -55 -61 -63 0
-14 -26 -27 -36 -38 -45 -47 -54 -55 -61 -63 0
-14 -26 -27 -37 -38 -45 -48 -54 -55 -61 -63 0
-13 -25 -26 -36 -37 -46 -47 -54 -56 -61 -63 0
-14 -25 -27 -36 -37 -46 -47 -54 -56 -61 -63 0
-14 -26 -27 -36 -38 -46 -47 -54 -56 -61 -63 0
-14 -26 -27 -37 -38 -46 -48 -54 -56 -61 -63 0
-14 -26 -27 -37 -38 -47 -48 -54 -57 -61 -63 0
-13 -25 -26 -36 -37 -46 -47 -55 -56 -61 -64 0
-14 -25 -27 -36 -37 -46 -47 -55 -56 -61 -64 0
-14 -26 -27 -36 -38 -46 -47 -55 -56 -61 -64 0
-14 -26 -27 -37 -38 -46 -48 -55 -56 -61 -64 0
-14 -26 -27 -37 -38 -47 -48 -55 -57 -61 -64 0
-14 -26 -27 -37 -38 -47 -48 -56 -57 -61 -65 0
-12 -24 -25 -35 -36 -45 -46 -54 -55 -62 -63 0
-13 -24 -26 -35 -36 -45 -46 -54 -55 -62 -63 0
-14 -24 -27 -35 -36 -45 -46 -54 -55 -62 -63 0
-13 -25 -26 -35 -37 -45 -46 -54 -55 -62 -63 0
-14 -25 -27 -35 -37 -45 -46 -54 -55 -62 -63 0
-14 -26 -27 -35 -38 -45 -46 -54 -55 -62 -63 0
-13 -25 -26 -36 -37 -45 -47 -54 -55 -62 -63 0
-14 -25 -27 -36 -37 -45 -47 -54 -55 -62 -63 0
-14 -26 -27 -36 -38 -45 -47 -54 -55 -62 -63 0
-14 -26 -27 -37 -38 -45 -48 -54 -55 -62 -63 0
-13 -25 -26 -36 -37 -46 -47 -54 -56 -62 -63 0
-14 -25 -27 -36 -37 -46 -47 -54 -56 -62 -63 0
-14 -26 -27 -36 -38 -46 -47 -54 -56 -62 -63 0
-14 -26 -27 -37 -38 -46 -48 -54 -56 -62 -63 0
-14 -26 -27 -37 -38 -47 -48 -54 -57 -62 -63 0
-13 -25 -26 -36 -37 -46 -47 -55 -56 -62 -64 0
-14 -25 -27 -36 -37 -46 -47 -55 -56 -62 -64 0
-14 -26 -27 -36 -38 -46 -47 -55 -56 -62 -64 0
-14 -26 -27 -37 -38 -46 -48 -55 -56 -62 -64 0
-14 -26 -27 -37 -38 -47 -48 -55 -57 -62 -64 0
-14 -26 -27 -37 -38 -47 -48 -56 -57 -62 -65 0
-13 -25 -26 -36 -37 -46 -47 -55 -56 -63 -64 0
-14 -25 -27 -36 -37 -46 -47 -55 -56 -63 -64 0
-14 -26 -27 -36 -38 -46 -47 -55 -56 -63 -64 0
-14 -26 -27 -37 -38 -46 -48 -55 -56 -63 -64 0
-14 -26 -27 -37 -38 -47 -48 -55 -57 -63 -64 0
-14 -26 -27 -37 -38 -47 -48 -56 -57 -63 -65 0
-14 -26 -27 -37 -38 -47 -48 -56 -57 -64 -65 0
-12 -24 -25 -35 -36 -45 -46 -54 -55 -70 -71 0
-13 -24 -26 -35 -36 -45 -46 -54 -55 -70 -71 0
-14 -24 -27 -35 -36 -45 -46 -54 -55 -70 -71 0
-13 -25 -26 -35 -37 -45 -46 -54 -55 -70 -71 0
-14 -25 -27 -35 -37 -45 -46 -54 -55 -70 -71 0
-14 -26 -27 -35 -38 -45 -46 -54 -55 -70 -71 0
-13 -25 -26 -36 -37 -45 -47 -54 -55 -70 -71 0
-14 -25 -27 -36 -37 -45 -47 -54 -55 -70 -71 0
-14 -26 -27 -36 -38 -45 -47 -54 -55 -70 -71 0
-14 -26 -27 -37 -38 -45 -48 -54 -55 -70 -71 0
-13 -25 -26 -36 -37 -46 -47 -54 -56 -70 -71 0
-14 -25 -27 -36 -37 -46 -47 -54 -56 -70 -71 0
-14 -26 -27 -36 -38 -46 -47 -54 -56 -70 -71 0
-14 -26 -27 -37 -38 -46 -48 -54 -56 -70 -71 0
-14 -26 -27 -37 -38 -47 -48 -54 -57 -70 -71 0
-13 -25 -26 -36 -37 -46 -47 -55 -56 -70 -72 0
-14 -25 -27 -36 -37 -46 -47 -55 -56 -70 -72 0
-14 -26 -27 -36 -38 -46 -47 -55 -56 -70 -72 0
-14 -26 -27 -37 -38 -46 -48 -55 -56 -70 -72 0
-14 -26 -27 -37 -38 -47 -48 -55 -57 -70 -72 0
-14 -26 -27 -37 -38 -47 -48 -56 -57 -70 -73 0
-13 -25 -26 -36 -37 -46 -47 -55 -56 -71 -72 0
-14 -25 -27 -36 -37 -46 -47 -55 -56 -71 -72 0
-14 -26 -27 -36 -38 -46 -47 -55 -56 -71 -72 0
-14 -26 -27 -37 -38 -46 -48 -55 -56 -71 -72 0
-14 -26 -27 -37 -38 -47 -48 -55 -57 -71 -72 0
-14 -26 -27 -37 -38 -47 -48 -56 -57 -71 -73 0
-14 -26 -27 -37 -38 -47 -48 -56 -57 -72 -73 0
-13 -25 -26 -36 -37 -46 -47 -55 -56 -78 -79 0
-14 -25 -27 -36 -37 -46 -47 -55 -56 -78 -79 0
-14 -26 -27 -36 -38 -46 -47 -55 -56 -78 -79 0
-14 -26 -27 -37 -38 -46 -48 -55 -56 -78 -79 0
-14 -26 -27 -37 -38 -47 -48 -55 -57 -78 -79 0
-14 -26 -27 -37 -38 -47 -48 -56 -57 -78 -80 0
-14 -26 -27 -37 -38 -47 -48 -56 -57 -79 -80 0
-14 -26 -27 -37 -38 -47 -48 -56 -57 -85 -86 0
-12 -24 -25 -35 -36 -45 -46 -63 -64 -70 -71 0
-13 -24 -26 -35 -36 -45 -46 -63 -64 -70 -71 0
-14 -24 -27 -35 -36 -45 -46 -63 -64 -70 -71 0
-13 -25 -26 -35 -37 -45 -46 -63 -64 -70 -71 0
-14 -25 -27 -35 -37 -45 -46 -63 -64 -70 -71 0
-14 -26 -27 -35 -38 -45 -46 -63 -64 -70 -71 0
-13 -25 -26 -36 -37 -45 -47 -63 -64 -70 -71 0
-14 -25 -27 -36 -37 -45 -47 -63 -64 -70 -71 0
-14 -26 -27 -36 -38 -45 -47 -63 -64 -70 -71 0
-14 -26 -27 -37 -38 -45 -48 -63 -64 -70 -71 0
-13 -25 -26 -36 -37 -46 -47 -63 -65 -70 -71 0
-14 -25 -27 -36 -37 -46 -47 -63 -65 -70 -71 0
-14 -26 -27 -36 -38 -46 -47 -63 -65 -70 -71 0
-14 -26 -27 -37 -38 -46 -48 -63 -65 -70 -71 0
-14 -26 -27 -37 -38 -47 -48 -63 -66 -70 -71 0
-13 -25 -26 -36 -37 -46 -47 -64 -65 -70 -72 0
-14 -25 -27 -36 -37 -46 -47 -64 -65 -70 -72 0
-14 -26 -27 -36 -38 -46 -47 -64 -65 -70 -72 0
-14 -26 -27 -37 -38 -46 -48 -64 -65 -70 -72 0
-14 -26 -27 -37 -38 -47 -48 -64 -66 -70 -72 0
-14 -26 -27 -37 -38 -47 -48 -65 -66 -70 -73 0
-13 -25 -26 -36 -37 -46 -47 -64 -65 -71 -72 0
-14 -25 -27 -36 -37 -46 -47 -64 -65 -71 -72 0
-14 -26 -27 -36 -38 -46 -47 -64 -65 -71 -72 0
-14 -26 -27 -37 -38 -46 -48 -64 -65 -71 -72 0
-14 -26 -27 -37 -38 -47 -48 -64 -66 -71 -72 0
-14 -26 -27 -37 -38 -47 -48 -65 -66 -71 -73 0
-14 -26 -27 -37 -38 -47 -48 -65 -66 -72 -73 0
-13 -25 -26 -36 -37 -46 -47 -64 -65 -78 -79 0
-14 -25 -27 -36 -37 -46 -47 -64 -65 -78 -79 0
-14 -26 -27 -36 -38 -46 -47 -64 -65 -78 -79 0
-14 -26 -27 -37 -38 -46 -48 -64 -65 -78 -79 0
-14 -26 -27 -37 -38 -47 -48 -64 -66 -78 -79 0
-14 -26 -27 -37 -38 -47 -48 -65 -66 -78 -80 0
-14 -26 -27 -37 -38 -47 -48 -65 -66 -79 -80 0
-14 -26 -27 -37 -38 -47 -48 -65 -66 -85 -86 0
-13 -25 -26 -36 -37 -46 -47 -72 -73 -78 -79 0
-14 -25 -27 -36 -37 -46 -47 -72 -73 -78 -79 0
-14 -26 -27 -36 -38 -46 -47 -72 -73 -78 -79 0
-14 -26 -27 -37 -38 -46 -48 -72 -73 -78 -79 0
-14 -26 -27 -37 -38 -47 -48 -72 -74 -78 -79 0
-14 -26 -27 -37 -38 -47 -48 -73 -74 -78 -80 0
-14 -26 -27 -37 -38 -47 -48 -73 -74 -79 -80 0
-14 -26 -27 -37 -38 -47 -48 -73 -74 -85 -86 0
-14 -26 -27 -37 -38 -47 -48 -80 -81 -85 -86 0
-12 -24 -25 -35 -36 -55 -56 -63 -64 -70 -71 0
-13 -24 -26 -35 -36 -55 -56 -63 -64 -70 -71 0
-14 -24 -27 -35 -36 -55 -56 -63 -64 -70 -71 0
-13 -25 -26 -35 -37 -55 -56 -63 -64 -70 -71 0
-14 -25 -27 -35 -37 -55 -56 -63 -64 -70 -71 0
-14 -26 -27 -35 -38 -55 -56 -63 -64 -70 -71 0
-13 -25 -26 -36 -37 -55 -57 -63 -64 -70 -71 0
-14 -25 -27 -36 -37 -55 -57 -63 -64 -70 -71 0
-14 -26 -27 -36 -38 -55 -57 -63 -64 -70 -71 0
-14 -26 -27 -37 -38 -55 -58 -63 -64 -70 -71 0
-13 -25 -26 -36 -37 -56 -57 -63 -65 -70 -71 0
-14 -25 -27 -36 -37 -56 -57 -63 -65 -70 -71 0
-14 -26 -27 -36 -38 -56 -57 -63 -65 -70 -71 0
-14 -26 -27 -37 -38 -56 -58 -63 -65 -70 -71 0
-14 -26 -27 -37 -38 -57 -58 -63 -66 -70 -71 0
-13 -25 -26 -36 -37 -56 -57 -64 -65 -70 -72 0
-14 -25 -27 -36 -37 -56 -57 -64 -65 -70 -72 0
-14 -26 -27 -36 -38 -56 -57 -64 -65 -70 -72 0
-14 -26 -27 -37 -38 -56 -58 -64 -65 -70 -72 0
-14 -26 -27 -37 -38 -57 -58 -64 -66 -70 -72 0
-14 -26 -27 -37 -38 -57 -58 -65 -66 -70 -73 0
-13 -25 -26 -36 -37 -56 -57 -64 -65 -71 -72 0
-14 -25 -27 -36 -37 -56 -57 -64 -65 -71 -72 0
-14 -26 -27 -36 -38 -56 -57 -64 -65 -71 -72 0
-14 -26 -27 -37 -38 -56 -58 -64 -65 -71 -72 0
-14 -26 -27 -37 -38 -57 -58 -64 -66 -71 -72 0
-14 -26 -27 -37 -38 -57 -58 -65 -66 -71 -73 0
-14 -26 -27 -37 -38 -57 -58 -65 -66 -72 -73 0
-13 -25 -26 -36 -37 -56 -57 -64 -65 -78 -79 0
-14 -25 -27 -36 -37 -56 -57 -64 -65 -78 -79 0
-14 -26 -27 -36 -38 -56 -57 -64 -65 -78 -79 0
-14 -26 -27 -37 -38 -56 -58 -64 -65 -78 -79 0
-14 -26 -27 -37 -38 -57 -58 -64 -66 -78 -79 0
-14 -26 -27 -37 -38 -57 -58 -65 -66 -78 -80 0
-14 -26 -27 -37 -38 -57 -58 -65 -66 -79 -80 0
-14 -26 -27 -37 -38 -57 -58 -65 -66 -85 -86 0
-13 -25 -26 -36 -37 -56 -57 -72 -73 -78 -79 0
-14 -25 -27 -36 -37 -56 -57 -72 -73 -78 -79 0
-14 -26 -27 -36 -38 -56 -57 -72 -73 -78 -79 0
-14 -26 -27 -37 -38 -56 -58 -72 -73 -78 -79 0
-14 -26 -27 -37 -38 -57 -58 -72 -74 -78 -79 0
-14 -26 -27 -37 -38 -57 -58 -73 -74 -78 -80 0
-14 -26 -27 -37 -38 -57 -58 -73 -74 -79 -80 0
-14 -26 -27 -37 -38 -57 -58 -73 -74 -85 -86 0
-14 -26 -27 -37 -38 -57 -58 -80 -81 -85 -86 0
-13 -25 -26 -36 -37 -65 -66 -72 -73 -78 -79 0
-14 -25 -27 -36 -37 -65 -66 -72 -73 -78 -79 0
-14 -26 -27 -36 -38 -65 -66 -72 -73 -78 -79 0
-14 -26 -27 -37 -38 -65 -67 -72 -73 -78 -79 0
-14 -26 -27 -37 -38 -66 -67 -72 -74 -78 -79 0
-14 -26 -27 -37 -38 -66 -67 -73 -74 -78 -80 0
-14 -26 -27 -37 -38 -66 -67 -73 -74 -79 -80 0
-14 -26 -27 -37 -38 -66 -67 -73 -74 -85 -86 0
-14 -26 -27 -37 -38 -66 -67 -80 -81 -85 -86 0
-14 -26 -27 -37 -38 -74 -75 -80 -81 -85 -86 0
-12 -24 -25 -46 -47 -55 -56 -63 -64 -70 -71 0
-13 -24 -26 -46 -47 -55 -56 -63 -64 -70 -71 0
-14 -24 -27 -46 -47 -55 -56 -63 -64 -70 -71 0
-13 -25 -26 -46 -48 -55 -56 -63 -64 -70 -71 0
-14 -25 -27 -46 -48 -55 -56 -63 -64 -70 -71 0
-14 -26 -27 -46 -49 -55 -56 -63 -64 -70 -71 0
-13 -25 -26 -47 -48 -55 -57 -63 -64 -70 -71 0
-14 -25 -27 -47 -48 -55 -57 -63 -64 -70 -71 0
-14 -26 -27 -47 -49 -55 -57 -63 -64 -70 -71 0
-14 -26 -27 -48 -49 -55 -58 -63 -64 -70 -71 0
-13 -25 -26 -47 -48 -56 -57 -63 -65 -70 -71 0
-14 -25 -27 -47 -48 -56 -57 -63 -65 -70 -71 0
-14 -26 -27 -47 -49 -56 -57 -63 -65 -70 -71 0
-14 -26 -27 -48 -49 -56 -58 -63 -65 -70 -71 0
-14 -26 -27 -48 -49 -57 -58 -63 -66 -70 -71 0
-13 -25 -26 -47 -48 -56 -57 -64 -65 -70 -72 0
-14 -25 -27 -47 -48 -56 -57 -64 -65 -70 -72 0
-14 -26 -27 -47 -49 -56 -57 -64 -65 -70 -72 0
-14 -26 -27 -48 -49 -56 -58 -64 -65 -70 -72 0
-14 -26 -27 -48 -49 -57 -58 -64 -66 -70 -72 0
-14 -26 -27 -48 -49 -57 -58 -65 -66 -70 -73 0
-13 -25 -26 -47 -48 -56 -57 -64 -65 -71 -72 0
-14 -25 -27 -47 -48 -56 -57 -64 -65 -71 -72 0
-14 -26 -27 -47 -49 -56 -57 -64 -65 -71 -72 0
-14 -26 -27 -48 -49 -56 -58 -64 -65 -71 -72 0
-14 -26 -27 -48 -49 -57 -58 -64 -66 -71 -72 0
-14 -26 -27 -48 -49 -57 -58 -65 -66 -71 -73 0
-14 -26 -27 -48 -49 -57 -58 -65 -66 -72 -73 0
-13 -25 -26 -47 -48 -56 -57 -64 -65 -78 -79 0
-14 -25 -27 -47 -48 -56 -57 -64 -65 -78 -79 0
-14 -26 -27 -47 -49 -56 -57 -64 -65 -78 -79 0
-14 -26 -27 -48 -49 -56 -58 -64 -65 -78 -79 0
-14 -26 -27 -48 -49 -57 -58 -64 -66 -78 -79 0
-14 -26 -27 -48 -49 -57 -58 -65 -66 -78 -80 0
-14 -26 -27 -48 -49 -57 -58 -65 -66 -79 -80 0
-14 -26 -27 -48 -49 -57 -58 -65 -66 -85 -86 0
-13 -25 -26 -47 -48 -56 -57 -72 -73 -78 -79 0
-14 -25 -27 -47 -48 -56 -57 -72 -73 -78 -79 0
-14 -26 -27 -47 -49 -56 -57 -72 -73 -78 -79 0
-14 -26 -27 -48 -49 -56 -58 -72 -73 -78 -79 0
-14 -26 -27 -48 -49 -57 -58 -72 -74 -78 -79 0
-14 -26 -27 -48 -49 -57 -58 -73 -74 -78 -80 0
-14 -26 -27 -48 -49 -57 -58 -73 -74 -79 -80 0
-14 -26 -27 -48 -49 -57 -58 -73 -74 -85 -86 0
-14 -26 -27 -48 -49 -57 -58 -80 -81 -85 -86 0
-13 -25 -26 -47 -48 -65 -66 -72 -73 -78 -79 0
-14 -25 -27 -47 -48 -65 -66 -72 -73 -78 -79 0
-14 -26 -27 -47 -49 -65 -66 -72 -73 -78 -79 0
-14 -26 -27 -48 -49 -65 -67 -72 -73 -78 -79 0
-14 -26 -27 -48 -49 -66 -67 -72 -74 -78 -79 0
-14 -26 -27 -48 -49 -66 -67 -73 -74 -78 -80 0
-14 -26 -27 -48 -49 -66 -67 -73 -74 -79 -80 0
-14 -26 -27 -48 -49 -66 -67 -73 -74 -85 -86 0
-14 -26 -27 -48 -49 -66 -67 -80 -81 -85 -86 0
-14 -26 -27 -48 -49 -74 -75 -80 -81 -85 -86 0
-13 -25 -26 -57 -58 -65 -66 -72 -73 -78 -79 0
-14 -25 -27 -57 -58 -65 -66 -72 -73 -78 -79 0
-14 -26 -27 -57 -59 -65 -66 -72 -73 -78 -79 0
-14 -26 -27 -58 -59 -65 -67 -72 -73 -78 -79 0
-14 -26 -27 -58 -59 -66 -67 -72 -74 -78 -79 0
-14 -26 -27 -58 -59 -66 -67 -73 -74 -78 -80 0
-14 -26 -27 -58 -59 -66 -67 -73 -74 -79 -80 0
-14 -26 -27 -58 -59 -66 -67 -73 -74 -85 -86 0
-14 -26 -27 -58 -59 -66 -67 -80 -81 -85 -86 0
-14 -26 -27 -58 -59 -74 -75 -80 -81 -85 -86 0
-14 -26 -27 -67 -68 -74 -75 -80 -81 -85 -86 0
-12 -36 -37 -46 -47 -55 -56 -63 -64 -70 -71 0
-13 -36 -38 -46 -47 -55 -56 -63 -64 -70 -71 0
-14 -36 -39 -46 -47 -55 -56 -63 -64 -70 -71 0
-13 -37 -38 -46 -48 -55 -56 -63 -64 -70 -71 0
-14 -37 -39 -46 -48 -55 -56 -63 -64 -70 -71 0
-14 -38 -39 -46 -49 -55 -56 -63 -64 -70 -71 0
-13 -37 -38 -47 -48 -55 -57 -63 -64 -70 -71 0
-14 -37 -39 -47 -48 -55 -57 -63 -64 -70 -71 0
-14 -38 -39 -47 -49 -55 -57 -63 -64 -70 -71 0
-14 -38 -39 -48 -49 -55 -58 -63 -64 -70 -71 0
-13 -37 -38 -47 -48 -56 -57 -63 -65 -70 -71 0
-14 -37 -39 -47 -48 -56 -57 -63 -65 -70 -71 0
-14 -38 -39 -47 -49 -56 -57 -63 -65 -70 -71 0
-14 -38 -39 -48 -49 -56 -58 -63 -65 -70 -71 0
-14 -38 -39 -48 -49 -57 -58 -63 -66 -70 -71 0
-13 -37 -38 -47 -48 -56 -57 -64 -65 -70 -72 0
-14 -37 -39 -47 -48 -56 -57 -64 -65 -70 -72 0
-14 -38 -39 -47 -49 -56 -57 -64 -65 -70 -72 0
-14 -38 -39 -48 -49 -56 -58 -64 -65 -70 -72 0
-14 -38 -39 -48 -49 -57 -58 -64 -66 -70 -72 0
-14 -38 -39 -48 -49 -57 -58 -65 -66 -70 -73 0
-13 -37 -38 -47 -48 -56 -57 -64 -65 -71 -72 0
-14 -37 -39 -47 -48 -56 -57 -64 -65 -71 -72 0
-14 -38 -39 -47 -49 -56 -57 -64 -65 -71 -72 0
-14 -38 -39 -48 -49 -56 -58 -64 -65 -71 -72 0
-14 -38 -39 -48 -49 -57 -58 -64 -66 -71 -72 0
-14 -38 -39 -48 -49 -57 -58 -65 -66 -71 -73 0
-14 -38 -39 -48 -49 -57 -58 -65 -66 -72 -73 0
-13 -37 -38 -47 -48 -56 -57 -64 -65 -78 -79 0
-14 -37 -39 -47 -48 -56 -57 -64 -65 -78 -79 0
-14 -38 -39 -47 -49 -56 -57 -64 -65 -78 -79 0
-14 -38 -39 -48 -49 -56 -58 -64 -65 -78 -79 0
-14 -38 -39 -48 -49 -57 -58 -64 -66 -78 -79 0
-14 -38 -39 -48 -49 -57 -58 -65 -66 -78 -80 0
-14 -38 -39 -48 -49 -57 -58 -65 -66 -79 -80 0
-14 -38 -39 -48 -49 -57 -58 -65 -66 -85 -86 0
-13 -37 -38 -47 -48 -56 -57 -72 -73 -78 -79 0
-14 -37 -39 -47 -48 -56 -57 -72 -73 -78 -79 0
-14 -38 -39 -47 -49 -56 -57 -72 -73 -78 -79 0
-14 -38 -39 -48 -49 -56 -58 -72 -73 -78 -79 0
-14 -38 -39 -48 -49 -57 -58 -72 -74 -78 -79 0
-14 -38 -39 -48 -49 -57 -58 -73 -74 -78 -80 0
-14 -38 -39 -48 -49 -57 -58 -73 -74 -79 -80 0
-14 -38 -39 -48 -49 -57 -58 -73 -74 -85 -86 0
-14 -38 -39 -48 -49 -57 -58 -80 -81 -85 -86 0
-13 -37 -38 -47 -48 -65 -66 -72 -73 -78 -79 0
-14 -37 -39 -47 -48 -65 -66 -72 -73 -78 -79 0
-14 -38 -39 -47 -49 -65 -66 -72 -73 -78 -79 0
-14 -38 -39 -48 -49 -65 -67 -72 -73 -78 -79 0
-14 -38 -39 -48 -49 -66 -67 -72 -74 -78 -79 0
-14 -38 -39 -48 -49 -66 -67 -73 -74 -78 -80 0
-14 -38 -39 -48 -49 -66 -67 -73 -74 -79 -80 0
-14 -38 -39 -48 -49 -66 -67 -73 -74 -85 -86 0
-14 -38 -39 -48 -49 -66 -67 -80 -81 -85 -86 0
-14 -38 -39 -48 -49 -74 -75 -80 -81 -85 -86 0
-13 -37 -38 -57 -58 -65 -66 -72 -73 -78 -79 0
-14 -37 -39 -57 -58 -65 -66 -72 -73 -78 -79 0
-14 -38 -39 -57 -59 -65 -66 -72 -73 -78 -79 0
-14 -38 -39 -58 -59 -65 -67 -72 -73 -78 -79 0
-14 -38 -39 -58 -59 -66 -67 -72 -74 -78 -79 0
-14 -38 -39 -58 -59 -66 -67 -73 -74 -78 -80 0
-14 -38 -39 -58 -59 -66 -67 -73 -74 -79 -80 0
-14 -38 -39 -58 -59 -66 -67 -73 -74 -85 -86 0
-14 -38 -39 -58 -59 -66 -67 -80 -81 -85 -86 0
-14 -38 -39 -58 -59 -74 -75 -80 -81 -85 -86 0
-14 -38 -39 -67 -68 -74 -75 -80 -81 -85 -86 0
-13 -48 -49 -57 -58 -65 -66 -72 -73 -78 -79 0
-14 -48 -50 -57 -58 -65 -66 -72 -73 -78 -79 0
-14 -49 -50 -57 -59 -65 -66 -72 -73 -78 -79 0
-14 -49 -50 -58 -59 -65 -67 -72 -73 -78 -79 0
-14 -49 -50 -58 -59 -66 -67 -72 -74 -78 -79 0
-14 -49 -50 -58 -59 -66 -67 -73 -74 -78 -80 0
-14 -49 -50 -58 -59 -66 -67 -73 -74 -79 -80 0
-14 -49 -50 -58 -59 -66 -67 -73 -74 -85 -86 0
-14 -49 -50 -58 -59 -66 -67 -80 -81 -85 -86 0
-14 -49 -50 -58 -59 -74 -75 -80 -81 -85 -86 0
-14 -49 -50 -67 -68 -74 -75 -80 -81 -85 -86 0
-14 -59 -60 -67 -68 -74 -75 -80 -81 -85 -86 0
-25 -36 -37 -46 -47 -55 -56 -63 -64 -70 -71 0
-26 -36 -38 -46 -47 -55 -56 -63 -64 -70 -71 0
-27 -36 -39 -46 -47 -55 -56 -63 -64 -70 -71 0
-26 -37 -38 -46 -48 -55 -56 -63 -64 -70 -71 0
-27 -37 -39 -46 -48 -55 -56 -63 -64 -70 -71 0
-27 -38 -39 -46 -49 -55 -56 -63 -64 -70 -71 0
-26 -37 -38 -47 -48 -55 -57 -63 -64 -70 -71 0
-27 -37 -39 -47 -48 -55 -57 -63 -64 -70 -71 0
-27 -38 -39 -47 -49 -55 -57 -63 -64 -70 -71 0
-27 -38 -39 -48 -49 -55 -58 -63 -64 -70 -71 0
-26 -37 -38 -47 -48 -56 -57 -63 -65 -70 -71 0
-27 -37 -39 -47 -48 -56 -57 -63 -65 -70 -71 0
-27 -38 -39 -47 -49 -56 -57 -63 -65 -70 -71 0
-27 -38 -39 -48 -49 -56 -58 -63 -65 -70 -71 0
-27 -38 -39 -48 -49 -57 -58 -63 -66 -70 -71 0
-26 -37 -38 -47 -48 -56 -57 -64 -65 -70 -72 0
-27 -37 -39 -47 -48 -56 -57 -64 -65 -70 -72 0
-27 -38 -39 -47 -49 -56 -57 -64 -65 -70 -72 0
-27 -38 -39 -48 -49 -56 -58 -64 -65 -70 -72 0
-27 -38 -39 -48 -49 -57 -58 -64 -66 -70 -72 0
-27 -38 -39 -48 -49 -57 -58 -65 -66 -70 -73 0
-26 -37 -38 -47 -48 -56 -57 -64 -65 -71 -72 0
-27 -37 -39 -47 -48 -56 -57 -64 -65 -71 -72 0
-27 -38 -39 -47 -49 -56 -57 -64 -65 -71 -72 0
-27 -38 -39 -48 -49 -56 -58 -64 -65 -71 -72 0
-27 -38 -39 -48 -49 -57 -58 -64 -66 -71 -72 0
-27 -38 -39 -48 -49 -57 -58 -65 -66 -71 -73 0
-27 -38 -39 -48 -49 -57 -58 -65 -66 -72 -73 0
-26 -37 -38 -47 -48 -56 -57 -64 -65 -78 -79 0
-27 -37 -39 -47 -48 -56 -57 -64 -65 -78 -79 0
-27 -38 -39 -47 -49 -56 -57 -64 -65 -78 -79 0
-27 -38 -39 -48 -49 -56 -58 -64 -65 -78 -79 0
-27 -38 -39 -48 -49 -57 -58 -64 -66 -78 -79 0
-27 -38 -39 -48 -49 -57 -58 -65 -66 -78 -80 0
-27 -38 -39 -48 -49 -57 -58 -65 -66 -79 -80 0
-27 -38 -39 -48 -49 -57 -58 -65 -66 -85 -86 0
-26 -37 -38 -47 -48 -56 -57 -72 -73 -78 -79 0
-27 -37 -39 -47 -48 -56 -57 -72 -73 -78 -79 0
-27 -38 -39 -47 -49 -56 -57 -72 -73 -78 -79 0
-27 -38 -39 -48 -49 -56 -58 -72 -73 -78 -79 0
-27 -38 -39 -48 -49 -57 -58 -72 -74 -78 -79 0
-27 -38 -39 -48 -49 -57 -58 -73 -74 -78 -80 0
-27 -38 -39 -48 -49 -57 -58 -73 -74 -79 -80 0
-27 -38 -39 -48 -49 -57 -58 -73 -74 -85 -86 0
-27 -38 -39 -48 -49 -57 -58 -80 -81 -85 -86 0
-26 -37 -38 -47 -48 -65 -66 -72 -73 -78 -79 0
-27 -37 -39 -47 -48 -65 -66 -72 -73 -78 -79 0
-27 -38 -39 -47 -49 -65 -66 -72 -73 -78 -79 0
-27 -38 -39 -48 -49 -65 -67 -72 -73 -78 -79 0
-27 -38 -39 -48 -49 -66 -67 -72 -74 -78 -79 0
-27 -38 -39 -48 -49 -66 -67 -73 -74 -78 -80 0
-27 -38 -39 -48 -49 -66 -67 -73 -74 -79 -80 0
-27 -38 -39 -48 -49 -66 -67 -73 -74 -85 -86 0
-27 -38 -39 -48 -49 -66 -67 -80 -81 -85 -86 0
-27 -38 -39 -48 -49 -74 -75 -80 -81 -85 -86 0
-26 -37 -38 -57 -58 -65 -66 -72 -73 -78 -79 0
-27 -37 -39 -57 -58 -65 -66 -72 -73 -78 -79 0
-27 -38 -39 -57 -59 -65 -66 -72 -73 -78 -79 0
-27 -38 -39 -58 -59 -65 -67 -72 -73 -78 -79 0
-27 -38 -39 -58 -59 -66 -67 -72 -74 -78 -79 0
-27 -38 -39 -58 -59 -66 -67 -73 -74 -78 -80 0
-27 -38 -39 -58 -59 -66 -67 -73 -74 -79 -80 0
-27 -38 -39 -58 -59 -66 -67 -73 -74 -85 -86 0
-27 -38 -39 -58 -59 -66 -67 -80 -81 -85 -86 0
-27 -38 -39 -58 -59 -74 -75 -80 -81 -85 -86 0
-27 -38 -39 -67 -68 -74 -75 -80 -81 -85 -86 0
-26 -48 -49 -57 -58 -65 -66 -72 -73 -78 -79 0
-27 -48 -50 -57 -58 -65 -66 -72 -73 -78 -79 0
-27 -49 -50 -57 -59 -65 -66 -72 -73 -78 -79 0
-27 -49 -50 -58 -59 -65 -67 -72 -73 -78 -79 0
-27 -49 -50 -58 -59 -66 -67 -72 -74 -78 -79 0
-27 -49 -50 -58 -59 -66 -67 -73 -74 -78 -80 0
-27 -49 -50 -58 -59 -66 -67 -73 -74 -79 -80 0
-27 -49 -50 -58 -59 -66 -67 -73 -74 -85 -86 0
-27 -49 -50 -58 -59 -66 -67 -80 -81 -85 -86 0
-27 -49 -50 -58 -59 -74 -75 -80 -81 -85 -86 0
-27 -49 -50 -67 -68 -74 -75 -80 -81 -85 -86 0
-27 -59 -60 -67 -68 -74 -75 -80 -81 -85 -86 0
-38 -48 -49 -57 -58 -65 -66 -72 -73 -78 -79 0
-39 -48 -50 -57 -58 -65 -66 -72 -73 -78 -79 0
-39 -49 -50 -57 -59 -65 -66 -72 -73 -78 -79 0
-39 -49 -50 -58 -59 -65 -67 -72 -73 -78 -79 0
-39 -49 -50 -58 -59 -66 -67 -72 -74 -78 -79 0
-39 -49 -50 -58 -59 -66 -67 -73 -74 -78 -80 0
-39 -49 -50 -58 -59 -66 -67 -73 -74 -79 -80 0
-39 -49 -50 -58 -59 -66 -67 -73 -74 -85 -86 0
-39 -49 -50 -58 -59 -66 -67 -80 -81 -85 -86 0
-39 -49 -50 -58 -59 -74 -75 -80 -81 -85 -86 0
-39 -49 -50 -67 -68 -74 -75 -80 -81 -85 -86 0
-39 -59 -60 -67 -68 -74 -75 -80 -81 -85 -86 0
-50 -59 -60 -67 -68 -74 -75 -80 -81 -85 -86 0
