c Ordered Ramsey CNF instance
c n = 13, N = 17
c Positive literal = blue edge
c Negative literal = red edge
p cnf 136 3060
1 2 0
1 3 0
1 4 0
1 5 0
1 6 0
1 7 0
1 8 0
1 9 0
1 10 0
1 11 0
1 12 0
1 13 0
1 14 0
1 15 0
1 16 0
2 3 0
2 4 0
2 5 0
2 6 0
2 7 0
2 8 0
2 9 0
2 10 0
2 11 0
2 12 0
2 13 0
2 14 0
2 15 0
2 16 0
3 4 0
3 5 0
3 6 0
3 7 0
3 8 0
3 9 0
3 10 0
3 11 0
3 12 0
3 13 0
3 14 0
3 15 0
3 16 0
4 5 0
4 6 0
4 7 0
4 8 0
4 9 0
4 10 0
4 11 0
4 12 0
4 13 0
4 14 0
4 15 0
4 16 0
5 6 0
5 7 0
5 8 0
5 9 0
5 10 0
5 11 0
5 12 0
5 13 0
5 14 0
5 15 0
5 16 0
6 7 0
6 8 0
6 9 0
6 10 0
6 11 0
6 12 0
6 13 0
6 14 0
6 15 0
6 16 0
7 8 0
7 9 0
7 10 0
7 11 0
7 12 0
7 13 0
7 14 0
7 15 0
7 16 0
8 9 0
8 10 0
8 11 0
8 12 0
8 13 0
8 14 0
8 15 0
8 16 0
9 10 0
9 11 0
9 12 0
9 13 0
9 14 0
9 15 0
9 16 0
10 11 0
10 12 0
10 13 0
10 14 0
10 15 0
10 16 0
11 12 0
11 13 0
11 14 0
11 15 0
11 16 0
12 13 0
12 14 0
12 15 0
12 16 0
13 14 0
13 15 0
13 16 0
14 15 0
14 16 0
15 16 0
17 18 0
17 19 0
17 20 0
17 21 0
17 22 0
17 23 0
17 24 0
17 25 0
17 26 0
17 27 0
17 28 0
17 29 0
17 30 0
17 31 0
18 19 0
18 20 0
18 21 0
18 22 0
18 23 0
18 24 0
18 25 0
18 26 0
18 27 0
18 28 0
18 29 0
18 30 0
18 31 0
19 20 0
19 21 0
19 22 0
19 23 0
19 24 0
19 25 0
19 26 0
19 27 0
19 28 0
19 29 0
19 30 0
19 31 0
20 21 0
20 22 0
20 23 0
20 24 0
20 25 0
20 26 0
20 27 0
20 28 0
20 29 0
20 30 0
20 31 0
21 22 0
21 23 0
21 24 0
21 25 0
21 26 0
21 27 0
21 28 0
21 29 0
21 30 0
21 31 0
22 23 0
22 24 0
22 25 0
22 26 0
22 27 0
22 28 0
22 29 0
22 30 0
22 31 0
23 24 0
23 25 0
23 26 0
23 27 0
23 28 0
23 29 0
23 30 0
23 31 0
24 25 0
24 26 0
24 27 0
24 28 0
24 29 0
24 30 0
24 31 0
25 26 0
25 27 0
25 28 0
25 29 0
25 30 0
25 31 0
26 27 0
26 28 0
26 29 0
26 30 0
26 31 0
27 28 0
27 29 0
27 30 0
27 31 0
28 29 0
28 30 0
28 31 0
29 30 0
29 31 0
30 31 0
32 33 0
32 34 0
32 35 0
32 36 0
32 37 0
32 38 0
32 39 0
32 40 0
32 41 0
32 42 0
32 43 0
32 44 0
32 45 0
33 34 0
33 35 0
33 36 0
33 37 0
33 38 0
33 39 0
33 40 0
33 41 0
33 42 0
33 43 0
33 44 0
33 45 0
34 35 0
34 36 0
34 37 0
34 38 0
34 39 0
34 40 0
34 41 0
34 42 0
34 43 0
34 44 0
34 45 0
35 36 0
35 37 0
35 38 0
35 39 0
35 40 0
35 41 0
35 42 0
35 43 0
35 44 0
35 45 0
36 37 0
36 38 0
36 39 0
36 40 0
36 41 0
36 42 0
36 43 0
36 44 0
36 45 0
37 38 0
37 39 0
37 40 0
37 41 0
37 42 0
37 43 0
37 44 0
37 45 0
38 39 0
38 40 0
38 41 0
38 42 0
38 43 0
38 44 0
38 45 0
39 40 0
39 41 0
39 42 0
39 43 0
39 44 0
39 45 0
40 41 0
40 42 0
40 43 0
40 44 0
40 45 0
41 42 0
41 43 0
41 44 0
41 45 0
42 43 0
42 44 0
42 45 0
43 44 0
43 45 0
44 45 0
46 47 0
46 48 0
46 49 0
46 50 0
46 51 0
46 52 0
46 53 0
46 54 0
46 55 0
46 56 0
46 57 0
46 58 0
47 48 0
47 49 0
47 50 0
47 51 0
47 52 0
47 53 0
47 54 0
47 55 0
47 56 0
47 57 0
47 58 0
48 49 0
48 50 0
48 51 0
48 52 0
48 53 0
48 54 0
48 55 0
48 56 0
48 57 0
48 58 0
49 50 0
49 51 0
49 52 0
49 53 0
49 54 0
49 55 0
49 56 0
49 57 0
49 58 0
50 51 0
50 52 0
50 53 0
50 54 0
50 55 0
50 56 0
50 57 0
50 58 0
51 52 0
51 53 0
51 54 0
51 55 0
51 56 0
51 57 0
51 58 0
52 53 0
52 54 0
52 55 0
52 56 0
52 57 0
52 58 0
53 54 0
53 55 0
53 56 0
53 57 0
53 58 0
54 55 0
54 56 0
54 57 0
54 58 0
55 56 0
55 57 0
55 58 0
56 57 0
56 58 0
57 58 0
59 60 0
59 61 0
59 62 0
59 63 0
59 64 0
59 65 0
59 66 0
59 67 0
59 68 0
59 69 0
59 70 0
60 61 0
60 62 0
60 63 0
60 64 0
60 65 0
60 66 0
60 67 0
60 68 0
60 69 0
60 70 0
61 62 0
61 63 0
61 64 0
61 65 0
61 66 0
61 67 0
61 68 0
61 69 0
61 70 0
62 63 0
62 64 0
62 65 0
62 66 0
62 67 0
62 68 0
62 69 0
62 70 0
63 64 0
63 65 0
63 66 0
63 67 0
63 68 0
63 69 0
63 70 0
64 65 0
64 66 0
64 67 0
64 68 0
64 69 0
64 70 0
65 66 0
65 67 0
65 68 0
65 69 0
65 70 0
66 67 0
66 68 0
66 69 0
66 70 0
67 68 0
67 69 0
67 70 0
68 69 0
68 70 0
69 70 0
71 72 0
71 73 0
71 74 0
71 75 0
71 76 0
71 77 0
71 78 0
71 79 0
71 80 0
71 81 0
72 73 0
72 74 0
72 75 0
72 76 0
72 77 0
72 78 0
72 79 0
72 80 0
72 81 0
73 74 0
73 75 0
73 76 0
73 77 0
73 78 0
73 79 0
73 80 0
73 81 0
74 75 0
74 76 0
74 77 0
74 78 0
74 79 0
74 80 0
74 81 0
75 76 0
75 77 0
75 78 0
75 79 0
75 80 0
75 81 0
76 77 0
76 78 0
76 79 0
76 80 0
76 81 0
77 78 0
77 79 0
77 80 0
77 81 0
78 79 0
78 80 0
78 81 0
79 80 0
79 81 0
80 81 0
82 83 0
82 84 0
82 85 0
82 86 0
82 87 0
82 88 0
82 89 0
82 90 0
82 91 0
83 84 0
83 85 0
83 86 0
83 87 0
83 88 0
83 89 0
83 90 0
83 91 0
84 85 0
84 86 0
84 87 0
84 88 0
84 89 0
84 90 0
84 91 0
85 86 0
85 87 0
85 88 0
85 89 0
85 90 0
85 91 0
86 87 0
86 88 0
86 89 0
86 90 0
86 91 0
87 88 0
87 89 0
87 90 0
87 91 0
88 89 0
88 90 0
88 91 0
89 90 0
89 91 0
90 91 0
92 93 0
92 94 0
92 95 0
92 96 0
92 97 0
92 98 0
92 99 0
92 100 0
93 94 0
93 95 0
93 96 0
93 97 0
93 98 0
93 99 0
93 100 0
94 95 0
94 96 0
94 97 0
94 98 0
94 99 0
94 100 0
95 96 0
95 97 0
95 98 0
95 99 0
95 100 0
96 97 0
96 98 0
96 99 0
96 100 0
97 98 0
97 99 0
97 100 0
98 99 0
98 100 0
99 100 0
101 102 0
101 103 0
101 104 0
101 105 0
101 106 0
101 107 0
101 108 0
102 103 0
102 104 0
102 105 0
102 106 0
102 107 0
102 108 0
103 104 0
103 105 0
103 106 0
103 107 0
103 108 0
104 105 0
104 106 0
104 107 0
104 108 0
105 106 0
105 107 0
105 108 0
106 107 0
106 108 0
107 108 0
109 110 0
109 111 0
109 112 0
109 113 0
109 114 0
109 115 0
110 111 0
110 112 0
110 113 0
110 114 0
110 115 0
111 112 0
111 113 0
111 114 0
111 115 0
112 113 0
112 114 0
112 115 0
113 114 0
113 115 0
114 115 0
116 117 0
116 118 0
116 119 0
116 120 0
116 121 0
117 118 0
117 119 0
117 120 0
117 121 0
118 119 0
118 120 0
118 121 0
119 120 0
119 121 0
120 121 0
122 123 0
122 124 0
122 125 0
122 126 0
123 124 0
123 125 0
123 126 0
124 125 0
124 126 0
125 126 0
127 128 0
127 129 0
127 130 0
128 129 0
128 130 0
129 130 0
131 132 0
131 133 0
132 133 0
134 135 0
-12 -26 -27 -39 -40 -51 -52 -62 -63 -72 -73 -82 0
-13 -26 -28 -39 -40 -51 -52 -62 -63 -72 -73 -82 0
-14 -26 -29 -39 -40 -51 -52 -62 -63 -72 -73 -82 0
-15 -26 -30 -39 -40 -51 -52 -62 -63 -72 -73 -82 0
-16 -26 -31 -39 -40 -51 -52 -62 -63 -72 -73 -82 0
-13 -27 -28 -39 -41 -51 -52 -62 -63 -72 -73 -82 0
-14 -27 -29 -39 -41 -51 -52 -62 -63 -72 -73 -82 0
-15 -27 -30 -39 -41 -51 -52 -62 -63 -72 -73 -82 0
-16 -27 -31 -39 -41 -51 -52 -62 -63 -72 -73 -82 0
-14 -28 -29 -39 -42 -51 -52 -62 -63 -72 -73 -82 0
-15 -28 -30 -39 -42 -51 -52 -62 -63 -72 -73 -82 0
-16 -28 -31 -39 -42 -51 -52 -62 -63 -72 -73 -82 0
-15 -29 -30 -39 -43 -51 -52 -62 -63 -72 -73 -82 0
-16 -29 -31 -39 -43 -51 -52 -62 -63 -72 -73 -82 0
-16 -30 -31 -39 -44 -51 -52 -62 -63 -72 -73 -82 0
-13 -27 -28 -40 -41 -51 -53 -62 -63 -72 -73 -82 0
-14 -27 -29 -40 -41 -51 -53 -62 -63 -72 -73 -82 0
-15 -27 -30 -40 -41 -51 -53 -62 -63 -72 -73 -82 0
-16 -27 -31 -40 -41 -51 -53 -62 -63 -72 -73 -82 0
-14 -28 -29 -40 -42 -51 -53 -62 -63 -72 -73 -82 0
-15 -28 -30 -40 -42 -51 -53 -62 -63 -72 -73 -82 0
-16 -28 -31 -40 -42 -51 -53 -62 -63 -72 -73 -82 0
-15 -29 -30 -40 -43 -51 -53 -62 -63 -72 -73 -82 0
-16 -29 -31 -40 -43 -51 -53 -62 -63 -72 -73 -82 0
-16 -30 -31 -40 -44 -51 -53 -62 -63 -72 -73 -82 0
-14 -28 -29 -41 -42 -51 -54 -62 -63 -72 -73 -82 0
-15 -28 -30 -41 -42 -51 -54 -62 -63 -72 -73 -82 0
-16 -28 -31 -41 -42 -51 -54 -62 -63 -72 -73 -82 0
-15 -29 -30 -41 -43 -51 -54 -62 -63 -72 -73 -82 0
-16 -29 -31 -41 -43 -51 -54 -62 -63 -72 -73 -82 0
-16 -30 -31 -41 -44 -51 -54 -62 -63 -72 -73 -82 0
-15 -29 -30 -42 -43 -51 -55 -62 -63 -72 -73 -82 0
-16 -29 -31 -42 -43 -51 -55 -62 -63 -72 -73 -82 0
-16 -30 -31 -42 -44 -51 -55 -62 -63 -72 -73 -82 0
-16 -30 -31 -43 -44 -51 -56 -62 -63 -72 -73 -82 0
-13 -27 -28 -40 -41 -52 -53 -62 -64 -72 -73 -82 0
-14 -27 -29 -40 -41 -52 -53 -62 -64 -72 -73 -82 0
-15 -27 -30 -40 -41 -52 -53 -62 -64 -72 -73 -82 0
-16 -27 -31 -40 -41 -52 -53 -62 -64 -72 -73 -82 0
-14 -28 -29 -40 -42 -52 -53 -62 -64 -72 -73 -82 0
-15 -28 -30 -40 -42 -52 -53 -62 -64 -72 -73 -82 0
-16 -28 -31 -40 -42 -52 -53 -62 -64 -72 -73 -82 0
-15 -29 -30 -40 -43 -52 -53 -62 -64 -72 -73 -82 0
-16 -29 -31 -40 -43 -52 -53 -62 -64 -72 -73 -82 0
-16 -30 -31 -40 -44 -52 -53 -62 -64 -72 -73 -82 0
-14 -28 -29 -41 -42 -52 -54 -62 -64 -72 -73 -82 0
-15 -28 -30 -41 -42 -52 -54 -62 -64 -72 -73 -82 0
-16 -28 -31 -41 -42 -52 -54 -62 -64 -72 -73 -82 0
-15 -29 -30 -41 -43 -52 -54 -62 -64 -72 -73 -82 0
-16 -29 -31 -41 -43 -52 -54 -62 -64 -72 -73 -82 0
-16 -30 -31 -41 -44 -52 -54 -62 -64 -72 -73 -82 0
-15 -29 -30 -42 -43 -52 -55 -62 -64 -72 -73 -82 0
-16 -29 -31 -42 -43 -52 -55 -62 -64 -72 -73 -82 0
-16 -30 -31 -42 -44 -52 -55 -62 -64 -72 -73 -82 0
-16 -30 -31 -43 -44 -52 -56 -62 -64 -72 -73 -82 0
-14 -28 -29 -41 -42 -53 -54 -62 -65 -72 -73 -82 0
-15 -28 -30 -41 -42 -53 -54 -62 -65 -72 -73 -82 0
-16 -28 -31 -41 -42 -53 -54 -62 -65 -72 -73 -82 0
-15 -29 -30 -41 -43 -53 -54 -62 -65 -72 -73 -82 0
-16 -29 -31 -41 -43 -53 -54 -62 -65 -72 -73 -82 0
-16 -30 -31 -41 -44 -53 -54 -62 -65 -72 -73 -82 0
-15 -29 -30 -42 -43 -53 -55 -62 -65 -72 -73 -82 0
-16 -29 -31 -42 -43 -53 -55 -62 -65 -72 -73 -82 0
-16 -30 -31 -42 -44 -53 -55 -62 -65 -72 -73 -82 0
-16 -30 -31 -43 -44 -53 -56 -62 -65 -72 -73 -82 0
-15 -29 -30 -42 -43 -54 -55 -62 -66 -72 -73 -82 0
-16 -29 -31 -42 -43 -54 -55 -62 -66 -72 -73 -82 0
-16 -30 -31 -42 -44 -54 -55 -62 -66 -72 -73 -82 0
-16 -30 -31 -43 -44 -54 -56 -62 -66 -72 -73 -82 0
-16 -30 -31 -43 -44 -55 -56 -62 -67 -72 -73 -82 0
-13 -27 -28 -40 -41 -52 -53 -63 -64 -72 -74 -82 0
-14 -27 -29 -40 -41 -52 -53 -63 -64 -72 -74 -82 0
-15 -27 -30 -40 -41 -52 -53 -63 -64 -72 -74 -82 0
-16 -27 -31 -40 -41 -52 -53 -63 -64 -72 -74 -82 0
-14 -28 -29 -40 -42 -52 -53 -63 -64 -72 -74 -82 0
-15 -28 -30 -40 -42 -52 -53 -63 -64 -72 -74 -82 0
-16 -28 -31 -40 -42 -52 -53 -63 -64 -72 -74 -82 0
-15 -29 -30 -40 -43 -52 -53 -63 -64 -72 -74 -82 0
-16 -29 -31 -40 -43 -52 -53 -63 -64 -72 -74 -82 0
-16 -30 -31 -40 -44 -52 -53 -63 -64 -72 -74 -82 0
-14 -28 -29 -41 -42 -52 -54 -63 -64 -72 -74 -82 0
-15 -28 -30 -41 -42 -52 -54 -63 -64 -72 -74 -82 0
-16 -28 -31 -41 -42 -52 -54 -63 -64 -72 -74 -82 0
-15 -29 -30 -41 -43 -52 -54 -63 -64 -72 -74 -82 0
-16 -29 -31 -41 -43 -52 -54 -63 -64 -72 -74 -82 0
-16 -30 -31 -41 -44 -52 -54 -63 -64 -72 -74 -82 0
-15 -29 -30 -42 -43 -52 -55 -63 -64 -72 -74 -82 0
-16 -29 -31 -42 -43 -52 -55 -63 -64 -72 -74 -82 0
-16 -30 -31 -42 -44 -52 -55 -63 -64 -72 -74 -82 0
-16 -30 -31 -43 -44 -52 -56 -63 -64 -72 -74 -82 0
-14 -28 -29 -41 -42 -53 -54 -63 -65 -72 -74 -82 0
-15 -28 -30 -41 -42 -53 -54 -63 -65 -72 -74 -82 0
-16 -28 -31 -41 -42 -53 -54 -63 -65 -72 -74 -82 0
-15 -29 -30 -41 -43 -53 -54 -63 -65 -72 -74 -82 0
-16 -29 -31 -41 -43 -53 -54 -63 -65 -72 -74 -82 0
-16 -30 -31 -41 -44 -53 -54 -63 -65 -72 -74 -82 0
-15 -29 -30 -42 -43 -53 -55 -63 -65 -72 -74 -82 0
-16 -29 -31 -42 -43 -53 -55 -63 -65 -72 -74 -82 0
-16 -30 -31 -42 -44 -53 -55 -63 -65 -72 -74 -82 0
-16 -30 -31 -43 -44 -53 -56 -63 -65 -72 -74 -82 0
-15 -29 -30 -42 -43 -54 -55 -63 -66 -72 -74 -82 0
-16 -29 -31 -42 -43 -54 -55 -63 -66 -72 -74 -82 0
-16 -30 -31 -42 -44 -54 -55 -63 -66 -72 -74 -82 0
-16 -30 -31 -43 -44 -54 -56 -63 -66 -72 -74 -82 0
-16 -30 -31 -43 -44 -55 -56 -63 -67 -72 -74 -82 0
-14 -28 -29 -41 -42 -53 -54 -64 -65 -72 -75 -82 0
-15 -28 -30 -41 -42 -53 -54 -64 -65 -72 -75 -82 0
-16 -28 -31 -41 -42 -53 -54 -64 -65 -72 -75 -82 0
-15 -29 -30 -41 -43 -53 -54 -64 -65 -72 -75 -82 0
-16 -29 -31 -41 -43 -53 -54 -64 -65 -72 -75 -82 0
-16 -30 -31 -41 -44 -53 -54 -64 -65 -72 -75 -82 0
-15 -29 -30 -42 -43 -53 -55 -64 -65 -72 -75 -82 0
-16 -29 -31 -42 -43 -53 -55 -64 -65 -72 -75 -82 0
-16 -30 -31 -42 -44 -53 -55 -64 -65 -72 -75 -82 0
-16 -30 -31 -43 -44 -53 -56 -64 -65 -72 -75 -82 0
-15 -29 -30 -42 -43 -54 -55 -64 -66 -72 -75 -82 0
-16 -29 -31 -42 -43 -54 -55 -64 -66 -72 -75 -82 0
-16 -30 -31 -42 -44 -54 -55 -64 -66 -72 -75 -82 0
-16 -30 -31 -43 -44 -54 -56 -64 -66 -72 -75 -82 0
-16 -30 -31 -43 -44 -55 -56 -64 -67 -72 -75 -82 0
-15 -29 -30 -42 -43 -54 -55 -65 -66 -72 -76 -82 0
-16 -29 -31 -42 -43 -54 -55 -65 -66 -72 -76 -82 0
-16 -30 -31 -42 -44 -54 -55 -65 -66 -72 -76 -82 0
-16 -30 -31 -43 -44 -54 -56 -65 -66 -72 -76 -82 0
-16 -30 -31 -43 -44 -55 -56 -65 -67 -72 -76 -82 0
-16 -30 -31 -43 -44 -55 -56 -66 -67 -72 -77 -82 0
-13 -27 -28 -40 -41 -52 -53 -63 -64 -73 -74 -83 0
-14 -27 -29 -40 -41 -52 -53 -63 -64 -73 -74 -83 0
-15 -27 -30 -40 -41 -52 -53 -63 -64 -73 -74 -83 0
-16 -27 -31 -40 -41 -52 -53 -63 -64 -73 -74 -83 0
-14 -28 -29 -40 -42 -52 -53 -63 -64 -73 -74 -83 0
-15 -28 -30 -40 -42 -52 -53 -63 -64 -73 -74 -83 0
-16 -28 -31 -40 -42 -52 -53 -63 -64 -73 -74 -83 0
-15 -29 -30 -40 -43 -52 -53 -63 -64 -73 -74 -83 0
-16 -29 -31 -40 -43 -52 -53 -63 -64 -73 -74 -83 0
-16 -30 -31 -40 -44 -52 -53 -63 -64 -73 -74 -83 0
-14 -28 -29 -41 -42 -52 -54 -63 -64 -73 -74 -83 0
-15 -28 -30 -41 -42 -52 -54 -63 -64 -73 -74 -83 0
-16 -28 -31 -41 -42 -52 -54 -63 -64 -73 -74 -83 0
-15 -29 -30 -41 -43 -52 -54 -63 -64 -73 -74 -83 0
-16 -29 -31 -41 -43 -52 -54 -63 -64 -73 -74 -83 0
-16 -30 -31 -41 -44 -52 -54 -63 -64 -73 -74 -83 0
-15 -29 -30 -42 -43 -52 -55 -63 -64 -73 -74 -83 0
-16 -29 -31 -42 -43 -52 -55 -63 -64 -73 -74 -83 0
-16 -30 -31 -42 -44 -52 -55 -63 -64 -73 -74 -83 0
-16 -30 -31 -43 -44 -52 -56 -63 -64 -73 -74 -83 0
-14 -28 -29 -41 -42 -53 -54 -63 -65 -73 -74 -83 0
-15 -28 -30 -41 -42 -53 -54 -63 -65 -73 -74 -83 0
-16 -28 -31 -41 -42 -53 -54 -63 -65 -73 -74 -83 0
-15 -29 -30 -41 -43 -53 -54 -63 -65 -73 -74 -83 0
-16 -29 -31 -41 -43 -53 -54 -63 -65 -73 -74 -83 0
-16 -30 -31 -41 -44 -53 -54 -63 -65 -73 -74 -83 0
-15 -29 -30 -42 -43 -53 -55 -63 -65 -73 -74 -83 0
-16 -29 -31 -42 -43 -53 -55 -63 -65 -73 -74 -83 0
-16 -30 -31 -42 -44 -53 -55 -63 -65 -73 -74 -83 0
-16 -30 -31 -43 -44 -53 -56 -63 -65 -73 -74 -83 0
-15 -29 -30 -42 -43 -54 -55 -63 -66 -73 -74 -83 0
-16 -29 -31 -42 -43 -54 -55 -63 -66 -73 -74 -83 0
-16 -30 -31 -42 -44 -54 -55 -63 -66 -73 -74 -83 0
-16 -30 -31 -43 -44 -54 -56 -63 -66 -73 -74 -83 0
-16 -30 -31 -43 -44 -55 -56 -63 -67 -73 -74 -83 0
-14 -28 -29 -41 -42 -53 -54 -64 -65 -73 -75 -83 0
-15 -28 -30 -41 -42 -53 -54 -64 -65 -73 -75 -83 0
-16 -28 -31 -41 -42 -53 -54 -64 -65 -73 -75 -83 0
-15 -29 -30 -41 -43 -53 -54 -64 -65 -73 -75 -83 0
-16 -29 -31 -41 -43 -53 -54 -64 -65 -73 -75 -83 0
-16 -30 -31 -41 -44 -53 -54 -64 -65 -73 -75 -83 0
-15 -29 -30 -42 -43 -53 -55 -64 -65 -73 -75 -83 0
-16 -29 -31 -42 -43 -53 -55 -64 -65 -73 -75 -83 0
-16 -30 -31 -42 -44 -53 -55 -64 -65 -73 -75 -83 0
-16 -30 -31 -43 -44 -53 -56 -64 -65 -73 -75 -83 0
-15 -29 -30 -42 -43 -54 -55 -64 -66 -73 -75 -83 0
-16 -29 -31 -42 -43 -54 -55 -64 -66 -73 -75 -83 0
-16 -30 -31 -42 -44 -54 -55 -64 -66 -73 -75 -83 0
-16 -30 -31 -43 -44 -54 -56 -64 -66 -73 -75 -83 0
-16 -30 -31 -43 -44 -55 -56 -64 -67 -73 -75 -83 0
-15 -29 -30 -42 -43 -54 -55 -65 -66 -73 -76 -83 0
-16 -29 -31 -42 -43 -54 -55 -65 -66 -73 -76 -83 0
-16 -30 -31 -42 -44 -54 -55 -65 -66 -73 -76 -83 0
-16 -30 -31 -43 -44 -54 -56 -65 -66 -73 -76 -83 0
-16 -30 -31 -43 -44 -55 -56 -65 -67 -73 -76 -83 0
-16 -30 -31 -43 -44 -55 -56 -66 -67 -73 -77 -83 0
-14 -28 -29 -41 -42 -53 -54 -64 -65 -74 -75 -84 0
-15 -28 -30 -41 -42 -53 -54 -64 -65 -74 -75 -84 0
-16 -28 -31 -41 -42 -53 -54 -64 -65 -74 -75 -84 0
-15 -29 -30 -41 -43 -53 -54 -64 -65 -74 -75 -84 0
-16 -29 -31 -41 -43 -53 -54 -64 -65 -74 -75 -84 0
-16 -30 -31 -41 -44 -53 -54 -64 -65 -74 -75 -84 0
-15 -29 -30 -42 -43 -53 -55 -64 -65 -74 -75 -84 0
-16 -29 -31 -42 -43 -53 -55 -64 -65 -74 -75 -84 0
-16 -30 -31 -42 -44 -53 -55 -64 -65 -74 -75 -84 0
-16 -30 -31 -43 -44 -53 -56 -64 -65 -74 -75 -84 0
-15 -29 -30 -42 -43 -54 -55 -64 -66 -74 -75 -84 0
-16 -29 -31 -42 -43 -54 -55 -64 -66 -74 -75 -84 0
-16 -30 -31 -42 -44 -54 -55 -64 -66 -74 -75 -84 0
-16 -30 -31 -43 -44 -54 -56 -64 -66 -74 -75 -84 0
-16 -30 -31 -43 -44 -55 -56 -64 -67 -74 -75 -84 0
-15 -29 -30 -42 -43 -54 -55 -65 -66 -74 -76 -84 0
-16 -29 -31 -42 -43 -54 -55 -65 -66 -74 -76 -84 0
-16 -30 -31 -42 -44 -54 -55 -65 -66 -74 -76 -84 0
-16 -30 -31 -43 -44 -54 -56 -65 -66 -74 -76 -84 0
-16 -30 -31 -43 -44 -55 -56 -65 -67 -74 -76 -84 0
-16 -30 -31 -43 -44 -55 -56 -66 -67 -74 -77 -84 0
-15 -29 -30 -42 -43 -54 -55 -65 -66 -75 -76 -85 0
-16 -29 -31 -42 -43 -54 -55 -65 -66 -75 -76 -85 0
-16 -30 -31 -42 -44 -54 -55 -65 -66 -75 -76 -85 0
-16 -30 -31 -43 -44 -54 -56 -65 -66 -75 -76 -85 0
-16 -30 -31 -43 -44 -55 -56 -65 -67 -75 -76 -85 0
-16 -30 -31 -43 -44 -55 -56 -66 -67 -75 -77 -85 0
-16 -30 -31 -43 -44 -55 -56 -66 -67 -76 -77 -86 0
-13 -27 -28 -40 -41 -52 -53 -63 -64 -73 -74 -92 0
-14 -27 -29 -40 -41 -52 -53 -63 -64 -73 -74 -92 0
-15 -27 -30 -40 -41 -52 -53 -63 -64 -73 -74 -92 0
-16 -27 -31 -40 -41 -52 -53 -63 -64 -73 -74 -92 0
-14 -28 -29 -40 -42 -52 -53 -63 -64 -73 -74 -92 0
-15 -28 -30 -40 -42 -52 -53 -63 -64 -73 -74 -92 0
-16 -28 -31 -40 -42 -52 -53 -63 -64 -73 -74 -92 0
-15 -29 -30 -40 -43 -52 -53 -63 -64 -73 -74 -92 0
-16 -29 -31 -40 -43 -52 -53 -63 -64 -73 -74 -92 0
-16 -30 -31 -40 -44 -52 -53 -63 -64 -73 -74 -92 0
-14 -28 -29 -41 -42 -52 -54 -63 -64 -73 -74 -92 0
-15 -28 -30 -41 -42 -52 -54 -63 -64 -73 -74 -92 0
-16 -28 -31 -41 -42 -52 -54 -63 -64 -73 -74 -92 0
-15 -29 -30 -41 -43 -52 -54 -63 -64 -73 -74 -92 0
-16 -29 -31 -41 -43 -52 -54 -63 -64 -73 -74 -92 0
-16 -30 -31 -41 -44 -52 -54 -63 -64 -73 -74 -92 0
-15 -29 -30 -42 -43 -52 -55 -63 -64 -73 -74 -92 0
-16 -29 -31 -42 -43 -52 -55 -63 -64 -73 -74 -92 0
-16 -30 -31 -42 -44 -52 -55 -63 -64 -73 -74 -92 0
-16 -30 -31 -43 -44 -52 -56 -63 -64 -73 -74 -92 0
-14 -28 -29 -41 -42 -53 -54 -63 -65 -73 -74 -92 0
-15 -28 -30 -41 -42 -53 -54 -63 -65 -73 -74 -92 0
-16 -28 -31 -41 -42 -53 -54 -63 -65 -73 -74 -92 0
-15 -29 -30 -41 -43 -53 -54 -63 -65 -73 -74 -92 0
-16 -29 -31 -41 -43 -53 -54 -63 -65 -73 -74 -92 0
-16 -30 -31 -41 -44 -53 -54 -63 -65 -73 -74 -92 0
-15 -29 -30 -42 -43 -53 -55 -63 -65 -73 -74 -92 0
-16 -29 -31 -42 -43 -53 -55 -63 -65 -73 -74 -92 0
-16 -30 -31 -42 -44 -53 -55 -63 -65 -73 -74 -92 0
-16 -30 -31 -43 -44 -53 -56 -63 -65 -73 -74 -92 0
-15 -29 -30 -42 -43 -54 -55 -63 -66 -73 -74 -92 0
-16 -29 -31 -42 -43 -54 -55 -63 -66 -73 -74 -92 0
-16 -30 -31 -42 -44 -54 -55 -63 -66 -73 -74 -92 0
-16 -30 -31 -43 -44 -54 -56 -63 -66 -73 -74 -92 0
-16 -30 -31 -43 -44 -55 -56 -63 -67 -73 -74 -92 0
-14 -28 -29 -41 -42 -53 -54 -64 -65 -73 -75 -92 0
-15 -28 -30 -41 -42 -53 -54 -64 -65 -73 -75 -92 0
-16 -28 -31 -41 -42 -53 -54 -64 -65 -73 -75 -92 0
-15 -29 -30 -41 -43 -53 -54 -64 -65 -73 -75 -92 0
-16 -29 -31 -41 -43 -53 -54 -64 -65 -73 -75 -92 0
-16 -30 -31 -41 -44 -53 -54 -64 -65 -73 -75 -92 0
-15 -29 -30 -42 -43 -53 -55 -64 -65 -73 -75 -92 0
-16 -29 -31 -42 -43 -53 -55 -64 -65 -73 -75 -92 0
-16 -30 -31 -42 -44 -53 -55 -64 -65 -73 -75 -92 0
-16 -30 -31 -43 -44 -53 -56 -64 -65 -73 -75 -92 0
-15 -29 -30 -42 -43 -54 -55 -64 -66 -73 -75 -92 0
-16 -29 -31 -42 -43 -54 -55 -64 -66 -73 -75 -92 0
-16 -30 -31 -42 -44 -54 -55 -64 -66 -73 -75 -92 0
-16 -30 -31 -43 -44 -54 -56 -64 -66 -73 -75 -92 0
-16 -30 -31 -43 -44 -55 -56 -64 -67 -73 -75 -92 0
-15 -29 -30 -42 -43 -54 -55 -65 -66 -73 -76 -92 0
-16 -29 -31 -42 -43 -54 -55 -65 -66 -73 -76 -92 0
-16 -30 -31 -42 -44 -54 -55 -65 -66 -73 -76 -92 0
-16 -30 -31 -43 -44 -54 -56 -65 -66 -73 -76 -92 0
-16 -30 -31 -43 -44 -55 -56 -65 -67 -73 -76 -92 0
-16 -30 -31 -43 -44 -55 -56 -66 -67 -73 -77 -92 0
-14 -28 -29 -41 -42 -53 -54 -64 -65 -74 -75 -93 0
-15 -28 -30 -41 -42 -53 -54 -64 -65 -74 -75 -93 0
-16 -28 -31 -41 -42 -53 -54 -64 -65 -74 -75 -93 0
-15 -29 -30 -41 -43 -53 -54 -64 -65 -74 -75 -93 0
-16 -29 -31 -41 -43 -53 -54 -64 -65 -74 -75 -93 0
-16 -30 -31 -41 -44 -53 -54 -64 -65 -74 -75 -93 0
-15 -29 -30 -42 -43 -53 -55 -64 -65 -74 -75 -93 0
-16 -29 -31 -42 -43 -53 -55 -64 -65 -74 -75 -93 0
-16 -30 -31 -42 -44 -53 -55 -64 -65 -74 -75 -93 0
-16 -30 -31 -43 -44 -53 -56 -64 -65 -74 -75 -93 0
-15 -29 -30 -42 -43 -54 -55 -64 -66 -74 -75 -93 0
-16 -29 -31 -42 -43 -54 -55 -64 -66 -74 -75 -93 0
-16 -30 -31 -42 -44 -54 -55 -64 -66 -74 -75 -93 0
-16 -30 -31 -43 -44 -54 -56 -64 -66 -74 -75 -93 0
-16 -30 -31 -43 -44 -55 -56 -64 -67 -74 -75 -93 0
-15 -29 -30 -42 -43 -54 -55 -65 -66 -74 -76 -93 0
-16 -29 -31 -42 -43 -54 -55 -65 -66 -74 -76 -93 0
-16 -30 -31 -42 -44 -54 -55 -65 -66 -74 -76 -93 0
-16 -30 -31 -43 -44 -54 -56 -65 -66 -74 -76 -93 0
-16 -30 -31 -43 -44 -55 -56 -65 -67 -74 -76 -93 0
-16 -30 -31 -43 -44 -55 -56 -66 -67 -74 -77 -93 0
-15 -29 -30 -42 -43 -54 -55 -65 -66 -75 -76 -94 0
-16 -29 -31 -42 -43 -54 -55 -65 -66 -75 -76 -94 0
-16 -30 -31 -42 -44 -54 -55 -65 -66 -75 -76 -94 0
-16 -30 -31 -43 -44 -54 -56 -65 -66 -75 -76 -94 0
-16 -30 -31 -43 -44 -55 -56 -65 -67 -75 -76 -94 0
-16 -30 -31 -43 -44 -55 -56 -66 -67 -75 -77 -94 0
-16 -30 -31 -43 -44 -55 -56 -66 -67 -76 -77 -95 0
-14 -28 -29 -41 -42 -53 -54 -64 -65 -74 -75 -101 0
-15 -28 -30 -41 -42 -53 -54 -64 -65 -74 -75 -101 0
-16 -28 -31 -41 -42 -53 -54 -64 -65 -74 -75 -101 0
-15 -29 -30 -41 -43 -53 -54 -64 -65 -74 -75 -101 0
-16 -29 -31 -41 -43 -53 -54 -64 -65 -74 -75 -101 0
-16 -30 -31 -41 -44 -53 -54 -64 -65 -74 -75 -101 0
-15 -29 -30 -42 -43 -53 -55 -64 -65 -74 -75 -101 0
-16 -29 -31 -42 -43 -53 -55 -64 -65 -74 -75 -101 0
-16 -30 -31 -42 -44 -53 -55 -64 -65 -74 -75 -101 0
-16 -30 -31 -43 -44 -53 -56 -64 -65 -74 -75 -101 0
-15 -29 -30 -42 -43 -54 -55 -64 -66 -74 -75 -101 0
-16 -29 -31 -42 -43 -54 -55 -64 -66 -74 -75 -101 0
-16 -30 -31 -42 -44 -54 -55 -64 -66 -74 -75 -101 0
-16 -30 -31 -43 -44 -54 -56 -64 -66 -74 -75 -101 0
-16 -30 -31 -43 -44 -55 -56 -64 -67 -74 -75 -101 0
-15 -29 -30 -42 -43 -54 -55 -65 -66 -74 -76 -101 0
-16 -29 -31 -42 -43 -54 -55 -65 -66 -74 -76 -101 0
-16 -30 -31 -42 -44 -54 -55 -65 -66 -74 -76 -101 0
-16 -30 -31 -43 -44 -54 -56 -65 -66 -74 -76 -101 0
-16 -30 -31 -43 -44 -55 -56 -65 -67 -74 -76 -101 0
-16 -30 -31 -43 -44 -55 -56 -66 -67 -74 -77 -101 0
-15 -29 -30 -42 -43 -54 -55 -65 -66 -75 -76 -102 0
-16 -29 -31 -42 -43 -54 -55 -65 -66 -75 -76 -102 0
-16 -30 -31 -42 -44 -54 -55 -65 -66 -75 -76 -102 0
-16 -30 -31 -43 -44 -54 -56 -65 -66 -75 -76 -102 0
-16 -30 -31 -43 -44 -55 -56 -65 -67 -75 -76 -102 0
-16 -30 -31 -43 -44 -55 -56 -66 -67 -75 -77 -102 0
-16 -30 -31 -43 -44 -55 -56 -66 -67 -76 -77 -103 0
-15 -29 -30 -42 -43 -54 -55 -65 -66 -75 -76 -109 0
-16 -29 -31 -42 -43 -54 -55 -65 -66 -75 -76 -109 0
-16 -30 -31 -42 -44 -54 -55 -65 -66 -75 -76 -109 0
-16 -30 -31 -43 -44 -54 -56 -65 -66 -75 -76 -109 0
-16 -30 -31 -43 -44 -55 -56 -65 -67 -75 -76 -109 0
-16 -30 -31 -43 -44 -55 -56 -66 -67 -75 -77 -109 0
-16 -30 -31 -43 -44 -55 -56 -66 -67 -76 -77 -110 0
-16 -30 -31 -43 -44 -55 -56 -66 -67 -76 -77 -116 0
-13 -27 -28 -40 -41 -52 -53 -63 -64 -83 -84 -92 0
-14 -27 -29 -40 -41 -52 -53 -63 -64 -83 -84 -92 0
-15 -27 -30 -40 -41 -52 -53 -63 -64 -83 -84 -92 0
-16 -27 -31 -40 -41 -52 -53 -63 -64 -83 -84 -92 0
-14 -28 -29 -40 -42 -52 -53 -63 -64 -83 -84 -92 0
-15 -28 -30 -40 -42 -52 -53 -63 -64 -83 -84 -92 0
-16 -28 -31 -40 -42 -52 -53 -63 -64 -83 -84 -92 0
-15 -29 -30 -40 -43 -52 -53 -63 -64 -83 -84 -92 0
-16 -29 -31 -40 -43 -52 -53 -63 -64 -83 -84 -92 0
-16 -30 -31 -40 -44 -52 -53 -63 -64 -83 -84 -92 0
-14 -28 -29 -41 -42 -52 -54 -63 -64 -83 -84 -92 0
-15 -28 -30 -41 -42 -52 -54 -63 -64 -83 -84 -92 0
-16 -28 -31 -41 -42 -52 -54 -63 -64 -83 -84 -92 0
-15 -29 -30 -41 -43 -52 -54 -63 -64 -83 -84 -92 0
-16 -29 -31 -41 -43 -52 -54 -63 -64 -83 -84 -92 0
-16 -30 -31 -41 -44 -52 -54 -63 -64 -83 -84 -92 0
-15 -29 -30 -42 -43 -52 -55 -63 -64 -83 -84 -92 0
-16 -29 -31 -42 -43 -52 -55 -63 -64 -83 -84 -92 0
-16 -30 -31 -42 -44 -52 -55 -63 -64 -83 -84 -92 0
-16 -30 -31 -43 -44 -52 -56 -63 -64 -83 -84 -92 0
-14 -28 -29 -41 -42 -53 -54 -63 -65 -83 -84 -92 0
-15 -28 -30 -41 -42 -53 -54 -63 -65 -83 -84 -92 0
-16 -28 -31 -41 -42 -53 -54 -63 -65 -83 -84 -92 0
-15 -29 -30 -41 -43 -53 -54 -63 -65 -83 -84 -92 0
-16 -29 -31 -41 -43 -53 -54 -63 -65 -83 -84 -92 0
-16 -30 -31 -41 -44 -53 -54 -63 -65 -83 -84 -92 0
-15 -29 -30 -42 -43 -53 -55 -63 -65 -83 -84 -92 0
-16 -29 -31 -42 -43 -53 -55 -63 -65 -83 -84 -92 0
-16 -30 -31 -42 -44 -53 -55 -63 -65 -83 -84 -92 0
-16 -30 -31 -43 -44 -53 -56 -63 -65 -83 -84 -92 0
-15 -29 -30 -42 -43 -54 -55 -63 -66 -83 -84 -92 0
-16 -29 -31 -42 -43 -54 -55 -63 -66 -83 -84 -92 0
-16 -30 -31 -42 -44 -54 -55 -63 -66 -83 -84 -92 0
-16 -30 -31 -43 -44 -54 -56 -63 -66 -83 -84 -92 0
-16 -30 -31 -43 -44 -55 -56 -63 -67 -83 -84 -92 0
-14 -28 -29 -41 -42 -53 -54 -64 -65 -83 -85 -92 0
-15 -28 -30 -41 -42 -53 -54 -64 -65 -83 -85 -92 0
-16 -28 -31 -41 -42 -53 -54 -64 -65 -83 -85 -92 0
-15 -29 -30 -41 -43 -53 -54 -64 -65 -83 -85 -92 0
-16 -29 -31 -41 -43 -53 -54 -64 -65 -83 -85 -92 0
-16 -30 -31 -41 -44 -53 -54 -64 -65 -83 -85 -92 0
-15 -29 -30 -42 -43 -53 -55 -64 -65 -83 -85 -92 0
-16 -29 -31 -42 -43 -53 -55 -64 -65 -83 -85 -92 0
-16 -30 -31 -42 -44 -53 -55 -64 -65 -83 -85 -92 0
-16 -30 -31 -43 -44 -53 -56 -64 -65 -83 -85 -92 0
-15 -29 -30 -42 -43 -54 -55 -64 -66 -83 -85 -92 0
-16 -29 -31 -42 -43 -54 -55 -64 -66 -83 -85 -92 0
-16 -30 -31 -42 -44 -54 -55 -64 -66 -83 -85 -92 0
-16 -30 -31 -43 -44 -54 -56 -64 -66 -83 -85 -92 0
-16 -30 -31 -43 -44 -55 -56 -64 -67 -83 -85 -92 0
-15 -29 -30 -42 -43 -54 -55 -65 -66 -83 -86 -92 0
-16 -29 -31 -42 -43 -54 -55 -65 -66 -83 -86 -92 0
-16 -30 -31 -42 -44 -54 -55 -65 -66 -83 -86 -92 0
-16 -30 -31 -43 -44 -54 -56 -65 -66 -83 -86 -92 0
-16 -30 -31 -43 -44 -55 -56 -65 -67 -83 -86 -92 0
-16 -30 -31 -43 -44 -55 -56 -66 -67 -83 -87 -92 0
-14 -28 -29 -41 -42 -53 -54 -64 -65 -84 -85 -93 0
-15 -28 -30 -41 -42 -53 -54 -64 -65 -84 -85 -93 0
-16 -28 -31 -41 -42 -53 -54 -64 -65 -84 -85 -93 0
-15 -29 -30 -41 -43 -53 -54 -64 -65 -84 -85 -93 0
-16 -29 -31 -41 -43 -53 -54 -64 -65 -84 -85 -93 0
-16 -30 -31 -41 -44 -53 -54 -64 -65 -84 -85 -93 0
-15 -29 -30 -42 -43 -53 -55 -64 -65 -84 -85 -93 0
-16 -29 -31 -42 -43 -53 -55 -64 -65 -84 -85 -93 0
-16 -30 -31 -42 -44 -53 -55 -64 -65 -84 -85 -93 0
-16 -30 -31 -43 -44 -53 -56 -64 -65 -84 -85 -93 0
-15 -29 -30 -42 -43 -54 -55 -64 -66 -84 -85 -93 0
-16 -29 -31 -42 -43 -54 -55 -64 -66 -84 -85 -93 0
-16 -30 -31 -42 -44 -54 -55 -64 -66 -84 -85 -93 0
-16 -30 -31 -43 -44 -54 -56 -64 -66 -84 -85 -93 0
-16 -30 -31 -43 -44 -55 -56 -64 -67 -84 -85 -93 0
-15 -29 -30 -42 -43 -54 -55 -65 -66 -84 -86 -93 0
-16 -29 -31 -42 -43 -54 -55 -65 -66 -84 -86 -93 0
-16 -30 -31 -42 -44 -54 -55 -65 -66 -84 -86 -93 0
-16 -30 -31 -43 -44 -54 -56 -65 -66 -84 -86 -93 0
-16 -30 -31 -43 -44 -55 -56 -65 -67 -84 -86 -93 0
-16 -30 -31 -43 -44 -55 -56 -66 -67 -84 -87 -93 0
-15 -29 -30 -42 -43 -54 -55 -65 -66 -85 -86 -94 0
-16 -29 -31 -42 -43 -54 -55 -65 -66 -85 -86 -94 0
-16 -30 -31 -42 -44 -54 -55 -65 -66 -85 -86 -94 0
-16 -30 -31 -43 -44 -54 -56 -65 -66 -85 -86 -94 0
-16 -30 -31 -43 -44 -55 -56 -65 -67 -85 -86 -94 0
-16 -30 -31 -43 -44 -55 -56 -66 -67 -85 -87 -94 0
-16 -30 -31 -43 -44 -55 -56 -66 -67 -86 -87 -95 0
-14 -28 -29 -41 -42 -53 -54 -64 -65 -84 -85 -101 0
-15 -28 -30 -41 -42 -53 -54 -64 -65 -84 -85 -101 0
-16 -28 -31 -41 -42 -53 -54 -64 -65 -84 -85 -101 0
-15 -29 -30 -41 -43 -53 -54 -64 -65 -84 -85 -101 0
-16 -29 -31 -41 -43 -53 -54 -64 -65 -84 -85 -101 0
-16 -30 -31 -41 -44 -53 -54 -64 -65 -84 -85 -101 0
-15 -29 -30 -42 -43 -53 -55 -64 -65 -84 -85 -101 0
-16 -29 -31 -42 -43 -53 -55 -64 -65 -84 -85 -101 0
-16 -30 -31 -42 -44 -53 -55 -64 -65 -84 -85 -101 0
-16 -30 -31 -43 -44 -53 -56 -64 -65 -84 -85 -101 0
-15 -29 -30 -42 -43 -54 -55 -64 -66 -84 -85 -101 0
-16 -29 -31 -42 -43 -54 -55 -64 -66 -84 -85 -101 0
-16 -30 -31 -42 -44 -54 -55 -64 -66 -84 -85 -101 0
-16 -30 -31 -43 -44 -54 -56 -64 -66 -84 -85 -101 0
-16 -30 -31 -43 -44 -55 -56 -64 -67 -84 -85 -101 0
-15 -29 -30 -42 -43 -54 -55 -65 -66 -84 -86 -101 0
-16 -29 -31 -42 -43 -54 -55 -65 -66 -84 -86 -101 0
-16 -30 -31 -42 -44 -54 -55 -65 -66 -84 -86 -101 0
-16 -30 -31 -43 -44 -54 -56 -65 -66 -84 -86 -101 0
-16 -30 -31 -43 -44 -55 -56 -65 -67 -84 -86 -101 0
-16 -30 -31 -43 -44 -55 -56 -66 -67 -84 -87 -101 0
-15 -29 -30 -42 -43 -54 -55 -65 -66 -85 -86 -102 0
-16 -29 -31 -42 -43 -54 -55 -65 -66 -85 -86 -102 0
-16 -30 -31 -42 -44 -54 -55 -65 -66 -85 -86 -102 0
-16 -30 -31 -43 -44 -54 -56 -65 -66 -85 -86 -102 0
-16 -30 -31 -43 -44 -55 -56 -65 -67 -85 -86 -102 0
-16 -30 -31 -43 -44 -55 -56 -66 -67 -85 -87 -102 0
-16 -30 -31 -43 -44 -55 -56 -66 -67 -86 -87 -103 0
-15 -29 -30 -42 -43 -54 -55 -65 -66 -85 -86 -109 0
-16 -29 -31 -42 -43 -54 -55 -65 -66 -85 -86 -109 0
-16 -30 -31 -42 -44 -54 -55 -65 -66 -85 -86 -109 0
-16 -30 -31 -43 -44 -54 -56 -65 -66 -85 -86 -109 0
-16 -30 -31 -43 -44 -55 -56 -65 -67 -85 -86 -109 0
-16 -30 -31 -43 -44 -55 -56 -66 -67 -85 -87 -109 0
-16 -30 -31 -43 -44 -55 -56 -66 -67 -86 -87 -110 0
-16 -30 -31 -43 -44 -55 -56 -66 -67 -86 -87 -116 0
-14 -28 -29 -41 -42 -53 -54 -64 -65 -93 -94 -101 0
-15 -28 -30 -41 -42 -53 -54 -64 -65 -93 -94 -101 0
-16 -28 -31 -41 -42 -53 -54 -64 -65 -93 -94 -101 0
-15 -29 -30 -41 -43 -53 -54 -64 -65 -93 -94 -101 0
-16 -29 -31 -41 -43 -53 -54 -64 -65 -93 -94 -101 0
-16 -30 -31 -41 -44 -53 -54 -64 -65 -93 -94 -101 0
-15 -29 -30 -42 -43 -53 -55 -64 -65 -93 -94 -101 0
-16 -29 -31 -42 -43 -53 -55 -64 -65 -93 -94 -101 0
-16 -30 -31 -42 -44 -53 -55 -64 -65 -93 -94 -101 0
-16 -30 -31 -43 -44 -53 -56 -64 -65 -93 -94 -101 0
-15 -29 -30 -42 -43 -54 -55 -64 -66 -93 -94 -101 0
-16 -29 -31 -42 -43 -54 -55 -64 -66 -93 -94 -101 0
-16 -30 -31 -42 -44 -54 -55 -64 -66 -93 -94 -101 0
-16 -30 -31 -43 -44 -54 -56 -64 -66 -93 -94 -101 0
-16 -30 -31 -43 -44 -55 -56 -64 -67 -93 -94 -101 0
-15 -29 -30 -42 -43 -54 -55 -65 -66 -93 -95 -101 0
-16 -29 -31 -42 -43 -54 -55 -65 -66 -93 -95 -101 0
-16 -30 -31 -42 -44 -54 -55 -65 -66 -93 -95 -101 0
-16 -30 -31 -43 -44 -54 -56 -65 -66 -93 -95 -101 0
-16 -30 -31 -43 -44 -55 -56 -65 -67 -93 -95 -101 0
-16 -30 -31 -43 -44 -55 -56 -66 -67 -93 -96 -101 0
-15 -29 -30 -42 -43 -54 -55 -65 -66 -94 -95 -102 0
-16 -29 -31 -42 -43 -54 -55 -65 -66 -94 -95 -102 0
-16 -30 -31 -42 -44 -54 -55 -65 -66 -94 -95 -102 0
-16 -30 -31 -43 -44 -54 -56 -65 -66 -94 -95 -102 0
-16 -30 -31 -43 -44 -55 -56 -65 -67 -94 -95 -102 0
-16 -30 -31 -43 -44 -55 -56 -66 -67 -94 -96 -102 0
-16 -30 -31 -43 -44 -55 -56 -66 -67 -95 -96 -103 0
-15 -29 -30 -42 -43 -54 -55 -65 -66 -94 -95 -109 0
-16 -29 -31 -42 -43 -54 -55 -65 -66 -94 -95 -109 0
-16 -30 -31 -42 -44 -54 -55 -65 -66 -94 -95 -109 0
-16 -30 -31 -43 -44 -54 -56 -65 -66 -94 -95 -109 0
-16 -30 -31 -43 -44 -55 -56 -65 -67 -94 -95 -109 0
-16 -30 -31 -43 -44 -55 -56 -66 -67 -94 -96 -109 0
-16 -30 -31 -43 -44 -55 -56 -66 -67 -95 -96 -110 0
-16 -30 -31 -43 -44 -55 -56 -66 -67 -95 -96 -116 0
-15 -29 -30 -42 -43 -54 -55 -65 -66 -102 -103 -109 0
-16 -29 -31 -42 -43 -54 -55 -65 -66 -102 -103 -109 0
-16 -30 -31 -42 -44 -54 -55 -65 -66 -102 -103 -109 0
-16 -30 -31 -43 -44 -54 -56 -65 -66 -102 -103 -109 0
-16 -30 -31 -43 -44 -55 -56 -65 -67 -102 -103 -109 0
-16 -30 -31 -43 -44 -55 -56 -66 -67 -102 -104 -109 0
-16 -30 -31 -43 -44 -55 -56 -66 -67 -103 -104 -110 0
-16 -30 -31 -43 -44 -55 -56 -66 -67 -103 -104 -116 0
-16 -30 -31 -43 -44 -55 -56 -66 -67 -110 -111 -116 0
-13 -27 -28 -40 -41 -52 -53 -74 -75 -83 -84 -92 0
-14 -27 -29 -40 -41 -52 -53 -74 -75 -83 -84 -92 0
-15 -27 -30 -40 -41 -52 -53 -74 -75 -83 -84 -92 0
-16 -27 -31 -40 -41 -52 -53 -74 -75 -83 -84 -92 0
-14 -28 -29 -40 -42 -52 -53 -74 -75 -83 -84 -92 0
-15 -28 -30 -40 -42 -52 -53 -74 -75 -83 -84 -92 0
-16 -28 -31 -40 -42 -52 -53 -74 -75 -83 -84 -92 0
-15 -29 -30 -40 -43 -52 -53 -74 -75 -83 -84 -92 0
-16 -29 -31 -40 -43 -52 -53 -74 -75 -83 -84 -92 0
-16 -30 -31 -40 -44 -52 -53 -74 -75 -83 -84 -92 0
-14 -28 -29 -41 -42 -52 -54 -74 -75 -83 -84 -92 0
-15 -28 -30 -41 -42 -52 -54 -74 -75 -83 -84 -92 0
-16 -28 -31 -41 -42 -52 -54 -74 -75 -83 -84 -92 0
-15 -29 -30 -41 -43 -52 -54 -74 -75 -83 -84 -92 0
-16 -29 -31 -41 -43 -52 -54 -74 -75 -83 -84 -92 0
-16 -30 -31 -41 -44 -52 -54 -74 -75 -83 -84 -92 0
-15 -29 -30 -42 -43 -52 -55 -74 -75 -83 -84 -92 0
-16 -29 -31 -42 -43 -52 -55 -74 -75 -83 -84 -92 0
-16 -30 -31 -42 -44 -52 -55 -74 -75 -83 -84 -92 0
-16 -30 -31 -43 -44 -52 -56 -74 -75 -83 -84 -92 0
-14 -28 -29 -41 -42 -53 -54 -74 -76 -83 -84 -92 0
-15 -28 -30 -41 -42 -53 -54 -74 -76 -83 -84 -92 0
-16 -28 -31 -41 -42 -53 -54 -74 -76 -83 -84 -92 0
-15 -29 -30 -41 -43 -53 -54 -74 -76 -83 -84 -92 0
-16 -29 -31 -41 -43 -53 -54 -74 -76 -83 -84 -92 0
-16 -30 -31 -41 -44 -53 -54 -74 -76 -83 -84 -92 0
-15 -29 -30 -42 -43 -53 -55 -74 -76 -83 -84 -92 0
-16 -29 -31 -42 -43 -53 -55 -74 -76 -83 -84 -92 0
-16 -30 -31 -42 -44 -53 -55 -74 -76 -83 -84 -92 0
-16 -30 -31 -43 -44 -53 -56 -74 -76 -83 -84 -92 0
-15 -29 -30 -42 -43 -54 -55 -74 -77 -83 -84 -92 0
-16 -29 -31 -42 -43 -54 -55 -74 -77 -83 -84 -92 0
-16 -30 -31 -42 -44 -54 -55 -74 -77 -83 -84 -92 0
-16 -30 -31 -43 -44 -54 -56 -74 -77 -83 -84 -92 0
-16 -30 -31 -43 -44 -55 -56 -74 -78 -83 -84 -92 0
-14 -28 -29 -41 -42 -53 -54 -75 -76 -83 -85 -92 0
-15 -28 -30 -41 -42 -53 -54 -75 -76 -83 -85 -92 0
-16 -28 -31 -41 -42 -53 -54 -75 -76 -83 -85 -92 0
-15 -29 -30 -41 -43 -53 -54 -75 -76 -83 -85 -92 0
-16 -29 -31 -41 -43 -53 -54 -75 -76 -83 -85 -92 0
-16 -30 -31 -41 -44 -53 -54 -75 -76 -83 -85 -92 0
-15 -29 -30 -42 -43 -53 -55 -75 -76 -83 -85 -92 0
-16 -29 -31 -42 -43 -53 -55 -75 -76 -83 -85 -92 0
-16 -30 -31 -42 -44 -53 -55 -75 -76 -83 -85 -92 0
-16 -30 -31 -43 -44 -53 -56 -75 -76 -83 -85 -92 0
-15 -29 -30 -42 -43 -54 -55 -75 -77 -83 -85 -92 0
-16 -29 -31 -42 -43 -54 -55 -75 -77 -83 -85 -92 0
-16 -30 -31 -42 -44 -54 -55 -75 -77 -83 -85 -92 0
-16 -30 -31 -43 -44 -54 -56 -75 -77 -83 -85 -92 0
-16 -30 -31 -43 -44 -55 -56 -75 -78 -83 -85 -92 0
-15 -29 -30 -42 -43 -54 -55 -76 -77 -83 -86 -92 0
-16 -29 -31 -42 -43 -54 -55 -76 -77 -83 -86 -92 0
-16 -30 -31 -42 -44 -54 -55 -76 -77 -83 -86 -92 0
-16 -30 -31 -43 -44 -54 -56 -76 -77 -83 -86 -92 0
-16 -30 -31 -43 -44 -55 -56 -76 -78 -83 -86 -92 0
-16 -30 -31 -43 -44 -55 -56 -77 -78 -83 -87 -92 0
-14 -28 -29 -41 -42 -53 -54 -75 -76 -84 -85 -93 0
-15 -28 -30 -41 -42 -53 -54 -75 -76 -84 -85 -93 0
-16 -28 -31 -41 -42 -53 -54 -75 -76 -84 -85 -93 0
-15 -29 -30 -41 -43 -53 -54 -75 -76 -84 -85 -93 0
-16 -29 -31 -41 -43 -53 -54 -75 -76 -84 -85 -93 0
-16 -30 -31 -41 -44 -53 -54 -75 -76 -84 -85 -93 0
-15 -29 -30 -42 -43 -53 -55 -75 -76 -84 -85 -93 0
-16 -29 -31 -42 -43 -53 -55 -75 -76 -84 -85 -93 0
-16 -30 -31 -42 -44 -53 -55 -75 -76 -84 -85 -93 0
-16 -30 -31 -43 -44 -53 -56 -75 -76 -84 -85 -93 0
-15 -29 -30 -42 -43 -54 -55 -75 -77 -84 -85 -93 0
-16 -29 -31 -42 -43 -54 -55 -75 -77 -84 -85 -93 0
-16 -30 -31 -42 -44 -54 -55 -75 -77 -84 -85 -93 0
-16 -30 -31 -43 -44 -54 -56 -75 -77 -84 -85 -93 0
-16 -30 -31 -43 -44 -55 -56 -75 -78 -84 -85 -93 0
-15 -29 -30 -42 -43 -54 -55 -76 -77 -84 -86 -93 0
-16 -29 -31 -42 -43 -54 -55 -76 -77 -84 -86 -93 0
-16 -30 -31 -42 -44 -54 -55 -76 -77 -84 -86 -93 0
-16 -30 -31 -43 -44 -54 -56 -76 -77 -84 -86 -93 0
-16 -30 -31 -43 -44 -55 -56 -76 -78 -84 -86 -93 0
-16 -30 -31 -43 -44 -55 -56 -77 -78 -84 -87 -93 0
-15 -29 -30 -42 -43 -54 -55 -76 -77 -85 -86 -94 0
-16 -29 -31 -42 -43 -54 -55 -76 -77 -85 -86 -94 0
-16 -30 -31 -42 -44 -54 -55 -76 -77 -85 -86 -94 0
-16 -30 -31 -43 -44 -54 -56 -76 -77 -85 -86 -94 0
-16 -30 -31 -43 -44 -55 -56 -76 -78 -85 -86 -94 0
-16 -30 -31 -43 -44 -55 -56 -77 -78 -85 -87 -94 0
-16 -30 -31 -43 -44 -55 -56 -77 -78 -86 -87 -95 0
-14 -28 -29 -41 -42 -53 -54 -75 -76 -84 -85 -101 0
-15 -28 -30 -41 -42 -53 -54 -75 -76 -84 -85 -101 0
-16 -28 -31 -41 -42 -53 -54 -75 -76 -84 -85 -101 0
-15 -29 -30 -41 -43 -53 -54 -75 -76 -84 -85 -101 0
-16 -29 -31 -41 -43 -53 -54 -75 -76 -84 -85 -101 0
-16 -30 -31 -41 -44 -53 -54 -75 -76 -84 -85 -101 0
-15 -29 -30 -42 -43 -53 -55 -75 -76 -84 -85 -101 0
-16 -29 -31 -42 -43 -53 -55 -75 -76 -84 -85 -101 0
-16 -30 -31 -42 -44 -53 -55 -75 -76 -84 -85 -101 0
-16 -30 -31 -43 -44 -53 -56 -75 -76 -84 -85 -101 0
-15 -29 -30 -42 -43 -54 -55 -75 -77 -84 -85 -101 0
-16 -29 -31 -42 -43 -54 -55 -75 -77 -84 -85 -101 0
-16 -30 -31 -42 -44 -54 -55 -75 -77 -84 -85 -101 0
-16 -30 -31 -43 -44 -54 -56 -75 -77 -84 -85 -101 0
-16 -30 -31 -43 -44 -55 -56 -75 -78 -84 -85 -101 0
-15 -29 -30 -42 -43 -54 -55 -76 -77 -84 -86 -101 0
-16 -29 -31 -42 -43 -54 -55 -76 -77 -84 -86 -101 0
-16 -30 -31 -42 -44 -54 -55 -76 -77 -84 -86 -101 0
-16 -30 -31 -43 -44 -54 -56 -76 -77 -84 -86 -101 0
-16 -30 -31 -43 -44 -55 -56 -76 -78 -84 -86 -101 0
-16 -30 -31 -43 -44 -55 -56 -77 -78 -84 -87 -101 0
-15 -29 -30 -42 -43 -54 -55 -76 -77 -85 -86 -102 0
-16 -29 -31 -42 -43 -54 -55 -76 -77 -85 -86 -102 0
-16 -30 -31 -42 -44 -54 -55 -76 -77 -85 -86 -102 0
-16 -30 -31 -43 -44 -54 -56 -76 -77 -85 -86 -102 0
-16 -30 -31 -43 -44 -55 -56 -76 -78 -85 -86 -102 0
-16 -30 -31 -43 -44 -55 -56 -77 -78 -85 -87 -102 0
-16 -30 -31 -43 -44 -55 -56 -77 -78 -86 -87 -103 0
-15 -29 -30 -42 -43 -54 -55 -76 -77 -85 -86 -109 0
-16 -29 -31 -42 -43 -54 -55 -76 -77 -85 -86 -109 0
-16 -30 -31 -42 -44 -54 -55 -76 -77 -85 -86 -109 0
-16 -30 -31 -43 -44 -54 -56 -76 -77 -85 -86 -109 0
-16 -30 -31 -43 -44 -55 -56 -76 -78 -85 -86 -109 0
-16 -30 -31 -43 -44 -55 -56 -77 -78 -85 -87 -109 0
-16 -30 -31 -43 -44 -55 -56 -77 -78 -86 -87 -110 0
-16 -30 -31 -43 -44 -55 -56 -77 -78 -86 -87 -116 0
-14 -28 -29 -41 -42 -53 -54 -75 -76 -93 -94 -101 0
-15 -28 -30 -41 -42 -53 -54 -75 -76 -93 -94 -101 0
-16 -28 -31 -41 -42 -53 -54 -75 -76 -93 -94 -101 0
-15 -29 -30 -41 -43 -53 -54 -75 -76 -93 -94 -101 0
-16 -29 -31 -41 -43 -53 -54 -75 -76 -93 -94 -101 0
-16 -30 -31 -41 -44 -53 -54 -75 -76 -93 -94 -101 0
-15 -29 -30 -42 -43 -53 -55 -75 -76 -93 -94 -101 0
-16 -29 -31 -42 -43 -53 -55 -75 -76 -93 -94 -101 0
-16 -30 -31 -42 -44 -53 -55 -75 -76 -93 -94 -101 0
-16 -30 -31 -43 -44 -53 -56 -75 -76 -93 -94 -101 0
-15 -29 -30 -42 -43 -54 -55 -75 -77 -93 -94 -101 0
-16 -29 -31 -42 -43 -54 -55 -75 -77 -93 -94 -101 0
-16 -30 -31 -42 -44 -54 -55 -75 -77 -93 -94 -101 0
-16 -30 -31 -43 -44 -54 -56 -75 -77 -93 -94 -101 0
-16 -30 -31 -43 -44 -55 -56 -75 -78 -93 -94 -101 0
-15 -29 -30 -42 -43 -54 -55 -76 -77 -93 -95 -101 0
-16 -29 -31 -42 -43 -54 -55 -76 -77 -93 -95 -101 0
-16 -30 -31 -42 -44 -54 -55 -76 -77 -93 -95 -101 0
-16 -30 -31 -43 -44 -54 -56 -76 -77 -93 -95 -101 0
-16 -30 -31 -43 -44 -55 -56 -76 -78 -93 -95 -101 0
-16 -30 -31 -43 -44 -55 -56 -77 -78 -93 -96 -101 0
-15 -29 -30 -42 -43 -54 -55 -76 -77 -94 -95 -102 0
-16 -29 -31 -42 -43 -54 -55 -76 -77 -94 -95 -102 0
-16 -30 -31 -42 -44 -54 -55 -76 -77 -94 -95 -102 0
-16 -30 -31 -43 -44 -54 -56 -76 -77 -94 -95 -102 0
-16 -30 -31 -43 -44 -55 -56 -76 -78 -94 -95 -102 0
-16 -30 -31 -43 -44 -55 -56 -77 -78 -94 -96 -102 0
-16 -30 -31 -43 -44 -55 -56 -77 -78 -95 -96 -103 0
-15 -29 -30 -42 -43 -54 -55 -76 -77 -94 -95 -109 0
-16 -29 -31 -42 -43 -54 -55 -76 -77 -94 -95 -109 0
-16 -30 -31 -42 -44 -54 -55 -76 -77 -94 -95 -109 0
-16 -30 -31 -43 -44 -54 -56 -76 -77 -94 -95 -109 0
-16 -30 -31 -43 -44 -55 -56 -76 -78 -94 -95 -109 0
-16 -30 -31 -43 -44 -55 -56 -77 -78 -94 -96 -109 0
-16 -30 -31 -43 -44 -55 -56 -77 -78 -95 -96 -110 0
-16 -30 -31 -43 -44 -55 -56 -77 -78 -95 -96 -116 0
-15 -29 -30 -42 -43 -54 -55 -76 -77 -102 -103 -109 0
-16 -29 -31 -42 -43 -54 -55 -76 -77 -102 -103 -109 0
-16 -30 -31 -42 -44 -54 -55 -76 -77 -102 -103 -109 0
-16 -30 -31 -43 -44 -54 -56 -76 -77 -102 -103 -109 0
-16 -30 -31 -43 -44 -55 -56 -76 -78 -102 -103 -109 0
-16 -30 -31 -43 -44 -55 -56 -77 -78 -102 -104 -109 0
-16 -30 -31 -43 -44 -55 -56 -77 -78 -103 -104 -110 0
-16 -30 -31 -43 -44 -55 -56 -77 -78 -103 -104 -116 0
-16 -30 -31 -43 -44 -55 -56 -77 -78 -110 -111 -116 0
-14 -28 -29 -41 -42 -53 -54 -85 -86 -93 -94 -101 0
-15 -28 -30 -41 -42 -53 -54 -85 -86 -93 -94 -101 0
-16 -28 -31 -41 -42 -53 -54 -85 -86 -93 -94 -101 0
-15 -29 -30 -41 -43 -53 -54 -85 -86 -93 -94 -101 0
-16 -29 -31 -41 -43 -53 -54 -85 -86 -93 -94 -101 0
-16 -30 -31 -41 -44 -53 -54 -85 -86 -93 -94 -101 0
-15 -29 -30 -42 -43 -53 -55 -85 -86 -93 -94 -101 0
-16 -29 -31 -42 -43 -53 -55 -85 -86 -93 -94 -101 0
-16 -30 -31 -42 -44 -53 -55 -85 -86 -93 -94 -101 0
-16 -30 -31 -43 -44 -53 -56 -85 -86 -93 -94 -101 0
-15 -29 -30 -42 -43 -54 -55 -85 -87 -93 -94 -101 0
-16 -29 -31 -42 -43 -54 -55 -85 -87 -93 -94 -101 0
-16 -30 -31 -42 -44 -54 -55 -85 -87 -93 -94 -101 0
-16 -30 -31 -43 -44 -54 -56 -85 -87 -93 -94 -101 0
-16 -30 -31 -43 -44 -55 -56 -85 -88 -93 -94 -101 0
-15 -29 -30 -42 -43 -54 -55 -86 -87 -93 -95 -101 0
-16 -29 -31 -42 -43 -54 -55 -86 -87 -93 -95 -101 0
-16 -30 -31 -42 -44 -54 -55 -86 -87 -93 -95 -101 0
-16 -30 -31 -43 -44 -54 -56 -86 -87 -93 -95 -101 0
-16 -30 -31 -43 -44 -55 -56 -86 -88 -93 -95 -101 0
-16 -30 -31 -43 -44 -55 -56 -87 -88 -93 -96 -101 0
-15 -29 -30 -42 -43 -54 -55 -86 -87 -94 -95 -102 0
-16 -29 -31 -42 -43 -54 -55 -86 -87 -94 -95 -102 0
-16 -30 -31 -42 -44 -54 -55 -86 -87 -94 -95 -102 0
-16 -30 -31 -43 -44 -54 -56 -86 -87 -94 -95 -102 0
-16 -30 -31 -43 -44 -55 -56 -86 -88 -94 -95 -102 0
-16 -30 -31 -43 -44 -55 -56 -87 -88 -94 -96 -102 0
-16 -30 -31 -43 -44 -55 -56 -87 -88 -95 -96 -103 0
-15 -29 -30 -42 -43 -54 -55 -86 -87 -94 -95 -109 0
-16 -29 -31 -42 -43 -54 -55 -86 -87 -94 -95 -109 0
-16 -30 -31 -42 -44 -54 -55 -86 -87 -94 -95 -109 0
-16 -30 -31 -43 -44 -54 -56 -86 -87 -94 -95 -109 0
-16 -30 -31 -43 -44 -55 -56 -86 -88 -94 -95 -109 0
-16 -30 -31 -43 -44 -55 -56 -87 -88 -94 -96 -109 0
-16 -30 -31 -43 -44 -55 -56 -87 -88 -95 -96 -110 0
-16 -30 -31 -43 -44 -55 -56 -87 -88 -95 -96 -116 0
-15 -29 -30 -42 -43 -54 -55 -86 -87 -102 -103 -109 0
-16 -29 -31 -42 -43 -54 -55 -86 -87 -102 -103 -109 0
-16 -30 -31 -42 -44 -54 -55 -86 -87 -102 -103 -109 0
-16 -30 -31 -43 -44 -54 -56 -86 -87 -102 -103 -109 0
-16 -30 -31 -43 -44 -55 -56 -86 -88 -102 -103 -109 0
-16 -30 -31 -43 -44 -55 -56 -87 -88 -102 -104 -109 0
-16 -30 -31 -43 -44 -55 -56 -87 -88 -103 -104 -110 0
-16 -30 -31 -43 -44 -55 -56 -87 -88 -103 -104 -116 0
-16 -30 -31 -43 -44 -55 -56 -87 -88 -110 -111 -116 0
-15 -29 -30 -42 -43 -54 -55 -95 -96 -102 -103 -109 0
-16 -29 -31 -42 -43 -54 -55 -95 -96 -102 -103 -109 0
-16 -30 -31 -42 -44 -54 -55 -95 -96 -102 -103 -109 0
-16 -30 -31 -43 -44 -54 -56 -95 -96 -102 -103 -109 0
-16 -30 -31 -43 -44 -55 -56 -95 -97 -102 -103 -109 0
-16 -30 -31 -43 -44 -55 -56 -96 -97 -102 -104 -109 0
-16 -30 -31 -43 -44 -55 -56 -96 -97 -103 -104 -110 0
-16 -30 -31 -43 -44 -55 -56 -96 -97 -103 -104 -116 0
-16 -30 -31 -43 -44 -55 -56 -96 -97 -110 -111 -116 0
-16 -30 -31 -43 -44 -55 -56 -104 -105 -110 -111 -116 0
-13 -27 -28 -40 -41 -64 -65 -74 -75 -83 -84 -92 0
-14 -27 -29 -40 -41 -64 -65 -74 -75 -83 -84 -92 0
-15 -27 -30 -40 -41 -64 -65 -74 -75 -83 -84 -92 0
-16 -27 -31 -40 -41 -64 -65 -74 -75 -83 -84 -92 0
-14 -28 -29 -40 -42 -64 -65 -74 -75 -83 -84 -92 0
-15 -28 -30 -40 -42 -64 -65 -74 -75 -83 -84 -92 0
-16 -28 -31 -40 -42 -64 -65 -74 -75 -83 -84 -92 0
-15 -29 -30 -40 -43 -64 -65 -74 -75 -83 -84 -92 0
-16 -29 -31 -40 -43 -64 -65 -74 -75 -83 -84 -92 0
-16 -30 -31 -40 -44 -64 -65 -74 -75 -83 -84 -92 0
-14 -28 -29 -41 -42 -64 -66 -74 -75 -83 -84 -92 0
-15 -28 -30 -41 -42 -64 -66 -74 -75 -83 -84 -92 0
-16 -28 -31 -41 -42 -64 -66 -74 -75 -83 -84 -92 0
-15 -29 -30 -41 -43 -64 -66 -74 -75 -83 -84 -92 0
-16 -29 -31 -41 -43 -64 -66 -74 -75 -83 -84 -92 0
-16 -30 -31 -41 -44 -64 -66 -74 -75 -83 -84 -92 0
-15 -29 -30 -42 -43 -64 -67 -74 -75 -83 -84 -92 0
-16 -29 -31 -42 -43 -64 -67 -74 -75 -83 -84 -92 0
-16 -30 -31 -42 -44 -64 -67 -74 -75 -83 -84 -92 0
-16 -30 -31 -43 -44 -64 -68 -74 -75 -83 -84 -92 0
-14 -28 -29 -41 -42 -65 -66 -74 -76 -83 -84 -92 0
-15 -28 -30 -41 -42 -65 -66 -74 -76 -83 -84 -92 0
-16 -28 -31 -41 -42 -65 -66 -74 -76 -83 -84 -92 0
-15 -29 -30 -41 -43 -65 -66 -74 -76 -83 -84 -92 0
-16 -29 -31 -41 -43 -65 -66 -74 -76 -83 -84 -92 0
-16 -30 -31 -41 -44 -65 -66 -74 -76 -83 -84 -92 0
-15 -29 -30 -42 -43 -65 -67 -74 -76 -83 -84 -92 0
-16 -29 -31 -42 -43 -65 -67 -74 -76 -83 -84 -92 0
-16 -30 -31 -42 -44 -65 -67 -74 -76 -83 -84 -92 0
-16 -30 -31 -43 -44 -65 -68 -74 -76 -83 -84 -92 0
-15 -29 -30 -42 -43 -66 -67 -74 -77 -83 -84 -92 0
-16 -29 -31 -42 -43 -66 -67 -74 -77 -83 -84 -92 0
-16 -30 -31 -42 -44 -66 -67 -74 -77 -83 -84 -92 0
-16 -30 -31 -43 -44 -66 -68 -74 -77 -83 -84 -92 0
-16 -30 -31 -43 -44 -67 -68 -74 -78 -83 -84 -92 0
-14 -28 -29 -41 -42 -65 -66 -75 -76 -83 -85 -92 0
-15 -28 -30 -41 -42 -65 -66 -75 -76 -83 -85 -92 0
-16 -28 -31 -41 -42 -65 -66 -75 -76 -83 -85 -92 0
-15 -29 -30 -41 -43 -65 -66 -75 -76 -83 -85 -92 0
-16 -29 -31 -41 -43 -65 -66 -75 -76 -83 -85 -92 0
-16 -30 -31 -41 -44 -65 -66 -75 -76 -83 -85 -92 0
-15 -29 -30 -42 -43 -65 -67 -75 -76 -83 -85 -92 0
-16 -29 -31 -42 -43 -65 -67 -75 -76 -83 -85 -92 0
-16 -30 -31 -42 -44 -65 -67 -75 -76 -83 -85 -92 0
-16 -30 -31 -43 -44 -65 -68 -75 -76 -83 -85 -92 0
-15 -29 -30 -42 -43 -66 -67 -75 -77 -83 -85 -92 0
-16 -29 -31 -42 -43 -66 -67 -75 -77 -83 -85 -92 0
-16 -30 -31 -42 -44 -66 -67 -75 -77 -83 -85 -92 0
-16 -30 -31 -43 -44 -66 -68 -75 -77 -83 -85 -92 0
-16 -30 -31 -43 -44 -67 -68 -75 -78 -83 -85 -92 0
-15 -29 -30 -42 -43 -66 -67 -76 -77 -83 -86 -92 0
-16 -29 -31 -42 -43 -66 -67 -76 -77 -83 -86 -92 0
-16 -30 -31 -42 -44 -66 -67 -76 -77 -83 -86 -92 0
-16 -30 -31 -43 -44 -66 -68 -76 -77 -83 -86 -92 0
-16 -30 -31 -43 -44 -67 -68 -76 -78 -83 -86 -92 0
-16 -30 -31 -43 -44 -67 -68 -77 -78 -83 -87 -92 0
-14 -28 -29 -41 -42 -65 -66 -75 -76 -84 -85 -93 0
-15 -28 -30 -41 -42 -65 -66 -75 -76 -84 -85 -93 0
-16 -28 -31 -41 -42 -65 -66 -75 -76 -84 -85 -93 0
-15 -29 -30 -41 -43 -65 -66 -75 -76 -84 -85 -93 0
-16 -29 -31 -41 -43 -65 -66 -75 -76 -84 -85 -93 0
-16 -30 -31 -41 -44 -65 -66 -75 -76 -84 -85 -93 0
-15 -29 -30 -42 -43 -65 -67 -75 -76 -84 -85 -93 0
-16 -29 -31 -42 -43 -65 -67 -75 -76 -84 -85 -93 0
-16 -30 -31 -42 -44 -65 -67 -75 -76 -84 -85 -93 0
-16 -30 -31 -43 -44 -65 -68 -75 -76 -84 -85 -93 0
-15 -29 -30 -42 -43 -66 -67 -75 -77 -84 -85 -93 0
-16 -29 -31 -42 -43 -66 -67 -75 -77 -84 -85 -93 0
-16 -30 -31 -42 -44 -66 -67 -75 -77 -84 -85 -93 0
-16 -30 -31 -43 -44 -66 -68 -75 -77 -84 -85 -93 0
-16 -30 -31 -43 -44 -67 -68 -75 -78 -84 -85 -93 0
-15 -29 -30 -42 -43 -66 -67 -76 -77 -84 -86 -93 0
-16 -29 -31 -42 -43 -66 -67 -76 -77 -84 -86 -93 0
-16 -30 -31 -42 -44 -66 -67 -76 -77 -84 -86 -93 0
-16 -30 -31 -43 -44 -66 -68 -76 -77 -84 -86 -93 0
-16 -30 -31 -43 -44 -67 -68 -76 -78 -84 -86 -93 0
-16 -30 -31 -43 -44 -67 -68 -77 -78 -84 -87 -93 0
-15 -29 -30 -42 -43 -66 -67 -76 -77 -85 -86 -94 0
-16 -29 -31 -42 -43 -66 -67 -76 -77 -85 -86 -94 0
-16 -30 -31 -42 -44 -66 -67 -76 -77 -85 -86 -94 0
-16 -30 -31 -43 -44 -66 -68 -76 -77 -85 -86 -94 0
-16 -30 -31 -43 -44 -67 -68 -76 -78 -85 -86 -94 0
-16 -30 -31 -43 -44 -67 -68 -77 -78 -85 -87 -94 0
-16 -30 -31 -43 -44 -67 -68 -77 -78 -86 -87 -95 0
-14 -28 -29 -41 -42 -65 -66 -75 -76 -84 -85 -101 0
-15 -28 -30 -41 -42 -65 -66 -75 -76 -84 -85 -101 0
-16 -28 -31 -41 -42 -65 -66 -75 -76 -84 -85 -101 0
-15 -29 -30 -41 -43 -65 -66 -75 -76 -84 -85 -101 0
-16 -29 -31 -41 -43 -65 -66 -75 -76 -84 -85 -101 0
-16 -30 -31 -41 -44 -65 -66 -75 -76 -84 -85 -101 0
-15 -29 -30 -42 -43 -65 -67 -75 -76 -84 -85 -101 0
-16 -29 -31 -42 -43 -65 -67 -75 -76 -84 -85 -101 0
-16 -30 -31 -42 -44 -65 -67 -75 -76 -84 -85 -101 0
-16 -30 -31 -43 -44 -65 -68 -75 -76 -84 -85 -101 0
-15 -29 -30 -42 -43 -66 -67 -75 -77 -84 -85 -101 0
-16 -29 -31 -42 -43 -66 -67 -75 -77 -84 -85 -101 0
-16 -30 -31 -42 -44 -66 -67 -75 -77 -84 -85 -101 0
-16 -30 -31 -43 -44 -66 -68 -75 -77 -84 -85 -101 0
-16 -30 -31 -43 -44 -67 -68 -75 -78 -84 -85 -101 0
-15 -29 -30 -42 -43 -66 -67 -76 -77 -84 -86 -101 0
-16 -29 -31 -42 -43 -66 -67 -76 -77 -84 -86 -101 0
-16 -30 -31 -42 -44 -66 -67 -76 -77 -84 -86 -101 0
-16 -30 -31 -43 -44 -66 -68 -76 -77 -84 -86 -101 0
-16 -30 -31 -43 -44 -67 -68 -76 -78 -84 -86 -101 0
-16 -30 -31 -43 -44 -67 -68 -77 -78 -84 -87 -101 0
-15 -29 -30 -42 -43 -66 -67 -76 -77 -85 -86 -102 0
-16 -29 -31 -42 -43 -66 -67 -76 -77 -85 -86 -102 0
-16 -30 -31 -42 -44 -66 -67 -76 -77 -85 -86 -102 0
-16 -30 -31 -43 -44 -66 -68 -76 -77 -85 -86 -102 0
-16 -30 -31 -43 -44 -67 -68 -76 -78 -85 -86 -102 0
-16 -30 -31 -43 -44 -67 -68 -77 -78 -85 -87 -102 0
-16 -30 -31 -43 -44 -67 -68 -77 -78 -86 -87 -103 0
-15 -29 -30 -42 -43 -66 -67 -76 -77 -85 -86 -109 0
-16 -29 -31 -42 -43 -66 -67 -76 -77 -85 -86 -109 0
-16 -30 -31 -42 -44 -66 -67 -76 -77 -85 -86 -109 0
-16 -30 -31 -43 -44 -66 -68 -76 -77 -85 -86 -109 0
-16 -30 -31 -43 -44 -67 -68 -76 -78 -85 -86 -109 0
-16 -30 -31 -43 -44 -67 -68 -77 -78 -85 -87 -109 0
-16 -30 -31 -43 -44 -67 -68 -77 -78 -86 -87 -110 0
-16 -30 -31 -43 -44 -67 -68 -77 -78 -86 -87 -116 0
-14 -28 -29 -41 -42 -65 -66 -75 -76 -93 -94 -101 0
-15 -28 -30 -41 -42 -65 -66 -75 -76 -93 -94 -101 0
-16 -28 -31 -41 -42 -65 -66 -75 -76 -93 -94 -101 0
-15 -29 -30 -41 -43 -65 -66 -75 -76 -93 -94 -101 0
-16 -29 -31 -41 -43 -65 -66 -75 -76 -93 -94 -101 0
-16 -30 -31 -41 -44 -65 -66 -75 -76 -93 -94 -101 0
-15 -29 -30 -42 -43 -65 -67 -75 -76 -93 -94 -101 0
-16 -29 -31 -42 -43 -65 -67 -75 -76 -93 -94 -101 0
-16 -30 -31 -42 -44 -65 -67 -75 -76 -93 -94 -101 0
-16 -30 -31 -43 -44 -65 -68 -75 -76 -93 -94 -101 0
-15 -29 -30 -42 -43 -66 -67 -75 -77 -93 -94 -101 0
-16 -29 -31 -42 -43 -66 -67 -75 -77 -93 -94 -101 0
-16 -30 -31 -42 -44 -66 -67 -75 -77 -93 -94 -101 0
-16 -30 -31 -43 -44 -66 -68 -75 -77 -93 -94 -101 0
-16 -30 -31 -43 -44 -67 -68 -75 -78 -93 -94 -101 0
-15 -29 -30 -42 -43 -66 -67 -76 -77 -93 -95 -101 0
-16 -29 -31 -42 -43 -66 -67 -76 -77 -93 -95 -101 0
-16 -30 -31 -42 -44 -66 -67 -76 -77 -93 -95 -101 0
-16 -30 -31 -43 -44 -66 -68 -76 -77 -93 -95 -101 0
-16 -30 -31 -43 -44 -67 -68 -76 -78 -93 -95 -101 0
-16 -30 -31 -43 -44 -67 -68 -77 -78 -93 -96 -101 0
-15 -29 -30 -42 -43 -66 -67 -76 -77 -94 -95 -102 0
-16 -29 -31 -42 -43 -66 -67 -76 -77 -94 -95 -102 0
-16 -30 -31 -42 -44 -66 -67 -76 -77 -94 -95 -102 0
-16 -30 -31 -43 -44 -66 -68 -76 -77 -94 -95 -102 0
-16 -30 -31 -43 -44 -67 -68 -76 -78 -94 -95 -102 0
-16 -30 -31 -43 -44 -67 -68 -77 -78 -94 -96 -102 0
-16 -30 -31 -43 -44 -67 -68 -77 -78 -95 -96 -103 0
-15 -29 -30 -42 -43 -66 -67 -76 -77 -94 -95 -109 0
-16 -29 -31 -42 -43 -66 -67 -76 -77 -94 -95 -109 0
-16 -30 -31 -42 -44 -66 -67 -76 -77 -94 -95 -109 0
-16 -30 -31 -43 -44 -66 -68 -76 -77 -94 -95 -109 0
-16 -30 -31 -43 -44 -67 -68 -76 -78 -94 -95 -109 0
-16 -30 -31 -43 -44 -67 -68 -77 -78 -94 -96 -109 0
-16 -30 -31 -43 -44 -67 -68 -77 -78 -95 -96 -110 0
-16 -30 -31 -43 -44 -67 -68 -77 -78 -95 -96 -116 0
-15 -29 -30 -42 -43 -66 -67 -76 -77 -102 -103 -109 0
-16 -29 -31 -42 -43 -66 -67 -76 -77 -102 -103 -109 0
-16 -30 -31 -42 -44 -66 -67 -76 -77 -102 -103 -109 0
-16 -30 -31 -43 -44 -66 -68 -76 -77 -102 -103 -109 0
-16 -30 -31 -43 -44 -67 -68 -76 -78 -102 -103 -109 0
-16 -30 -31 -43 -44 -67 -68 -77 -78 -102 -104 -109 0
-16 -30 -31 -43 -44 -67 -68 -77 -78 -103 -104 -110 0
-16 -30 -31 -43 -44 -67 -68 -77 -78 -103 -104 -116 0
-16 -30 -31 -43 -44 -67 -68 -77 -78 -110 -111 -116 0
-14 -28 -29 -41 -42 -65 -66 -85 -86 -93 -94 -101 0
-15 -28 -30 -41 -42 -65 -66 -85 -86 -93 -94 -101 0
-16 -28 -31 -41 -42 -65 -66 -85 -86 -93 -94 -101 0
-15 -29 -30 -41 -43 -65 -66 -85 -86 -93 -94 -101 0
-16 -29 -31 -41 -43 -65 -66 -85 -86 -93 -94 -101 0
-16 -30 -31 -41 -44 -65 -66 -85 -86 -93 -94 -101 0
-15 -29 -30 -42 -43 -65 -67 -85 -86 -93 -94 -101 0
-16 -29 -31 -42 -43 -65 -67 -85 -86 -93 -94 -101 0
-16 -30 -31 -42 -44 -65 -67 -85 -86 -93 -94 -101 0
-16 -30 -31 -43 -44 -65 -68 -85 -86 -93 -94 -101 0
-15 -29 -30 -42 -43 -66 -67 -85 -87 -93 -94 -101 0
-16 -29 -31 -42 -43 -66 -67 -85 -87 -93 -94 -101 0
-16 -30 -31 -42 -44 -66 -67 -85 -87 -93 -94 -101 0
-16 -30 -31 -43 -44 -66 -68 -85 -87 -93 -94 -101 0
-16 -30 -31 -43 -44 -67 -68 -85 -88 -93 -94 -101 0
-15 -29 -30 -42 -43 -66 -67 -86 -87 -93 -95 -101 0
-16 -29 -31 -42 -43 -66 -67 -86 -87 -93 -95 -101 0
-16 -30 -31 -42 -44 -66 -67 -86 -87 -93 -95 -101 0
-16 -30 -31 -43 -44 -66 -68 -86 -87 -93 -95 -101 0
-16 -30 -31 -43 -44 -67 -68 -86 -88 -93 -95 -101 0
-16 -30 -31 -43 -44 -67 -68 -87 -88 -93 -96 -101 0
-15 -29 -30 -42 -43 -66 -67 -86 -87 -94 -95 -102 0
-16 -29 -31 -42 -43 -66 -67 -86 -87 -94 -95 -102 0
-16 -30 -31 -42 -44 -66 -67 -86 -87 -94 -95 -102 0
-16 -30 -31 -43 -44 -66 -68 -86 -87 -94 -95 -102 0
-16 -30 -31 -43 -44 -67 -68 -86 -88 -94 -95 -102 0
-16 -30 -31 -43 -44 -67 -68 -87 -88 -94 -96 -102 0
-16 -30 -31 -43 -44 -67 -68 -87 -88 -95 -96 -103 0
-15 -29 -30 -42 -43 -66 -67 -86 -87 -94 -95 -109 0
-16 -29 -31 -42 -43 -66 -67 -86 -87 -94 -95 -109 0
-16 -30 -31 -42 -44 -66 -67 -86 -87 -94 -95 -109 0
-16 -30 -31 -43 -44 -66 -68 -86 -87 -94 -95 -109 0
-16 -30 -31 -43 -44 -67 -68 -86 -88 -94 -95 -109 0
-16 -30 -31 -43 -44 -67 -68 -87 -88 -94 -96 -109 0
-16 -30 -31 -43 -44 -67 -68 -87 -88 -95 -96 -110 0
-16 -30 -31 -43 -44 -67 -68 -87 -88 -95 -96 -116 0
-15 -29 -30 -42 -43 -66 -67 -86 -87 -102 -103 -109 0
-16 -29 -31 -42 -43 -66 -67 -86 -87 -102 -103 -109 0
-16 -30 -31 -42 -44 -66 -67 -86 -87 -102 -103 -109 0
-16 -30 -31 -43 -44 -66 -68 -86 -87 -102 -103 -109 0
-16 -30 -31 -43 -44 -67 -68 -86 -88 -102 -103 -109 0
-16 -30 -31 -43 -44 -67 -68 -87 -88 -102 -104 -109 0
-16 -30 -31 -43 -44 -67 -68 -87 -88 -103 -104 -110 0
-16 -30 -31 -43 -44 -67 -68 -87 -88 -103 -104 -116 0
-16 -30 -31 -43 -44 -67 -68 -87 -88 -110 -111 -116 0
-15 -29 -30 -42 -43 -66 -67 -95 -96 -102 -103 -109 0
-16 -29 -31 -42 -43 -66 -67 -95 -96 -102 -103 -109 0
-16 -30 -31 -42 -44 -66 -67 -95 -96 -102 -103 -109 0
-16 -30 -31 -43 -44 -66 -68 -95 -96 -102 -103 -109 0
-16 -30 -31 -43 -44 -67 -68 -95 -97 -102 -103 -109 0
-16 -30 -31 -43 -44 -67 -68 -96 -97 -102 -104 -109 0
-16 -30 -31 -43 -44 -67 -68 -96 -97 -103 -104 -110 0
-16 -30 -31 -43 -44 -67 -68 -96 -97 -103 -104 -116 0
-16 -30 -31 -43 -44 -67 -68 -96 -97 -110 -111 -116 0
-16 -30 -31 -43 -44 -67 -68 -104 -105 -110 -111 -116 0
-14 -28 -29 -41 -42 -76 -77 -85 -86 -93 -94 -101 0
-15 -28 -30 -41 -42 -76 -77 -85 -86 -93 -94 -101 0
-16 -28 -31 -41 -42 -76 -77 -85 -86 -93 -94 -101 0
-15 -29 -30 -41 -43 -76 -77 -85 -86 -93 -94 -101 0
-16 -29 -31 -41 -43 -76 -77 -85 -86 -93 -94 -101 0
-16 -30 -31 -41 -44 -76 -77 -85 -86 -93 -94 -101 0
-15 -29 -30 -42 -43 -76 -78 -85 -86 -93 -94 -101 0
-16 -29 -31 -42 -43 -76 -78 -85 -86 -93 -94 -101 0
-16 -30 -31 -42 -44 -76 -78 -85 -86 -93 -94 -101 0
-16 -30 -31 -43 -44 -76 -79 -85 -86 -93 -94 -101 0
-15 -29 -30 -42 -43 -77 -78 -85 -87 -93 -94 -101 0
-16 -29 -31 -42 -43 -77 -78 -85 -87 -93 -94 -101 0
-16 -30 -31 -42 -44 -77 -78 -85 -87 -93 -94 -101 0
-16 -30 -31 -43 -44 -77 -79 -85 -87 -93 -94 -101 0
-16 -30 -31 -43 -44 -78 -79 -85 -88 -93 -94 -101 0
-15 -29 -30 -42 -43 -77 -78 -86 -87 -93 -95 -101 0
-16 -29 -31 -42 -43 -77 -78 -86 -87 -93 -95 -101 0
-16 -30 -31 -42 -44 -77 -78 -86 -87 -93 -95 -101 0
-16 -30 -31 -43 -44 -77 -79 -86 -87 -93 -95 -101 0
-16 -30 -31 -43 -44 -78 -79 -86 -88 -93 -95 -101 0
-16 -30 -31 -43 -44 -78 -79 -87 -88 -93 -96 -101 0
-15 -29 -30 -42 -43 -77 -78 -86 -87 -94 -95 -102 0
-16 -29 -31 -42 -43 -77 -78 -86 -87 -94 -95 -102 0
-16 -30 -31 -42 -44 -77 -78 -86 -87 -94 -95 -102 0
-16 -30 -31 -43 -44 -77 -79 -86 -87 -94 -95 -102 0
-16 -30 -31 -43 -44 -78 -79 -86 -88 -94 -95 -102 0
-16 -30 -31 -43 -44 -78 -79 -87 -88 -94 -96 -102 0
-16 -30 -31 -43 -44 -78 -79 -87 -88 -95 -96 -103 0
-15 -29 -30 -42 -43 -77 -78 -86 -87 -94 -95 -109 0
-16 -29 -31 -42 -43 -77 -78 -86 -87 -94 -95 -109 0
-16 -30 -31 -42 -44 -77 -78 -86 -87 -94 -95 -109 0
-16 -30 -31 -43 -44 -77 -79 -86 -87 -94 -95 -109 0
-16 -30 -31 -43 -44 -78 -79 -86 -88 -94 -95 -109 0
-16 -30 -31 -43 -44 -78 -79 -87 -88 -94 -96 -109 0
-16 -30 -31 -43 -44 -78 -79 -87 -88 -95 -96 -110 0
-16 -30 -31 -43 -44 -78 -79 -87 -88 -95 -96 -116 0
-15 -29 -30 -42 -43 -77 -78 -86 -87 -102 -103 -109 0
-16 -29 -31 -42 -43 -77 -78 -86 -87 -102 -103 -109 0
-16 -30 -31 -42 -44 -77 -78 -86 -87 -102 -103 -109 0
-16 -30 -31 -43 -44 -77 -79 -86 -87 -102 -103 -109 0
-16 -30 -31 -43 -44 -78 -79 -86 -88 -102 -103 -109 0
-16 -30 -31 -43 -44 -78 -79 -87 -88 -102 -104 -109 0
-16 -30 -31 -43 -44 -78 -79 -87 -88 -103 -104 -110 0
-16 -30 -31 -43 -44 -78 -79 -87 -88 -103 -104 -116 0
-16 -30 -31 -43 -44 -78 -79 -87 -88 -110 -111 -116 0
-15 -29 -30 -42 -43 -77 -78 -95 -96 -102 -103 -109 0
-16 -29 -31 -42 -43 -77 -78 -95 -96 -102 -103 -109 0
-16 -30 -31 -42 -44 -77 -78 -95 -96 -102 -103 -109 0
-16 -30 -31 -43 -44 -77 -79 -95 -96 -102 -103 -109 0
-16 -30 -31 -43 -44 -78 -79 -95 -97 -102 -103 -109 0
-16 -30 -31 -43 -44 -78 -79 -96 -97 -102 -104 -109 0
-16 -30 -31 -43 -44 -78 -79 -96 -97 -103 -104 -110 0
-16 -30 -31 -43 -44 -78 -79 -96 -97 -103 -104 -116 0
-16 -30 -31 -43 -44 -78 -79 -96 -97 -110 -111 -116 0
-16 -30 -31 -43 -44 -78 -79 -104 -105 -110 -111 -116 0
-15 -29 -30 -42 -43 -87 -88 -95 -96 -102 -103 -109 0
-16 -29 -31 -42 -43 -87 -88 -95 -96 -102 -103 -109 0
-16 -30 -31 -42 -44 -87 -88 -95 -96 -102 -103 -109 0
-16 -30 -31 -43 -44 -87 -89 -95 -96 -102 -103 -109 0
-16 -30 -31 -43 -44 -88 -89 -95 -97 -102 -103 -109 0
-16 -30 -31 -43 -44 -88 -89 -96 -97 -102 -104 -109 0
-16 -30 -31 -43 -44 -88 -89 -96 -97 -103 -104 -110 0
-16 -30 -31 -43 -44 -88 -89 -96 -97 -103 -104 -116 0
-16 -30 -31 -43 -44 -88 -89 -96 -97 -110 -111 -116 0
-16 -30 -31 -43 -44 -88 -89 -104 -105 -110 -111 -116 0
-16 -30 -31 -43 -44 -97 -98 -104 -105 -110 -111 -116 0
-13 -27 -28 -53 -54 -64 -65 -74 -75 -83 -84 -92 0
-14 -27 -29 -53 -54 -64 -65 -74 -75 -83 -84 -92 0
-15 -27 -30 -53 -54 -64 -65 -74 -75 -83 -84 -92 0
-16 -27 -31 -53 -54 -64 -65 -74 -75 -83 -84 -92 0
-14 -28 -29 -53 -55 -64 -65 -74 -75 -83 -84 -92 0
-15 -28 -30 -53 -55 -64 -65 -74 -75 -83 -84 -92 0
-16 -28 -31 -53 -55 -64 -65 -74 -75 -83 -84 -92 0
-15 -29 -30 -53 -56 -64 -65 -74 -75 -83 -84 -92 0
-16 -29 -31 -53 -56 -64 -65 -74 -75 -83 -84 -92 0
-16 -30 -31 -53 -57 -64 -65 -74 -75 -83 -84 -92 0
-14 -28 -29 -54 -55 -64 -66 -74 -75 -83 -84 -92 0
-15 -28 -30 -54 -55 -64 -66 -74 -75 -83 -84 -92 0
-16 -28 -31 -54 -55 -64 -66 -74 -75 -83 -84 -92 0
-15 -29 -30 -54 -56 -64 -66 -74 -75 -83 -84 -92 0
-16 -29 -31 -54 -56 -64 -66 -74 -75 -83 -84 -92 0
-16 -30 -31 -54 -57 -64 -66 -74 -75 -83 -84 -92 0
-15 -29 -30 -55 -56 -64 -67 -74 -75 -83 -84 -92 0
-16 -29 -31 -55 -56 -64 -67 -74 -75 -83 -84 -92 0
-16 -30 -31 -55 -57 -64 -67 -74 -75 -83 -84 -92 0
-16 -30 -31 -56 -57 -64 -68 -74 -75 -83 -84 -92 0
-14 -28 -29 -54 -55 -65 -66 -74 -76 -83 -84 -92 0
-15 -28 -30 -54 -55 -65 -66 -74 -76 -83 -84 -92 0
-16 -28 -31 -54 -55 -65 -66 -74 -76 -83 -84 -92 0
-15 -29 -30 -54 -56 -65 -66 -74 -76 -83 -84 -92 0
-16 -29 -31 -54 -56 -65 -66 -74 -76 -83 -84 -92 0
-16 -30 -31 -54 -57 -65 -66 -74 -76 -83 -84 -92 0
-15 -29 -30 -55 -56 -65 -67 -74 -76 -83 -84 -92 0
-16 -29 -31 -55 -56 -65 -67 -74 -76 -83 -84 -92 0
-16 -30 -31 -55 -57 -65 -67 -74 -76 -83 -84 -92 0
-16 -30 -31 -56 -57 -65 -68 -74 -76 -83 -84 -92 0
-15 -29 -30 -55 -56 -66 -67 -74 -77 -83 -84 -92 0
-16 -29 -31 -55 -56 -66 -67 -74 -77 -83 -84 -92 0
-16 -30 -31 -55 -57 -66 -67 -74 -77 -83 -84 -92 0
-16 -30 -31 -56 -57 -66 -68 -74 -77 -83 -84 -92 0
-16 -30 -31 -56 -57 -67 -68 -74 -78 -83 -84 -92 0
-14 -28 -29 -54 -55 -65 -66 -75 -76 -83 -85 -92 0
-15 -28 -30 -54 -55 -65 -66 -75 -76 -83 -85 -92 0
-16 -28 -31 -54 -55 -65 -66 -75 -76 -83 -85 -92 0
-15 -29 -30 -54 -56 -65 -66 -75 -76 -83 -85 -92 0
-16 -29 -31 -54 -56 -65 -66 -75 -76 -83 -85 -92 0
-16 -30 -31 -54 -57 -65 -66 -75 -76 -83 -85 -92 0
-15 -29 -30 -55 -56 -65 -67 -75 -76 -83 -85 -92 0
-16 -29 -31 -55 -56 -65 -67 -75 -76 -83 -85 -92 0
-16 -30 -31 -55 -57 -65 -67 -75 -76 -83 -85 -92 0
-16 -30 -31 -56 -57 -65 -68 -75 -76 -83 -85 -92 0
-15 -29 -30 -55 -56 -66 -67 -75 -77 -83 -85 -92 0
-16 -29 -31 -55 -56 -66 -67 -75 -77 -83 -85 -92 0
-16 -30 -31 -55 -57 -66 -67 -75 -77 -83 -85 -92 0
-16 -30 -31 -56 -57 -66 -68 -75 -77 -83 -85 -92 0
-16 -30 -31 -56 -57 -67 -68 -75 -78 -83 -85 -92 0
-15 -29 -30 -55 -56 -66 -67 -76 -77 -83 -86 -92 0
-16 -29 -31 -55 -56 -66 -67 -76 -77 -83 -86 -92 0
-16 -30 -31 -55 -57 -66 -67 -76 -77 -83 -86 -92 0
-16 -30 -31 -56 -57 -66 -68 -76 -77 -83 -86 -92 0
-16 -30 -31 -56 -57 -67 -68 -76 -78 -83 -86 -92 0
-16 -30 -31 -56 -57 -67 -68 -77 -78 -83 -87 -92 0
-14 -28 -29 -54 -55 -65 -66 -75 -76 -84 -85 -93 0
-15 -28 -30 -54 -55 -65 -66 -75 -76 -84 -85 -93 0
-16 -28 -31 -54 -55 -65 -66 -75 -76 -84 -85 -93 0
-15 -29 -30 -54 -56 -65 -66 -75 -76 -84 -85 -93 0
-16 -29 -31 -54 -56 -65 -66 -75 -76 -84 -85 -93 0
-16 -30 -31 -54 -57 -65 -66 -75 -76 -84 -85 -93 0
-15 -29 -30 -55 -56 -65 -67 -75 -76 -84 -85 -93 0
-16 -29 -31 -55 -56 -65 -67 -75 -76 -84 -85 -93 0
-16 -30 -31 -55 -57 -65 -67 -75 -76 -84 -85 -93 0
-16 -30 -31 -56 -57 -65 -68 -75 -76 -84 -85 -93 0
-15 -29 -30 -55 -56 -66 -67 -75 -77 -84 -85 -93 0
-16 -29 -31 -55 -56 -66 -67 -75 -77 -84 -85 -93 0
-16 -30 -31 -55 -57 -66 -67 -75 -77 -84 -85 -93 0
-16 -30 -31 -56 -57 -66 -68 -75 -77 -84 -85 -93 0
-16 -30 -31 -56 -57 -67 -68 -75 -78 -84 -85 -93 0
-15 -29 -30 -55 -56 -66 -67 -76 -77 -84 -86 -93 0
-16 -29 -31 -55 -56 -66 -67 -76 -77 -84 -86 -93 0
-16 -30 -31 -55 -57 -66 -67 -76 -77 -84 -86 -93 0
-16 -30 -31 -56 -57 -66 -68 -76 -77 -84 -86 -93 0
-16 -30 -31 -56 -57 -67 -68 -76 -78 -84 -86 -93 0
-16 -30 -31 -56 -57 -67 -68 -77 -78 -84 -87 -93 0
-15 -29 -30 -55 -56 -66 -67 -76 -77 -85 -86 -94 0
-16 -29 -31 -55 -56 -66 -67 -76 -77 -85 -86 -94 0
-16 -30 -31 -55 -57 -66 -67 -76 -77 -85 -86 -94 0
-16 -30 -31 -56 -57 -66 -68 -76 -77 -85 -86 -94 0
-16 -30 -31 -56 -57 -67 -68 -76 -78 -85 -86 -94 0
-16 -30 -31 -56 -57 -67 -68 -77 -78 -85 -87 -94 0
-16 -30 -31 -56 -57 -67 -68 -77 -78 -86 -87 -95 0
-14 -28 -29 -54 -55 -65 -66 -75 -76 -84 -85 -101 0
-15 -28 -30 -54 -55 -65 -66 -75 -76 -84 -85 -101 0
-16 -28 -31 -54 -55 -65 -66 -75 -76 -84 -85 -101 0
-15 -29 -30 -54 -56 -65 -66 -75 -76 -84 -85 -101 0
-16 -29 -31 -54 -56 -65 -66 -75 -76 -84 -85 -101 0
-16 -30 -31 -54 -57 -65 -66 -75 -76 -84 -85 -101 0
-15 -29 -30 -55 -56 -65 -67 -75 -76 -84 -85 -101 0
-16 -29 -31 -55 -56 -65 -67 -75 -76 -84 -85 -101 0
-16 -30 -31 -55 -57 -65 -67 -75 -76 -84 -85 -101 0
-16 -30 -31 -56 -57 -65 -68 -75 -76 -84 -85 -101 0
-15 -29 -30 -55 -56 -66 -67 -75 -77 -84 -85 -101 0
-16 -29 -31 -55 -56 -66 -67 -75 -77 -84 -85 -101 0
-16 -30 -31 -55 -57 -66 -67 -75 -77 -84 -85 -101 0
-16 -30 -31 -56 -57 -66 -68 -75 -77 -84 -85 -101 0
-16 -30 -31 -56 -57 -67 -68 -75 -78 -84 -85 -101 0
-15 -29 -30 -55 -56 -66 -67 -76 -77 -84 -86 -101 0
-16 -29 -31 -55 -56 -66 -67 -76 -77 -84 -86 -101 0
-16 -30 -31 -55 -57 -66 -67 -76 -77 -84 -86 -101 0
-16 -30 -31 -56 -57 -66 -68 -76 -77 -84 -86 -101 0
-16 -30 -31 -56 -57 -67 -68 -76 -78 -84 -86 -101 0
-16 -30 -31 -56 -57 -67 -68 -77 -78 -84 -87 -101 0
-15 -29 -30 -55 -56 -66 -67 -76 -77 -85 -86 -102 0
-16 -29 -31 -55 -56 -66 -67 -76 -77 -85 -86 -102 0
-16 -30 -31 -55 -57 -66 -67 -76 -77 -85 -86 -102 0
-16 -30 -31 -56 -57 -66 -68 -76 -77 -85 -86 -102 0
-16 -30 -31 -56 -57 -67 -68 -76 -78 -85 -86 -102 0
-16 -30 -31 -56 -57 -67 -68 -77 -78 -85 -87 -102 0
-16 -30 -31 -56 -57 -67 -68 -77 -78 -86 -87 -103 0
-15 -29 -30 -55 -56 -66 -67 -76 -77 -85 -86 -109 0
-16 -29 -31 -55 -56 -66 -67 -76 -77 -85 -86 -109 0
-16 -30 -31 -55 -57 -66 -67 -76 -77 -85 -86 -109 0
-16 -30 -31 -56 -57 -66 -68 -76 -77 -85 -86 -109 0
-16 -30 -31 -56 -57 -67 -68 -76 -78 -85 -86 -109 0
-16 -30 -31 -56 -57 -67 -68 -77 -78 -85 -87 -109 0
-16 -30 -31 -56 -57 -67 -68 -77 -78 -86 -87 -110 0
-16 -30 -31 -56 -57 -67 -68 -77 -78 -86 -87 -116 0
-14 -28 -29 -54 -55 -65 -66 -75 -76 -93 -94 -101 0
-15 -28 -30 -54 -55 -65 -66 -75 -76 -93 -94 -101 0
-16 -28 -31 -54 -55 -65 -66 -75 -76 -93 -94 -101 0
-15 -29 -30 -54 -56 -65 -66 -75 -76 -93 -94 -101 0
-16 -29 -31 -54 -56 -65 -66 -75 -76 -93 -94 -101 0
-16 -30 -31 -54 -57 -65 -66 -75 -76 -93 -94 -101 0
-15 -29 -30 -55 -56 -65 -67 -75 -76 -93 -94 -101 0
-16 -29 -31 -55 -56 -65 -67 -75 -76 -93 -94 -101 0
-16 -30 -31 -55 -57 -65 -67 -75 -76 -93 -94 -101 0
-16 -30 -31 -56 -57 -65 -68 -75 -76 -93 -94 -101 0
-15 -29 -30 -55 -56 -66 -67 -75 -77 -93 -94 -101 0
-16 -29 -31 -55 -56 -66 -67 -75 -77 -93 -94 -101 0
-16 -30 -31 -55 -57 -66 -67 -75 -77 -93 -94 -101 0
-16 -30 -31 -56 -57 -66 -68 -75 -77 -93 -94 -101 0
-16 -30 -31 -56 -57 -67 -68 -75 -78 -93 -94 -101 0
-15 -29 -30 -55 -56 -66 -67 -76 -77 -93 -95 -101 0
-16 -29 -31 -55 -56 -66 -67 -76 -77 -93 -95 -101 0
-16 -30 -31 -55 -57 -66 -67 -76 -77 -93 -95 -101 0
-16 -30 -31 -56 -57 -66 -68 -76 -77 -93 -95 -101 0
-16 -30 -31 -56 -57 -67 -68 -76 -78 -93 -95 -101 0
-16 -30 -31 -56 -57 -67 -68 -77 -78 -93 -96 -101 0
-15 -29 -30 -55 -56 -66 -67 -76 -77 -94 -95 -102 0
-16 -29 -31 -55 -56 -66 -67 -76 -77 -94 -95 -102 0
-16 -30 -31 -55 -57 -66 -67 -76 -77 -94 -95 -102 0
-16 -30 -31 -56 -57 -66 -68 -76 -77 -94 -95 -102 0
-16 -30 -31 -56 -57 -67 -68 -76 -78 -94 -95 -102 0
-16 -30 -31 -56 -57 -67 -68 -77 -78 -94 -96 -102 0
-16 -30 -31 -56 -57 -67 -68 -77 -78 -95 -96 -103 0
-15 -29 -30 -55 -56 -66 -67 -76 -77 -94 -95 -109 0
-16 -29 -31 -55 -56 -66 -67 -76 -77 -94 -95 -109 0
-16 -30 -31 -55 -57 -66 -67 -76 -77 -94 -95 -109 0
-16 -30 -31 -56 -57 -66 -68 -76 -77 -94 -95 -109 0
-16 -30 -31 -56 -57 -67 -68 -76 -78 -94 -95 -109 0
-16 -30 -31 -56 -57 -67 -68 -77 -78 -94 -96 -109 0
-16 -30 -31 -56 -57 -67 -68 -77 -78 -95 -96 -110 0
-16 -30 -31 -56 -57 -67 -68 -77 -78 -95 -96 -116 0
-15 -29 -30 -55 -56 -66 -67 -76 -77 -102 -103 -109 0
-16 -29 -31 -55 -56 -66 -67 -76 -77 -102 -103 -109 0
-16 -30 -31 -55 -57 -66 -67 -76 -77 -102 -103 -109 0
-16 -30 -31 -56 -57 -66 -68 -76 -77 -102 -103 -109 0
-16 -30 -31 -56 -57 -67 -68 -76 -78 -102 -103 -109 0
-16 -30 -31 -56 -57 -67 -68 -77 -78 -102 -104 -109 0
-16 -30 -31 -56 -57 -67 -68 -77 -78 -103 -104 -110 0
-16 -30 -31 -56 -57 -67 -68 -77 -78 -103 -104 -116 0
-16 -30 -31 -56 -57 -67 -68 -77 -78 -110 -111 -116 0
-14 -28 -29 -54 -55 -65 -66 -85 -86 -93 -94 -101 0
-15 -28 -30 -54 -55 -65 -66 -85 -86 -93 -94 -101 0
-16 -28 -31 -54 -55 -65 -66 -85 -86 -93 -94 -101 0
-15 -29 -30 -54 -56 -65 -66 -85 -86 -93 -94 -101 0
-16 -29 -31 -54 -56 -65 -66 -85 -86 -93 -94 -101 0
-16 -30 -31 -54 -57 -65 -66 -85 -86 -93 -94 -101 0
-15 -29 -30 -55 -56 -65 -67 -85 -86 -93 -94 -101 0
-16 -29 -31 -55 -56 -65 -67 -85 -86 -93 -94 -101 0
-16 -30 -31 -55 -57 -65 -67 -85 -86 -93 -94 -101 0
-16 -30 -31 -56 -57 -65 -68 -85 -86 -93 -94 -101 0
-15 -29 -30 -55 -56 -66 -67 -85 -87 -93 -94 -101 0
-16 -29 -31 -55 -56 -66 -67 -85 -87 -93 -94 -101 0
-16 -30 -31 -55 -57 -66 -67 -85 -87 -93 -94 -101 0
-16 -30 -31 -56 -57 -66 -68 -85 -87 -93 -94 -101 0
-16 -30 -31 -56 -57 -67 -68 -85 -88 -93 -94 -101 0
-15 -29 -30 -55 -56 -66 -67 -86 -87 -93 -95 -101 0
-16 -29 -31 -55 -56 -66 -67 -86 -87 -93 -95 -101 0
-16 -30 -31 -55 -57 -66 -67 -86 -87 -93 -95 -101 0
-16 -30 -31 -56 -57 -66 -68 -86 -87 -93 -95 -101 0
-16 -30 -31 -56 -57 -67 -68 -86 -88 -93 -95 -101 0
-16 -30 -31 -56 -57 -67 -68 -87 -88 -93 -96 -101 0
-15 -29 -30 -55 -56 -66 -67 -86 -87 -94 -95 -102 0
-16 -29 -31 -55 -56 -66 -67 -86 -87 -94 -95 -102 0
-16 -30 -31 -55 -57 -66 -67 -86 -87 -94 -95 -102 0
-16 -30 -31 -56 -57 -66 -68 -86 -87 -94 -95 -102 0
-16 -30 -31 -56 -57 -67 -68 -86 -88 -94 -95 -102 0
-16 -30 -31 -56 -57 -67 -68 -87 -88 -94 -96 -102 0
-16 -30 -31 -56 -57 -67 -68 -87 -88 -95 -96 -103 0
-15 -29 -30 -55 -56 -66 -67 -86 -87 -94 -95 -109 0
-16 -29 -31 -55 -56 -66 -67 -86 -87 -94 -95 -109 0
-16 -30 -31 -55 -57 -66 -67 -86 -87 -94 -95 -109 0
-16 -30 -31 -56 -57 -66 -68 -86 -87 -94 -95 -109 0
-16 -30 -31 -56 -57 -67 -68 -86 -88 -94 -95 -109 0
-16 -30 -31 -56 -57 -67 -68 -87 -88 -94 -96 -109 0
-16 -30 -31 -56 -57 -67 -68 -87 -88 -95 -96 -110 0
-16 -30 -31 -56 -57 -67 -68 -87 -88 -95 -96 -116 0
-15 -29 -30 -55 -56 -66 -67 -86 -87 -102 -103 -109 0
-16 -29 -31 -55 -56 -66 -67 -86 -87 -102 -103 -109 0
-16 -30 -31 -55 -57 -66 -67 -86 -87 -102 -103 -109 0
-16 -30 -31 -56 -57 -66 -68 -86 -87 -102 -103 -109 0
-16 -30 -31 -56 -57 -67 -68 -86 -88 -102 -103 -109 0
-16 -30 -31 -56 -57 -67 -68 -87 -88 -102 -104 -109 0
-16 -30 -31 -56 -57 -67 -68 -87 -88 -103 -104 -110 0
-16 -30 -31 -56 -57 -67 -68 -87 -88 -103 -104 -116 0
-16 -30 -31 -56 -57 -67 -68 -87 -88 -110 -111 -116 0
-15 -29 -30 -55 -56 -66 -67 -95 -96 -102 -103 -109 0
-16 -29 -31 -55 -56 -66 -67 -95 -96 -102 -103 -109 0
-16 -30 -31 -55 -57 -66 -67 -95 -96 -102 -103 -109 0
-16 -30 -31 -56 -57 -66 -68 -95 -96 -102 -103 -109 0
-16 -30 -31 -56 -57 -67 -68 -95 -97 -102 -103 -109 0
-16 -30 -31 -56 -57 -67 -68 -96 -97 -102 -104 -109 0
-16 -30 -31 -56 -57 -67 -68 -96 -97 -103 -104 -110 0
-16 -30 -31 -56 -57 -67 -68 -96 -97 -103 -104 -116 0
-16 -30 -31 -56 -57 -67 -68 -96 -97 -110 -111 -116 0
-16 -30 -31 -56 -57 -67 -68 -104 -105 -110 -111 -116 0
-14 -28 -29 -54 -55 -76 -77 -85 -86 -93 -94 -101 0
-15 -28 -30 -54 -55 -76 -77 -85 -86 -93 -94 -101 0
-16 -28 -31 -54 -55 -76 -77 -85 -86 -93 -94 -101 0
-15 -29 -30 -54 -56 -76 -77 -85 -86 -93 -94 -101 0
-16 -29 -31 -54 -56 -76 -77 -85 -86 -93 -94 -101 0
-16 -30 -31 -54 -57 -76 -77 -85 -86 -93 -94 -101 0
-15 -29 -30 -55 -56 -76 -78 -85 -86 -93 -94 -101 0
-16 -29 -31 -55 -56 -76 -78 -85 -86 -93 -94 -101 0
-16 -30 -31 -55 -57 -76 -78 -85 -86 -93 -94 -101 0
-16 -30 -31 -56 -57 -76 -79 -85 -86 -93 -94 -101 0
-15 -29 -30 -55 -56 -77 -78 -85 -87 -93 -94 -101 0
-16 -29 -31 -55 -56 -77 -78 -85 -87 -93 -94 -101 0
-16 -30 -31 -55 -57 -77 -78 -85 -87 -93 -94 -101 0
-16 -30 -31 -56 -57 -77 -79 -85 -87 -93 -94 -101 0
-16 -30 -31 -56 -57 -78 -79 -85 -88 -93 -94 -101 0
-15 -29 -30 -55 -56 -77 -78 -86 -87 -93 -95 -101 0
-16 -29 -31 -55 -56 -77 -78 -86 -87 -93 -95 -101 0
-16 -30 -31 -55 -57 -77 -78 -86 -87 -93 -95 -101 0
-16 -30 -31 -56 -57 -77 -79 -86 -87 -93 -95 -101 0
-16 -30 -31 -56 -57 -78 -79 -86 -88 -93 -95 -101 0
-16 -30 -31 -56 -57 -78 -79 -87 -88 -93 -96 -101 0
-15 -29 -30 -55 -56 -77 -78 -86 -87 -94 -95 -102 0
-16 -29 -31 -55 -56 -77 -78 -86 -87 -94 -95 -102 0
-16 -30 -31 -55 -57 -77 -78 -86 -87 -94 -95 -102 0
-16 -30 -31 -56 -57 -77 -79 -86 -87 -94 -95 -102 0
-16 -30 -31 -56 -57 -78 -79 -86 -88 -94 -95 -102 0
-16 -30 -31 -56 -57 -78 -79 -87 -88 -94 -96 -102 0
-16 -30 -31 -56 -57 -78 -79 -87 -88 -95 -96 -103 0
-15 -29 -30 -55 -56 -77 -78 -86 -87 -94 -95 -109 0
-16 -29 -31 -55 -56 -77 -78 -86 -87 -94 -95 -109 0
-16 -30 -31 -55 -57 -77 -78 -86 -87 -94 -95 -109 0
-16 -30 -31 -56 -57 -77 -79 -86 -87 -94 -95 -109 0
-16 -30 -31 -56 -57 -78 -79 -86 -88 -94 -95 -109 0
-16 -30 -31 -56 -57 -78 -79 -87 -88 -94 -96 -109 0
-16 -30 -31 -56 -57 -78 -79 -87 -88 -95 -96 -110 0
-16 -30 -31 -56 -57 -78 -79 -87 -88 -95 -96 -116 0
-15 -29 -30 -55 -56 -77 -78 -86 -87 -102 -103 -109 0
-16 -29 -31 -55 -56 -77 -78 -86 -87 -102 -103 -109 0
-16 -30 -31 -55 -57 -77 -78 -86 -87 -102 -103 -109 0
-16 -30 -31 -56 -57 -77 -79 -86 -87 -102 -103 -109 0
-16 -30 -31 -56 -57 -78 -79 -86 -88 -102 -103 -109 0
-16 -30 -31 -56 -57 -78 -79 -87 -88 -102 -104 -109 0
-16 -30 -31 -56 -57 -78 -79 -87 -88 -103 -104 -110 0
-16 -30 -31 -56 -57 -78 -79 -87 -88 -103 -104 -116 0
-16 -30 -31 -56 -57 -78 -79 -87 -88 -110 -111 -116 0
-15 -29 -30 -55 -56 -77 -78 -95 -96 -102 -103 -109 0
-16 -29 -31 -55 -56 -77 -78 -95 -96 -102 -103 -109 0
-16 -30 -31 -55 -57 -77 -78 -95 -96 -102 -103 -109 0
-16 -30 -31 -56 -57 -77 -79 -95 -96 -102 -103 -109 0
-16 -30 -31 -56 -57 -78 -79 -95 -97 -102 -103 -109 0
-16 -30 -31 -56 -57 -78 -79 -96 -97 -102 -104 -109 0
-16 -30 -31 -56 -57 -78 -79 -96 -97 -103 -104 -110 0
-16 -30 -31 -56 -57 -78 -79 -96 -97 -103 -104 -116 0
-16 -30 -31 -56 -57 -78 -79 -96 -97 -110 -111 -116 0
-16 -30 -31 -56 -57 -78 -79 -104 -105 -110 -111 -116 0
-15 -29 -30 -55 -56 -87 -88 -95 -96 -102 -103 -109 0
-16 -29 -31 -55 -56 -87 -88 -95 -96 -102 -103 -109 0
-16 -30 -31 -55 -57 -87 -88 -95 -96 -102 -103 -109 0
-16 -30 -31 -56 -57 -87 -89 -95 -96 -102 -103 -109 0
-16 -30 -31 -56 -57 -88 -89 -95 -97 -102 -103 -109 0
-16 -30 -31 -56 -57 -88 -89 -96 -97 -102 -104 -109 0
-16 -30 -31 -56 -57 -88 -89 -96 -97 -103 -104 -110 0
-16 -30 -31 -56 -57 -88 -89 -96 -97 -103 -104 -116 0
-16 -30 -31 -56 -57 -88 -89 -96 -97 -110 -111 -116 0
-16 -30 -31 -56 -57 -88 -89 -104 -105 -110 -111 -116 0
-16 -30 -31 -56 -57 -97 -98 -104 -105 -110 -111 -116 0
-14 -28 -29 -66 -67 -76 -77 -85 -86 -93 -94 -101 0
-15 -28 -30 -66 -67 -76 -77 -85 -86 -93 -94 -101 0
-16 -28 -31 -66 -67 -76 -77 -85 -86 -93 -94 -101 0
-15 -29 -30 -66 -68 -76 -77 -85 -86 -93 -94 -101 0
-16 -29 -31 -66 -68 -76 -77 -85 -86 -93 -94 -101 0
-16 -30 -31 -66 -69 -76 -77 -85 -86 -93 -94 -101 0
-15 -29 -30 -67 -68 -76 -78 -85 -86 -93 -94 -101 0
-16 -29 -31 -67 -68 -76 -78 -85 -86 -93 -94 -101 0
-16 -30 -31 -67 -69 -76 -78 -85 -86 -93 -94 -101 0
-16 -30 -31 -68 -69 -76 -79 -85 -86 -93 -94 -101 0
-15 -29 -30 -67 -68 -77 -78 -85 -87 -93 -94 -101 0
-16 -29 -31 -67 -68 -77 -78 -85 -87 -93 -94 -101 0
-16 -30 -31 -67 -69 -77 -78 -85 -87 -93 -94 -101 0
-16 -30 -31 -68 -69 -77 -79 -85 -87 -93 -94 -101 0
-16 -30 -31 -68 -69 -78 -79 -85 -88 -93 -94 -101 0
-15 -29 -30 -67 -68 -77 -78 -86 -87 -93 -95 -101 0
-16 -29 -31 -67 -68 -77 -78 -86 -87 -93 -95 -101 0
-16 -30 -31 -67 -69 -77 -78 -86 -87 -93 -95 -101 0
-16 -30 -31 -68 -69 -77 -79 -86 -87 -93 -95 -101 0
-16 -30 -31 -68 -69 -78 -79 -86 -88 -93 -95 -101 0
-16 -30 -31 -68 -69 -78 -79 -87 -88 -93 -96 -101 0
-15 -29 -30 -67 -68 -77 -78 -86 -87 -94 -95 -102 0
-16 -29 -31 -67 -68 -77 -78 -86 -87 -94 -95 -102 0
-16 -30 -31 -67 -69 -77 -78 -86 -87 -94 -95 -102 0
-16 -30 -31 -68 -69 -77 -79 -86 -87 -94 -95 -102 0
-16 -30 -31 -68 -69 -78 -79 -86 -88 -94 -95 -102 0
-16 -30 -31 -68 -69 -78 -79 -87 -88 -94 -96 -102 0
-16 -30 -31 -68 -69 -78 -79 -87 -88 -95 -96 -103 0
-15 -29 -30 -67 -68 -77 -78 -86 -87 -94 -95 -109 0
-16 -29 -31 -67 -68 -77 -78 -86 -87 -94 -95 -109 0
-16 -30 -31 -67 -69 -77 -78 -86 -87 -94 -95 -109 0
-16 -30 -31 -68 -69 -77 -79 -86 -87 -94 -95 -109 0
-16 -30 -31 -68 -69 -78 -79 -86 -88 -94 -95 -109 0
-16 -30 -31 -68 -69 -78 -79 -87 -88 -94 -96 -109 0
-16 -30 -31 -68 -69 -78 -79 -87 -88 -95 -96 -110 0
-16 -30 -31 -68 -69 -78 -79 -87 -88 -95 -96 -116 0
-15 -29 -30 -67 -68 -77 -78 -86 -87 -102 -103 -109 0
-16 -29 -31 -67 -68 -77 -78 -86 -87 -102 -103 -109 0
-16 -30 -31 -67 -69 -77 -78 -86 -87 -102 -103 -109 0
-16 -30 -31 -68 -69 -77 -79 -86 -87 -102 -103 -109 0
-16 -30 -31 -68 -69 -78 -79 -86 -88 -102 -103 -109 0
-16 -30 -31 -68 -69 -78 -79 -87 -88 -102 -104 -109 0
-16 -30 -31 -68 -69 -78 -79 -87 -88 -103 -104 -110 0
-16 -30 -31 -68 -69 -78 -79 -87 -88 -103 -104 -116 0
-16 -30 -31 -68 -69 -78 -79 -87 -88 -110 -111 -116 0
-15 -29 -30 -67 -68 -77 -78 -95 -96 -102 -103 -109 0
-16 -29 -31 -67 -68 -77 -78 -95 -96 -102 -103 -109 0
-16 -30 -31 -67 -69 -77 -78 -95 -96 -102 -103 -109 0
-16 -30 -31 -68 -69 -77 -79 -95 -96 -102 -103 -109 0
-16 -30 -31 -68 -69 -78 -79 -95 -97 -102 -103 -109 0
-16 -30 -31 -68 -69 -78 -79 -96 -97 -102 -104 -109 0
-16 -30 -31 -68 -69 -78 -79 -96 -97 -103 -104 -110 0
-16 -30 -31 -68 -69 -78 -79 -96 -97 -103 -104 -116 0
-16 -30 -31 -68 -69 -78 -79 -96 -97 -110 -111 -116 0
-16 -30 -31 -68 -69 -78 -79 -104 -105 -110 -111 -116 0
-15 -29 -30 -67 -68 -87 -88 -95 -96 -102 -103 -109 0
-16 -29 -31 -67 -68 -87 -88 -95 -96 -102 -103 -109 0
-16 -30 -31 -67 -69 -87 -88 -95 -96 -102 -103 -109 0
-16 -30 -31 -68 -69 -87 -89 -95 -96 -102 -103 -109 0
-16 -30 -31 -68 -69 -88 -89 -95 -97 -102 -103 -109 0
-16 -30 -31 -68 -69 -88 -89 -96 -97 -102 -104 -109 0
-16 -30 -31 -68 -69 -88 -89 -96 -97 -103 -104 -110 0
-16 -30 -31 -68 -69 -88 -89 -96 -97 -103 -104 -116 0
-16 -30 -31 -68 -69 -88 -89 -96 -97 -110 -111 -116 0
-16 -30 -31 -68 -69 -88 -89 -104 -105 -110 -111 -116 0
-16 -30 -31 -68 -69 -97 -98 -104 -105 -110 -111 -116 0
-15 -29 -30 -78 -79 -87 -88 -95 -96 -102 -103 -109 0
-16 -29 -31 -78 -79 -87 -88 -95 -96 -102 -103 -109 0
-16 -30 -31 -78 -80 -87 -88 -95 -96 -102 -103 -109 0
-16 -30 -31 -79 -80 -87 -89 -95 -96 -102 -103 -109 0
-16 -30 -31 -79 -80 -88 -89 -95 -97 -102 -103 -109 0
-16 -30 -31 -79 -80 -88 -89 -96 -97 -102 -104 -109 0
-16 -30 -31 -79 -80 -88 -89 -96 -97 -103 -104 -110 0
-16 -30 -31 -79 -80 -88 -89 -96 -97 -103 -104 -116 0
-16 -30 -31 -79 -80 -88 -89 -96 -97 -110 -111 -116 0
-16 -30 -31 -79 -80 -88 -89 -104 -105 -110 -111 -116 0
-16 -30 -31 -79 -80 -97 -98 -104 -105 -110 -111 -116 0
-16 -30 -31 -89 -90 -97 -98 -104 -105 -110 -111 -116 0
-13 -41 -42 -53 -54 -64 -65 -74 -75 -83 -84 -92 0
-14 -41 -43 -53 -54 -64 -65 -74 -75 -83 -84 -92 0
-15 -41 -44 -53 -54 -64 -65 -74 -75 -83 -84 -92 0
-16 -41 -45 -53 -54 -64 -65 -74 -75 -83 -84 -92 0
-14 -42 -43 -53 -55 -64 -65 -74 -75 -83 -84 -92 0
-15 -42 -44 -53 -55 -64 -65 -74 -75 -83 -84 -92 0
-16 -42 -45 -53 -55 -64 -65 -74 -75 -83 -84 -92 0
-15 -43 -44 -53 -56 -64 -65 -74 -75 -83 -84 -92 0
-16 -43 -45 -53 -56 -64 -65 -74 -75 -83 -84 -92 0
-16 -44 -45 -53 -57 -64 -65 -74 -75 -83 -84 -92 0
-14 -42 -43 -54 -55 -64 -66 -74 -75 -83 -84 -92 0
-15 -42 -44 -54 -55 -64 -66 -74 -75 -83 -84 -92 0
-16 -42 -45 -54 -55 -64 -66 -74 -75 -83 -84 -92 0
-15 -43 -44 -54 -56 -64 -66 -74 -75 -83 -84 -92 0
-16 -43 -45 -54 -56 -64 -66 -74 -75 -83 -84 -92 0
-16 -44 -45 -54 -57 -64 -66 -74 -75 -83 -84 -92 0
-15 -43 -44 -55 -56 -64 -67 -74 -75 -83 -84 -92 0
-16 -43 -45 -55 -56 -64 -67 -74 -75 -83 -84 -92 0
-16 -44 -45 -55 -57 -64 -67 -74 -75 -83 -84 -92 0
-16 -44 -45 -56 -57 -64 -68 -74 -75 -83 -84 -92 0
-14 -42 -43 -54 -55 -65 -66 -74 -76 -83 -84 -92 0
-15 -42 -44 -54 -55 -65 -66 -74 -76 -83 -84 -92 0
-16 -42 -45 -54 -55 -65 -66 -74 -76 -83 -84 -92 0
-15 -43 -44 -54 -56 -65 -66 -74 -76 -83 -84 -92 0
-16 -43 -45 -54 -56 -65 -66 -74 -76 -83 -84 -92 0
-16 -44 -45 -54 -57 -65 -66 -74 -76 -83 -84 -92 0
-15 -43 -44 -55 -56 -65 -67 -74 -76 -83 -84 -92 0
-16 -43 -45 -55 -56 -65 -67 -74 -76 -83 -84 -92 0
-16 -44 -45 -55 -57 -65 -67 -74 -76 -83 -84 -92 0
-16 -44 -45 -56 -57 -65 -68 -74 -76 -83 -84 -92 0
-15 -43 -44 -55 -56 -66 -67 -74 -77 -83 -84 -92 0
-16 -43 -45 -55 -56 -66 -67 -74 -77 -83 -84 -92 0
-16 -44 -45 -55 -57 -66 -67 -74 -77 -83 -84 -92 0
-16 -44 -45 -56 -57 -66 -68 -74 -77 -83 -84 -92 0
-16 -44 -45 -56 -57 -67 -68 -74 -78 -83 -84 -92 0
-14 -42 -43 -54 -55 -65 -66 -75 -76 -83 -85 -92 0
-15 -42 -44 -54 -55 -65 -66 -75 -76 -83 -85 -92 0
-16 -42 -45 -54 -55 -65 -66 -75 -76 -83 -85 -92 0
-15 -43 -44 -54 -56 -65 -66 -75 -76 -83 -85 -92 0
-16 -43 -45 -54 -56 -65 -66 -75 -76 -83 -85 -92 0
-16 -44 -45 -54 -57 -65 -66 -75 -76 -83 -85 -92 0
-15 -43 -44 -55 -56 -65 -67 -75 -76 -83 -85 -92 0
-16 -43 -45 -55 -56 -65 -67 -75 -76 -83 -85 -92 0
-16 -44 -45 -55 -57 -65 -67 -75 -76 -83 -85 -92 0
-16 -44 -45 -56 -57 -65 -68 -75 -76 -83 -85 -92 0
-15 -43 -44 -55 -56 -66 -67 -75 -77 -83 -85 -92 0
-16 -43 -45 -55 -56 -66 -67 -75 -77 -83 -85 -92 0
-16 -44 -45 -55 -57 -66 -67 -75 -77 -83 -85 -92 0
-16 -44 -45 -56 -57 -66 -68 -75 -77 -83 -85 -92 0
-16 -44 -45 -56 -57 -67 -68 -75 -78 -83 -85 -92 0
-15 -43 -44 -55 -56 -66 -67 -76 -77 -83 -86 -92 0
-16 -43 -45 -55 -56 -66 -67 -76 -77 -83 -86 -92 0
-16 -44 -45 -55 -57 -66 -67 -76 -77 -83 -86 -92 0
-16 -44 -45 -56 -57 -66 -68 -76 -77 -83 -86 -92 0
-16 -44 -45 -56 -57 -67 -68 -76 -78 -83 -86 -92 0
-16 -44 -45 -56 -57 -67 -68 -77 -78 -83 -87 -92 0
-14 -42 -43 -54 -55 -65 -66 -75 -76 -84 -85 -93 0
-15 -42 -44 -54 -55 -65 -66 -75 -76 -84 -85 -93 0
-16 -42 -45 -54 -55 -65 -66 -75 -76 -84 -85 -93 0
-15 -43 -44 -54 -56 -65 -66 -75 -76 -84 -85 -93 0
-16 -43 -45 -54 -56 -65 -66 -75 -76 -84 -85 -93 0
-16 -44 -45 -54 -57 -65 -66 -75 -76 -84 -85 -93 0
-15 -43 -44 -55 -56 -65 -67 -75 -76 -84 -85 -93 0
-16 -43 -45 -55 -56 -65 -67 -75 -76 -84 -85 -93 0
-16 -44 -45 -55 -57 -65 -67 -75 -76 -84 -85 -93 0
-16 -44 -45 -56 -57 -65 -68 -75 -76 -84 -85 -93 0
-15 -43 -44 -55 -56 -66 -67 -75 -77 -84 -85 -93 0
-16 -43 -45 -55 -56 -66 -67 -75 -77 -84 -85 -93 0
-16 -44 -45 -55 -57 -66 -67 -75 -77 -84 -85 -93 0
-16 -44 -45 -56 -57 -66 -68 -75 -77 -84 -85 -93 0
-16 -44 -45 -56 -57 -67 -68 -75 -78 -84 -85 -93 0
-15 -43 -44 -55 -56 -66 -67 -76 -77 -84 -86 -93 0
-16 -43 -45 -55 -56 -66 -67 -76 -77 -84 -86 -93 0
-16 -44 -45 -55 -57 -66 -67 -76 -77 -84 -86 -93 0
-16 -44 -45 -56 -57 -66 -68 -76 -77 -84 -86 -93 0
-16 -44 -45 -56 -57 -67 -68 -76 -78 -84 -86 -93 0
-16 -44 -45 -56 -57 -67 -68 -77 -78 -84 -87 -93 0
-15 -43 -44 -55 -56 -66 -67 -76 -77 -85 -86 -94 0
-16 -43 -45 -55 -56 -66 -67 -76 -77 -85 -86 -94 0
-16 -44 -45 -55 -57 -66 -67 -76 -77 -85 -86 -94 0
-16 -44 -45 -56 -57 -66 -68 -76 -77 -85 -86 -94 0
-16 -44 -45 -56 -57 -67 -68 -76 -78 -85 -86 -94 0
-16 -44 -45 -56 -57 -67 -68 -77 -78 -85 -87 -94 0
-16 -44 -45 -56 -57 -67 -68 -77 -78 -86 -87 -95 0
-14 -42 -43 -54 -55 -65 -66 -75 -76 -84 -85 -101 0
-15 -42 -44 -54 -55 -65 -66 -75 -76 -84 -85 -101 0
-16 -42 -45 -54 -55 -65 -66 -75 -76 -84 -85 -101 0
-15 -43 -44 -54 -56 -65 -66 -75 -76 -84 -85 -101 0
-16 -43 -45 -54 -56 -65 -66 -75 -76 -84 -85 -101 0
-16 -44 -45 -54 -57 -65 -66 -75 -76 -84 -85 -101 0
-15 -43 -44 -55 -56 -65 -67 -75 -76 -84 -85 -101 0
-16 -43 -45 -55 -56 -65 -67 -75 -76 -84 -85 -101 0
-16 -44 -45 -55 -57 -65 -67 -75 -76 -84 -85 -101 0
-16 -44 -45 -56 -57 -65 -68 -75 -76 -84 -85 -101 0
-15 -43 -44 -55 -56 -66 -67 -75 -77 -84 -85 -101 0
-16 -43 -45 -55 -56 -66 -67 -75 -77 -84 -85 -101 0
-16 -44 -45 -55 -57 -66 -67 -75 -77 -84 -85 -101 0
-16 -44 -45 -56 -57 -66 -68 -75 -77 -84 -85 -101 0
-16 -44 -45 -56 -57 -67 -68 -75 -78 -84 -85 -101 0
-15 -43 -44 -55 -56 -66 -67 -76 -77 -84 -86 -101 0
-16 -43 -45 -55 -56 -66 -67 -76 -77 -84 -86 -101 0
-16 -44 -45 -55 -57 -66 -67 -76 -77 -84 -86 -101 0
-16 -44 -45 -56 -57 -66 -68 -76 -77 -84 -86 -101 0
-16 -44 -45 -56 -57 -67 -68 -76 -78 -84 -86 -101 0
-16 -44 -45 -56 -57 -67 -68 -77 -78 -84 -87 -101 0
-15 -43 -44 -55 -56 -66 -67 -76 -77 -85 -86 -102 0
-16 -43 -45 -55 -56 -66 -67 -76 -77 -85 -86 -102 0
-16 -44 -45 -55 -57 -66 -67 -76 -77 -85 -86 -102 0
-16 -44 -45 -56 -57 -66 -68 -76 -77 -85 -86 -102 0
-16 -44 -45 -56 -57 -67 -68 -76 -78 -85 -86 -102 0
-16 -44 -45 -56 -57 -67 -68 -77 -78 -85 -87 -102 0
-16 -44 -45 -56 -57 -67 -68 -77 -78 -86 -87 -103 0
-15 -43 -44 -55 -56 -66 -67 -76 -77 -85 -86 -109 0
-16 -43 -45 -55 -56 -66 -67 -76 -77 -85 -86 -109 0
-16 -44 -45 -55 -57 -66 -67 -76 -77 -85 -86 -109 0
-16 -44 -45 -56 -57 -66 -68 -76 -77 -85 -86 -109 0
-16 -44 -45 -56 -57 -67 -68 -76 -78 -85 -86 -109 0
-16 -44 -45 -56 -57 -67 -68 -77 -78 -85 -87 -109 0
-16 -44 -45 -56 -57 -67 -68 -77 -78 -86 -87 -110 0
-16 -44 -45 -56 -57 -67 -68 -77 -78 -86 -87 -116 0
-14 -42 -43 -54 -55 -65 -66 -75 -76 -93 -94 -101 0
-15 -42 -44 -54 -55 -65 -66 -75 -76 -93 -94 -101 0
-16 -42 -45 -54 -55 -65 -66 -75 -76 -93 -94 -101 0
-15 -43 -44 -54 -56 -65 -66 -75 -76 -93 -94 -101 0
-16 -43 -45 -54 -56 -65 -66 -75 -76 -93 -94 -101 0
-16 -44 -45 -54 -57 -65 -66 -75 -76 -93 -94 -101 0
-15 -43 -44 -55 -56 -65 -67 -75 -76 -93 -94 -101 0
-16 -43 -45 -55 -56 -65 -67 -75 -76 -93 -94 -101 0
-16 -44 -45 -55 -57 -65 -67 -75 -76 -93 -94 -101 0
-16 -44 -45 -56 -57 -65 -68 -75 -76 -93 -94 -101 0
-15 -43 -44 -55 -56 -66 -67 -75 -77 -93 -94 -101 0
-16 -43 -45 -55 -56 -66 -67 -75 -77 -93 -94 -101 0
-16 -44 -45 -55 -57 -66 -67 -75 -77 -93 -94 -101 0
-16 -44 -45 -56 -57 -66 -68 -75 -77 -93 -94 -101 0
-16 -44 -45 -56 -57 -67 -68 -75 -78 -93 -94 -101 0
-15 -43 -44 -55 -56 -66 -67 -76 -77 -93 -95 -101 0
-16 -43 -45 -55 -56 -66 -67 -76 -77 -93 -95 -101 0
-16 -44 -45 -55 -57 -66 -67 -76 -77 -93 -95 -101 0
-16 -44 -45 -56 -57 -66 -68 -76 -77 -93 -95 -101 0
-16 -44 -45 -56 -57 -67 -68 -76 -78 -93 -95 -101 0
-16 -44 -45 -56 -57 -67 -68 -77 -78 -93 -96 -101 0
-15 -43 -44 -55 -56 -66 -67 -76 -77 -94 -95 -102 0
-16 -43 -45 -55 -56 -66 -67 -76 -77 -94 -95 -102 0
-16 -44 -45 -55 -57 -66 -67 -76 -77 -94 -95 -102 0
-16 -44 -45 -56 -57 -66 -68 -76 -77 -94 -95 -102 0
-16 -44 -45 -56 -57 -67 -68 -76 -78 -94 -95 -102 0
-16 -44 -45 -56 -57 -67 -68 -77 -78 -94 -96 -102 0
-16 -44 -45 -56 -57 -67 -68 -77 -78 -95 -96 -103 0
-15 -43 -44 -55 -56 -66 -67 -76 -77 -94 -95 -109 0
-16 -43 -45 -55 -56 -66 -67 -76 -77 -94 -95 -109 0
-16 -44 -45 -55 -57 -66 -67 -76 -77 -94 -95 -109 0
-16 -44 -45 -56 -57 -66 -68 -76 -77 -94 -95 -109 0
-16 -44 -45 -56 -57 -67 -68 -76 -78 -94 -95 -109 0
-16 -44 -45 -56 -57 -67 -68 -77 -78 -94 -96 -109 0
-16 -44 -45 -56 -57 -67 -68 -77 -78 -95 -96 -110 0
-16 -44 -45 -56 -57 -67 -68 -77 -78 -95 -96 -116 0
-15 -43 -44 -55 -56 -66 -67 -76 -77 -102 -103 -109 0
-16 -43 -45 -55 -56 -66 -67 -76 -77 -102 -103 -109 0
-16 -44 -45 -55 -57 -66 -67 -76 -77 -102 -103 -109 0
-16 -44 -45 -56 -57 -66 -68 -76 -77 -102 -103 -109 0
-16 -44 -45 -56 -57 -67 -68 -76 -78 -102 -103 -109 0
-16 -44 -45 -56 -57 -67 -68 -77 -78 -102 -104 -109 0
-16 -44 -45 -56 -57 -67 -68 -77 -78 -103 -104 -110 0
-16 -44 -45 -56 -57 -67 -68 -77 -78 -103 -104 -116 0
-16 -44 -45 -56 -57 -67 -68 -77 -78 -110 -111 -116 0
-14 -42 -43 -54 -55 -65 -66 -85 -86 -93 -94 -101 0
-15 -42 -44 -54 -55 -65 -66 -85 -86 -93 -94 -101 0
-16 -42 -45 -54 -55 -65 -66 -85 -86 -93 -94 -101 0
-15 -43 -44 -54 -56 -65 -66 -85 -86 -93 -94 -101 0
-16 -43 -45 -54 -56 -65 -66 -85 -86 -93 -94 -101 0
-16 -44 -45 -54 -57 -65 -66 -85 -86 -93 -94 -101 0
-15 -43 -44 -55 -56 -65 -67 -85 -86 -93 -94 -101 0
-16 -43 -45 -55 -56 -65 -67 -85 -86 -93 -94 -101 0
-16 -44 -45 -55 -57 -65 -67 -85 -86 -93 -94 -101 0
-16 -44 -45 -56 -57 -65 -68 -85 -86 -93 -94 -101 0
-15 -43 -44 -55 -56 -66 -67 -85 -87 -93 -94 -101 0
-16 -43 -45 -55 -56 -66 -67 -85 -87 -93 -94 -101 0
-16 -44 -45 -55 -57 -66 -67 -85 -87 -93 -94 -101 0
-16 -44 -45 -56 -57 -66 -68 -85 -87 -93 -94 -101 0
-16 -44 -45 -56 -57 -67 -68 -85 -88 -93 -94 -101 0
-15 -43 -44 -55 -56 -66 -67 -86 -87 -93 -95 -101 0
-16 -43 -45 -55 -56 -66 -67 -86 -87 -93 -95 -101 0
-16 -44 -45 -55 -57 -66 -67 -86 -87 -93 -95 -101 0
-16 -44 -45 -56 -57 -66 -68 -86 -87 -93 -95 -101 0
-16 -44 -45 -56 -57 -67 -68 -86 -88 -93 -95 -101 0
-16 -44 -45 -56 -57 -67 -68 -87 -88 -93 -96 -101 0
-15 -43 -44 -55 -56 -66 -67 -86 -87 -94 -95 -102 0
-16 -43 -45 -55 -56 -66 -67 -86 -87 -94 -95 -102 0
-16 -44 -45 -55 -57 -66 -67 -86 -87 -94 -95 -102 0
-16 -44 -45 -56 -57 -66 -68 -86 -87 -94 -95 -102 0
-16 -44 -45 -56 -57 -67 -68 -86 -88 -94 -95 -102 0
-16 -44 -45 -56 -57 -67 -68 -87 -88 -94 -96 -102 0
-16 -44 -45 -56 -57 -67 -68 -87 -88 -95 -96 -103 0
-15 -43 -44 -55 -56 -66 -67 -86 -87 -94 -95 -109 0
-16 -43 -45 -55 -56 -66 -67 -86 -87 -94 -95 -109 0
-16 -44 -45 -55 -57 -66 -67 -86 -87 -94 -95 -109 0
-16 -44 -45 -56 -57 -66 -68 -86 -87 -94 -95 -109 0
-16 -44 -45 -56 -57 -67 -68 -86 -88 -94 -95 -109 0
-16 -44 -45 -56 -57 -67 -68 -87 -88 -94 -96 -109 0
-16 -44 -45 -56 -57 -67 -68 -87 -88 -95 -96 -110 0
-16 -44 -45 -56 -57 -67 -68 -87 -88 -95 -96 -116 0
-15 -43 -44 -55 -56 -66 -67 -86 -87 -102 -103 -109 0
-16 -43 -45 -55 -56 -66 -67 -86 -87 -102 -103 -109 0
-16 -44 -45 -55 -57 -66 -67 -86 -87 -102 -103 -109 0
-16 -44 -45 -56 -57 -66 -68 -86 -87 -102 -103 -109 0
-16 -44 -45 -56 -57 -67 -68 -86 -88 -102 -103 -109 0
-16 -44 -45 -56 -57 -67 -68 -87 -88 -102 -104 -109 0
-16 -44 -45 -56 -57 -67 -68 -87 -88 -103 -104 -110 0
-16 -44 -45 -56 -57 -67 -68 -87 -88 -103 -104 -116 0
-16 -44 -45 -56 -57 -67 -68 -87 -88 -110 -111 -116 0
-15 -43 -44 -55 -56 -66 -67 -95 -96 -102 -103 -109 0
-16 -43 -45 -55 -56 -66 -67 -95 -96 -102 -103 -109 0
-16 -44 -45 -55 -57 -66 -67 -95 -96 -102 -103 -109 0
-16 -44 -45 -56 -57 -66 -68 -95 -96 -102 -103 -109 0
-16 -44 -45 -56 -57 -67 -68 -95 -97 -102 -103 -109 0
-16 -44 -45 -56 -57 -67 -68 -96 -97 -102 -104 -109 0
-16 -44 -45 -56 -57 -67 -68 -96 -97 -103 -104 -110 0
-16 -44 -45 -56 -57 -67 -68 -96 -97 -103 -104 -116 0
-16 -44 -45 -56 -57 -67 -68 -96 -97 -110 -111 -116 0
-16 -44 -45 -56 -57 -67 -68 -104 -105 -110 -111 -116 0
-14 -42 -43 -54 -55 -76 -77 -85 -86 -93 -94 -101 0
-15 -42 -44 -54 -55 -76 -77 -85 -86 -93 -94 -101 0
-16 -42 -45 -54 -55 -76 -77 -85 -86 -93 -94 -101 0
-15 -43 -44 -54 -56 -76 -77 -85 -86 -93 -94 -101 0
-16 -43 -45 -54 -56 -76 -77 -85 -86 -93 -94 -101 0
-16 -44 -45 -54 -57 -76 -77 -85 -86 -93 -94 -101 0
-15 -43 -44 -55 -56 -76 -78 -85 -86 -93 -94 -101 0
-16 -43 -45 -55 -56 -76 -78 -85 -86 -93 -94 -101 0
-16 -44 -45 -55 -57 -76 -78 -85 -86 -93 -94 -101 0
-16 -44 -45 -56 -57 -76 -79 -85 -86 -93 -94 -101 0
-15 -43 -44 -55 -56 -77 -78 -85 -87 -93 -94 -101 0
-16 -43 -45 -55 -56 -77 -78 -85 -87 -93 -94 -101 0
-16 -44 -45 -55 -57 -77 -78 -85 -87 -93 -94 -101 0
-16 -44 -45 -56 -57 -77 -79 -85 -87 -93 -94 -101 0
-16 -44 -45 -56 -57 -78 -79 -85 -88 -93 -94 -101 0
-15 -43 -44 -55 -56 -77 -78 -86 -87 -93 -95 -101 0
-16 -43 -45 -55 -56 -77 -78 -86 -87 -93 -95 -101 0
-16 -44 -45 -55 -57 -77 -78 -86 -87 -93 -95 -101 0
-16 -44 -45 -56 -57 -77 -79 -86 -87 -93 -95 -101 0
-16 -44 -45 -56 -57 -78 -79 -86 -88 -93 -95 -101 0
-16 -44 -45 -56 -57 -78 -79 -87 -88 -93 -96 -101 0
-15 -43 -44 -55 -56 -77 -78 -86 -87 -94 -95 -102 0
-16 -43 -45 -55 -56 -77 -78 -86 -87 -94 -95 -102 0
-16 -44 -45 -55 -57 -77 -78 -86 -87 -94 -95 -102 0
-16 -44 -45 -56 -57 -77 -79 -86 -87 -94 -95 -102 0
-16 -44 -45 -56 -57 -78 -79 -86 -88 -94 -95 -102 0
-16 -44 -45 -56 -57 -78 -79 -87 -88 -94 -96 -102 0
-16 -44 -45 -56 -57 -78 -79 -87 -88 -95 -96 -103 0
-15 -43 -44 -55 -56 -77 -78 -86 -87 -94 -95 -109 0
-16 -43 -45 -55 -56 -77 -78 -86 -87 -94 -95 -109 0
-16 -44 -45 -55 -57 -77 -78 -86 -87 -94 -95 -109 0
-16 -44 -45 -56 -57 -77 -79 -86 -87 -94 -95 -109 0
-16 -44 -45 -56 -57 -78 -79 -86 -88 -94 -95 -109 0
-16 -44 -45 -56 -57 -78 -79 -87 -88 -94 -96 -109 0
-16 -44 -45 -56 -57 -78 -79 -87 -88 -95 -96 -110 0
-16 -44 -45 -56 -57 -78 -79 -87 -88 -95 -96 -116 0
-15 -43 -44 -55 -56 -77 -78 -86 -87 -102 -103 -109 0
-16 -43 -45 -55 -56 -77 -78 -86 -87 -102 -103 -109 0
-16 -44 -45 -55 -57 -77 -78 -86 -87 -102 -103 -109 0
-16 -44 -45 -56 -57 -77 -79 -86 -87 -102 -103 -109 0
-16 -44 -45 -56 -57 -78 -79 -86 -88 -102 -103 -109 0
-16 -44 -45 -56 -57 -78 -79 -87 -88 -102 -104 -109 0
-16 -44 -45 -56 -57 -78 -79 -87 -88 -103 -104 -110 0
-16 -44 -45 -56 -57 -78 -79 -87 -88 -103 -104 -116 0
-16 -44 -45 -56 -57 -78 -79 -87 -88 -110 -111 -116 0
-15 -43 -44 -55 -56 -77 -78 -95 -96 -102 -103 -109 0
-16 -43 -45 -55 -56 -77 -78 -95 -96 -102 -103 -109 0
-16 -44 -45 -55 -57 -77 -78 -95 -96 -102 -103 -109 0
-16 -44 -45 -56 -57 -77 -79 -95 -96 -102 -103 -109 0
-16 -44 -45 -56 -57 -78 -79 -95 -97 -102 -103 -109 0
-16 -44 -45 -56 -57 -78 -79 -96 -97 -102 -104 -109 0
-16 -44 -45 -56 -57 -78 -79 -96 -97 -103 -104 -110 0
-16 -44 -45 -56 -57 -78 -79 -96 -97 -103 -104 -116 0
-16 -44 -45 -56 -57 -78 -79 -96 -97 -110 -111 -116 0
-16 -44 -45 -56 -57 -78 -79 -104 -105 -110 -111 -116 0
-15 -43 -44 -55 -56 -87 -88 -95 -96 -102 -103 -109 0
-16 -43 -45 -55 -56 -87 -88 -95 -96 -102 -103 -109 0
-16 -44 -45 -55 -57 -87 -88 -95 -96 -102 -103 -109 0
-16 -44 -45 -56 -57 -87 -89 -95 -96 -102 -103 -109 0
-16 -44 -45 -56 -57 -88 -89 -95 -97 -102 -103 -109 0
-16 -44 -45 -56 -57 -88 -89 -96 -97 -102 -104 -109 0
-16 -44 -45 -56 -57 -88 -89 -96 -97 -103 -104 -110 0
-16 -44 -45 -56 -57 -88 -89 -96 -97 -103 -104 -116 0
-16 -44 -45 -56 -57 -88 -89 -96 -97 -110 -111 -116 0
-16 -44 -45 -56 -57 -88 -89 -104 -105 -110 -111 -116 0
-16 -44 -45 -56 -57 -97 -98 -104 -105 -110 -111 -116 0
-14 -42 -43 -66 -67 -76 -77 -85 -86 -93 -94 -101 0
-15 -42 -44 -66 -67 -76 -77 -85 -86 -93 -94 -101 0
-16 -42 -45 -66 -67 -76 -77 -85 -86 -93 -94 -101 0
-15 -43 -44 -66 -68 -76 -77 -85 -86 -93 -94 -101 0
-16 -43 -45 -66 -68 -76 -77 -85 -86 -93 -94 -101 0
-16 -44 -45 -66 -69 -76 -77 -85 -86 -93 -94 -101 0
-15 -43 -44 -67 -68 -76 -78 -85 -86 -93 -94 -101 0
-16 -43 -45 -67 -68 -76 -78 -85 -86 -93 -94 -101 0
-16 -44 -45 -67 -69 -76 -78 -85 -86 -93 -94 -101 0
-16 -44 -45 -68 -69 -76 -79 -85 -86 -93 -94 -101 0
-15 -43 -44 -67 -68 -77 -78 -85 -87 -93 -94 -101 0
-16 -43 -45 -67 -68 -77 -78 -85 -87 -93 -94 -101 0
-16 -44 -45 -67 -69 -77 -78 -85 -87 -93 -94 -101 0
-16 -44 -45 -68 -69 -77 -79 -85 -87 -93 -94 -101 0
-16 -44 -45 -68 -69 -78 -79 -85 -88 -93 -94 -101 0
-15 -43 -44 -67 -68 -77 -78 -86 -87 -93 -95 -101 0
-16 -43 -45 -67 -68 -77 -78 -86 -87 -93 -95 -101 0
-16 -44 -45 -67 -69 -77 -78 -86 -87 -93 -95 -101 0
-16 -44 -45 -68 -69 -77 -79 -86 -87 -93 -95 -101 0
-16 -44 -45 -68 -69 -78 -79 -86 -88 -93 -95 -101 0
-16 -44 -45 -68 -69 -78 -79 -87 -88 -93 -96 -101 0
-15 -43 -44 -67 -68 -77 -78 -86 -87 -94 -95 -102 0
-16 -43 -45 -67 -68 -77 -78 -86 -87 -94 -95 -102 0
-16 -44 -45 -67 -69 -77 -78 -86 -87 -94 -95 -102 0
-16 -44 -45 -68 -69 -77 -79 -86 -87 -94 -95 -102 0
-16 -44 -45 -68 -69 -78 -79 -86 -88 -94 -95 -102 0
-16 -44 -45 -68 -69 -78 -79 -87 -88 -94 -96 -102 0
-16 -44 -45 -68 -69 -78 -79 -87 -88 -95 -96 -103 0
-15 -43 -44 -67 -68 -77 -78 -86 -87 -94 -95 -109 0
-16 -43 -45 -67 -68 -77 -78 -86 -87 -94 -95 -109 0
-16 -44 -45 -67 -69 -77 -78 -86 -87 -94 -95 -109 0
-16 -44 -45 -68 -69 -77 -79 -86 -87 -94 -95 -109 0
-16 -44 -45 -68 -69 -78 -79 -86 -88 -94 -95 -109 0
-16 -44 -45 -68 -69 -78 -79 -87 -88 -94 -96 -109 0
-16 -44 -45 -68 -69 -78 -79 -87 -88 -95 -96 -110 0
-16 -44 -45 -68 -69 -78 -79 -87 -88 -95 -96 -116 0
-15 -43 -44 -67 -68 -77 -78 -86 -87 -102 -103 -109 0
-16 -43 -45 -67 -68 -77 -78 -86 -87 -102 -103 -109 0
-16 -44 -45 -67 -69 -77 -78 -86 -87 -102 -103 -109 0
-16 -44 -45 -68 -69 -77 -79 -86 -87 -102 -103 -109 0
-16 -44 -45 -68 -69 -78 -79 -86 -88 -102 -103 -109 0
-16 -44 -45 -68 -69 -78 -79 -87 -88 -102 -104 -109 0
-16 -44 -45 -68 -69 -78 -79 -87 -88 -103 -104 -110 0
-16 -44 -45 -68 -69 -78 -79 -87 -88 -103 -104 -116 0
-16 -44 -45 -68 -69 -78 -79 -87 -88 -110 -111 -116 0
-15 -43 -44 -67 -68 -77 -78 -95 -96 -102 -103 -109 0
-16 -43 -45 -67 -68 -77 -78 -95 -96 -102 -103 -109 0
-16 -44 -45 -67 -69 -77 -78 -95 -96 -102 -103 -109 0
-16 -44 -45 -68 -69 -77 -79 -95 -96 -102 -103 -109 0
-16 -44 -45 -68 -69 -78 -79 -95 -97 -102 -103 -109 0
-16 -44 -45 -68 -69 -78 -79 -96 -97 -102 -104 -109 0
-16 -44 -45 -68 -69 -78 -79 -96 -97 -103 -104 -110 0
-16 -44 -45 -68 -69 -78 -79 -96 -97 -103 -104 -116 0
-16 -44 -45 -68 -69 -78 -79 -96 -97 -110 -111 -116 0
-16 -44 -45 -68 -69 -78 -79 -104 -105 -110 -111 -116 0
-15 -43 -44 -67 -68 -87 -88 -95 -96 -102 -103 -109 0
-16 -43 -45 -67 -68 -87 -88 -95 -96 -102 -103 -109 0
-16 -44 -45 -67 -69 -87 -88 -95 -96 -102 -103 -109 0
-16 -44 -45 -68 -69 -87 -89 -95 -96 -102 -103 -109 0
-16 -44 -45 -68 -69 -88 -89 -95 -97 -102 -103 -109 0
-16 -44 -45 -68 -69 -88 -89 -96 -97 -102 -104 -109 0
-16 -44 -45 -68 -69 -88 -89 -96 -97 -103 -104 -110 0
-16 -44 -45 -68 -69 -88 -89 -96 -97 -103 -104 -116 0
-16 -44 -45 -68 -69 -88 -89 -96 -97 -110 -111 -116 0
-16 -44 -45 -68 -69 -88 -89 -104 -105 -110 -111 -116 0
-16 -44 -45 -68 -69 -97 -98 -104 -105 -110 -111 -116 0
-15 -43 -44 -78 -79 -87 -88 -95 -96 -102 -103 -109 0
-16 -43 -45 -78 -79 -87 -88 -95 -96 -102 -103 -109 0
-16 -44 -45 -78 -80 -87 -88 -95 -96 -102 -103 -109 0
-16 -44 -45 -79 -80 -87 -89 -95 -96 -102 -103 -109 0
-16 -44 -45 -79 -80 -88 -89 -95 -97 -102 -103 -109 0
-16 -44 -45 -79 -80 -88 -89 -96 -97 -102 -104 -109 0
-16 -44 -45 -79 -80 -88 -89 -96 -97 -103 -104 -110 0
-16 -44 -45 -79 -80 -88 -89 -96 -97 -103 -104 -116 0
-16 -44 -45 -79 -80 -88 -89 -96 -97 -110 -111 -116 0
-16 -44 -45 -79 -80 -88 -89 -104 -105 -110 -111 -116 0
-16 -44 -45 -79 -80 -97 -98 -104 -105 -110 -111 -116 0
-16 -44 -45 -89 -90 -97 -98 -104 -105 -110 -111 -116 0
-14 -55 -56 -66 -67 -76 -77 -85 -86 -93 -94 -101 0
-15 -55 -57 -66 -67 -76 -77 -85 -86 -93 -94 -101 0
-16 -55 -58 -66 -67 -76 -77 -85 -86 -93 -94 -101 0
-15 -56 -57 -66 -68 -76 -77 -85 -86 -93 -94 -101 0
-16 -56 -58 -66 -68 -76 -77 -85 -86 -93 -94 -101 0
-16 -57 -58 -66 -69 -76 -77 -85 -86 -93 -94 -101 0
-15 -56 -57 -67 -68 -76 -78 -85 -86 -93 -94 -101 0
-16 -56 -58 -67 -68 -76 -78 -85 -86 -93 -94 -101 0
-16 -57 -58 -67 -69 -76 -78 -85 -86 -93 -94 -101 0
-16 -57 -58 -68 -69 -76 -79 -85 -86 -93 -94 -101 0
-15 -56 -57 -67 -68 -77 -78 -85 -87 -93 -94 -101 0
-16 -56 -58 -67 -68 -77 -78 -85 -87 -93 -94 -101 0
-16 -57 -58 -67 -69 -77 -78 -85 -87 -93 -94 -101 0
-16 -57 -58 -68 -69 -77 -79 -85 -87 -93 -94 -101 0
-16 -57 -58 -68 -69 -78 -79 -85 -88 -93 -94 -101 0
-15 -56 -57 -67 -68 -77 -78 -86 -87 -93 -95 -101 0
-16 -56 -58 -67 -68 -77 -78 -86 -87 -93 -95 -101 0
-16 -57 -58 -67 -69 -77 -78 -86 -87 -93 -95 -101 0
-16 -57 -58 -68 -69 -77 -79 -86 -87 -93 -95 -101 0
-16 -57 -58 -68 -69 -78 -79 -86 -88 -93 -95 -101 0
-16 -57 -58 -68 -69 -78 -79 -87 -88 -93 -96 -101 0
-15 -56 -57 -67 -68 -77 -78 -86 -87 -94 -95 -102 0
-16 -56 -58 -67 -68 -77 -78 -86 -87 -94 -95 -102 0
-16 -57 -58 -67 -69 -77 -78 -86 -87 -94 -95 -102 0
-16 -57 -58 -68 -69 -77 -79 -86 -87 -94 -95 -102 0
-16 -57 -58 -68 -69 -78 -79 -86 -88 -94 -95 -102 0
-16 -57 -58 -68 -69 -78 -79 -87 -88 -94 -96 -102 0
-16 -57 -58 -68 -69 -78 -79 -87 -88 -95 -96 -103 0
-15 -56 -57 -67 -68 -77 -78 -86 -87 -94 -95 -109 0
-16 -56 -58 -67 -68 -77 -78 -86 -87 -94 -95 -109 0
-16 -57 -58 -67 -69 -77 -78 -86 -87 -94 -95 -109 0
-16 -57 -58 -68 -69 -77 -79 -86 -87 -94 -95 -109 0
-16 -57 -58 -68 -69 -78 -79 -86 -88 -94 -95 -109 0
-16 -57 -58 -68 -69 -78 -79 -87 -88 -94 -96 -109 0
-16 -57 -58 -68 -69 -78 -79 -87 -88 -95 -96 -110 0
-16 -57 -58 -68 -69 -78 -79 -87 -88 -95 -96 -116 0
-15 -56 -57 -67 -68 -77 -78 -86 -87 -102 -103 -109 0
-16 -56 -58 -67 -68 -77 -78 -86 -87 -102 -103 -109 0
-16 -57 -58 -67 -69 -77 -78 -86 -87 -102 -103 -109 0
-16 -57 -58 -68 -69 -77 -79 -86 -87 -102 -103 -109 0
-16 -57 -58 -68 -69 -78 -79 -86 -88 -102 -103 -109 0
-16 -57 -58 -68 -69 -78 -79 -87 -88 -102 -104 -109 0
-16 -57 -58 -68 -69 -78 -79 -87 -88 -103 -104 -110 0
-16 -57 -58 -68 -69 -78 -79 -87 -88 -103 -104 -116 0
-16 -57 -58 -68 -69 -78 -79 -87 -88 -110 -111 -116 0
-15 -56 -57 -67 -68 -77 -78 -95 -96 -102 -103 -109 0
-16 -56 -58 -67 -68 -77 -78 -95 -96 -102 -103 -109 0
-16 -57 -58 -67 -69 -77 -78 -95 -96 -102 -103 -109 0
-16 -57 -58 -68 -69 -77 -79 -95 -96 -102 -103 -109 0
-16 -57 -58 -68 -69 -78 -79 -95 -97 -102 -103 -109 0
-16 -57 -58 -68 -69 -78 -79 -96 -97 -102 -104 -109 0
-16 -57 -58 -68 -69 -78 -79 -96 -97 -103 -104 -110 0
-16 -57 -58 -68 -69 -78 -79 -96 -97 -103 -104 -116 0
-16 -57 -58 -68 -69 -78 -79 -96 -97 -110 -111 -116 0
-16 -57 -58 -68 -69 -78 -79 -104 -105 -110 -111 -116 0
-15 -56 -57 -67 -68 -87 -88 -95 -96 -102 -103 -109 0
-16 -56 -58 -67 -68 -87 -88 -95 -96 -102 -103 -109 0
-16 -57 -58 -67 -69 -87 -88 -95 -96 -102 -103 -109 0
-16 -57 -58 -68 -69 -87 -89 -95 -96 -102 -103 -109 0
-16 -57 -58 -68 -69 -88 -89 -95 -97 -102 -103 -109 0
-16 -57 -58 -68 -69 -88 -89 -96 -97 -102 -104 -109 0
-16 -57 -58 -68 -69 -88 -89 -96 -97 -103 -104 -110 0
-16 -57 -58 -68 -69 -88 -89 -96 -97 -103 -104 -116 0
-16 -57 -58 -68 -69 -88 -89 -96 -97 -110 -111 -116 0
-16 -57 -58 -68 -69 -88 -89 -104 -105 -110 -111 -116 0
-16 -57 -58 -68 -69 -97 -98 -104 -105 -110 -111 -116 0
-15 -56 -57 -78 -79 -87 -88 -95 -96 -102 -103 -109 0
-16 -56 -58 -78 -79 -87 -88 -95 -96 -102 -103 -109 0
-16 -57 -58 -78 -80 -87 -88 -95 -96 -102 -103 -109 0
-16 -57 -58 -79 -80 -87 -89 -95 -96 -102 -103 -109 0
-16 -57 -58 -79 -80 -88 -89 -95 -97 -102 -103 -109 0
-16 -57 -58 -79 -80 -88 -89 -96 -97 -102 -104 -109 0
-16 -57 -58 -79 -80 -88 -89 -96 -97 -103 -104 -110 0
-16 -57 -58 -79 -80 -88 -89 -96 -97 -103 -104 -116 0
-16 -57 -58 -79 -80 -88 -89 -96 -97 -110 -111 -116 0
-16 -57 -58 -79 -80 -88 -89 -104 -105 -110 -111 -116 0
-16 -57 -58 -79 -80 -97 -98 -104 -105 -110 -111 -116 0
-16 -57 -58 -89 -90 -97 -98 -104 -105 -110 -111 -116 0
-15 -68 -69 -78 -79 -87 -88 -95 -96 -102 -103 -109 0
-16 -68 -70 -78 -79 -87 -88 -95 -96 -102 -103 -109 0
-16 -69 -70 -78 -80 -87 -88 -95 -96 -102 -103 -109 0
-16 -69 -70 -79 -80 -87 -89 -95 -96 -102 -103 -109 0
-16 -69 -70 -79 -80 -88 -89 -95 -97 -102 -103 -109 0
-16 -69 -70 -79 -80 -88 -89 -96 -97 -102 -104 -109 0
-16 -69 -70 -79 -80 -88 -89 -96 -97 -103 -104 -110 0
-16 -69 -70 -79 -80 -88 -89 -96 -97 -103 -104 -116 0
-16 -69 -70 -79 -80 -88 -89 -96 -97 -110 -111 -116 0
-16 -69 -70 -79 -80 -88 -89 -104 -105 -110 -111 -116 0
-16 -69 -70 -79 -80 -97 -98 -104 -105 -110 -111 -116 0
-16 -69 -70 -89 -90 -97 -98 -104 -105 -110 -111 -116 0
-16 -80 -81 -89 -90 -97 -98 -104 -105 -110 -111 -116 0
-28 -41 -42 -53 -54 -64 -65 -74 -75 -83 -84 -92 0
-29 -41 -43 -53 -54 -64 -65 -74 -75 -83 -84 -92 0
-30 -41 -44 -53 -54 -64 -65 -74 -75 -83 -84 -92 0
-31 -41 -45 -53 -54 -64 -65 -74 -75 -83 -84 -92 0
-29 -42 -43 -53 -55 -64 -65 -74 -75 -83 -84 -92 0
-30 -42 -44 -53 -55 -64 -65 -74 -75 -83 -84 -92 0
-31 -42 -45 -53 -55 -64 -65 -74 -75 -83 -84 -92 0
-30 -43 -44 -53 -56 -64 -65 -74 -75 -83 -84 -92 0
-31 -43 -45 -53 -56 -64 -65 -74 -75 -83 -84 -92 0
-31 -44 -45 -53 -57 -64 -65 -74 -75 -83 -84 -92 0
-29 -42 -43 -54 -55 -64 -66 -74 -75 -83 -84 -92 0
-30 -42 -44 -54 -55 -64 -66 -74 -75 -83 -84 -92 0
-31 -42 -45 -54 -55 -64 -66 -74 -75 -83 -84 -92 0
-30 -43 -44 -54 -56 -64 -66 -74 -75 -83 -84 -92 0
-31 -43 -45 -54 -56 -64 -66 -74 -75 -83 -84 -92 0
-31 -44 -45 -54 -57 -64 -66 -74 -75 -83 -84 -92 0
-30 -43 -44 -55 -56 -64 -67 -74 -75 -83 -84 -92 0
-31 -43 -45 -55 -56 -64 -67 -74 -75 -83 -84 -92 0
-31 -44 -45 -55 -57 -64 -67 -74 -75 -83 -84 -92 0
-31 -44 -45 -56 -57 -64 -68 -74 -75 -83 -84 -92 0
-29 -42 -43 -54 -55 -65 -66 -74 -76 -83 -84 -92 0
-30 -42 -44 -54 -55 -65 -66 -74 -76 -83 -84 -92 0
-31 -42 -45 -54 -55 -65 -66 -74 -76 -83 -84 -92 0
-30 -43 -44 -54 -56 -65 -66 -74 -76 -83 -84 -92 0
-31 -43 -45 -54 -56 -65 -66 -74 -76 -83 -84 -92 0
-31 -44 -45 -54 -57 -65 -66 -74 -76 -83 -84 -92 0
-30 -43 -44 -55 -56 -65 -67 -74 -76 -83 -84 -92 0
-31 -43 -45 -55 -56 -65 -67 -74 -76 -83 -84 -92 0
-31 -44 -45 -55 -57 -65 -67 -74 -76 -83 -84 -92 0
-31 -44 -45 -56 -57 -65 -68 -74 -76 -83 -84 -92 0
-30 -43 -44 -55 -56 -66 -67 -74 -77 -83 -84 -92 0
-31 -43 -45 -55 -56 -66 -67 -74 -77 -83 -84 -92 0
-31 -44 -45 -55 -57 -66 -67 -74 -77 -83 -84 -92 0
-31 -44 -45 -56 -57 -66 -68 -74 -77 -83 -84 -92 0
-31 -44 -45 -56 -57 -67 -68 -74 -78 -83 -84 -92 0
-29 -42 -43 -54 -55 -65 -66 -75 -76 -83 -85 -92 0
-30 -42 -44 -54 -55 -65 -66 -75 -76 -83 -85 -92 0
-31 -42 -45 -54 -55 -65 -66 -75 -76 -83 -85 -92 0
-30 -43 -44 -54 -56 -65 -66 -75 -76 -83 -85 -92 0
-31 -43 -45 -54 -56 -65 -66 -75 -76 -83 -85 -92 0
-31 -44 -45 -54 -57 -65 -66 -75 -76 -83 -85 -92 0
-30 -43 -44 -55 -56 -65 -67 -75 -76 -83 -85 -92 0
-31 -43 -45 -55 -56 -65 -67 -75 -76 -83 -85 -92 0
-31 -44 -45 -55 -57 -65 -67 -75 -76 -83 -85 -92 0
-31 -44 -45 -56 -57 -65 -68 -75 -76 -83 -85 -92 0
-30 -43 -44 -55 -56 -66 -67 -75 -77 -83 -85 -92 0
-31 -43 -45 -55 -56 -66 -67 -75 -77 -83 -85 -92 0
-31 -44 -45 -55 -57 -66 -67 -75 -77 -83 -85 -92 0
-31 -44 -45 -56 -57 -66 -68 -75 -77 -83 -85 -92 0
-31 -44 -45 -56 -57 -67 -68 -75 -78 -83 -85 -92 0
-30 -43 -44 -55 -56 -66 -67 -76 -77 -83 -86 -92 0
-31 -43 -45 -55 -56 -66 -67 -76 -77 -83 -86 -92 0
-31 -44 -45 -55 -57 -66 -67 -76 -77 -83 -86 -92 0
-31 -44 -45 -56 -57 -66 -68 -76 -77 -83 -86 -92 0
-31 -44 -45 -56 -57 -67 -68 -76 -78 -83 -86 -92 0
-31 -44 -45 -56 -57 -67 -68 -77 -78 -83 -87 -92 0
-29 -42 -43 -54 -55 -65 -66 -75 -76 -84 -85 -93 0
-30 -42 -44 -54 -55 -65 -66 -75 -76 -84 -85 -93 0
-31 -42 -45 -54 -55 -65 -66 -75 -76 -84 -85 -93 0
-30 -43 -44 -54 -56 -65 -66 -75 -76 -84 -85 -93 0
-31 -43 -45 -54 -56 -65 -66 -75 -76 -84 -85 -93 0
-31 -44 -45 -54 -57 -65 -66 -75 -76 -84 -85 -93 0
-30 -43 -44 -55 -56 -65 -67 -75 -76 -84 -85 -93 0
-31 -43 -45 -55 -56 -65 -67 -75 -76 -84 -85 -93 0
-31 -44 -45 -55 -57 -65 -67 -75 -76 -84 -85 -93 0
-31 -44 -45 -56 -57 -65 -68 -75 -76 -84 -85 -93 0
-30 -43 -44 -55 -56 -66 -67 -75 -77 -84 -85 -93 0
-31 -43 -45 -55 -56 -66 -67 -75 -77 -84 -85 -93 0
-31 -44 -45 -55 -57 -66 -67 -75 -77 -84 -85 -93 0
-31 -44 -45 -56 -57 -66 -68 -75 -77 -84 -85 -93 0
-31 -44 -45 -56 -57 -67 -68 -75 -78 -84 -85 -93 0
-30 -43 -44 -55 -56 -66 -67 -76 -77 -84 -86 -93 0
-31 -43 -45 -55 -56 -66 -67 -76 -77 -84 -86 -93 0
-31 -44 -45 -55 -57 -66 -67 -76 -77 -84 -86 -93 0
-31 -44 -45 -56 -57 -66 -68 -76 -77 -84 -86 -93 0
-31 -44 -45 -56 -57 -67 -68 -76 -78 -84 -86 -93 0
-31 -44 -45 -56 -57 -67 -68 -77 -78 -84 -87 -93 0
-30 -43 -44 -55 -56 -66 -67 -76 -77 -85 -86 -94 0
-31 -43 -45 -55 -56 -66 -67 -76 -77 -85 -86 -94 0
-31 -44 -45 -55 -57 -66 -67 -76 -77 -85 -86 -94 0
-31 -44 -45 -56 -57 -66 -68 -76 -77 -85 -86 -94 0
-31 -44 -45 -56 -57 -67 -68 -76 -78 -85 -86 -94 0
-31 -44 -45 -56 -57 -67 -68 -77 -78 -85 -87 -94 0
-31 -44 -45 -56 -57 -67 -68 -77 -78 -86 -87 -95 0
-29 -42 -43 -54 -55 -65 -66 -75 -76 -84 -85 -101 0
-30 -42 -44 -54 -55 -65 -66 -75 -76 -84 -85 -101 0
-31 -42 -45 -54 -55 -65 -66 -75 -76 -84 -85 -101 0
-30 -43 -44 -54 -56 -65 -66 -75 -76 -84 -85 -101 0
-31 -43 -45 -54 -56 -65 -66 -75 -76 -84 -85 -101 0
-31 -44 -45 -54 -57 -65 -66 -75 -76 -84 -85 -101 0
-30 -43 -44 -55 -56 -65 -67 -75 -76 -84 -85 -101 0
-31 -43 -45 -55 -56 -65 -67 -75 -76 -84 -85 -101 0
-31 -44 -45 -55 -57 -65 -67 -75 -76 -84 -85 -101 0
-31 -44 -45 -56 -57 -65 -68 -75 -76 -84 -85 -101 0
-30 -43 -44 -55 -56 -66 -67 -75 -77 -84 -85 -101 0
-31 -43 -45 -55 -56 -66 -67 -75 -77 -84 -85 -101 0
-31 -44 -45 -55 -57 -66 -67 -75 -77 -84 -85 -101 0
-31 -44 -45 -56 -57 -66 -68 -75 -77 -84 -85 -101 0
-31 -44 -45 -56 -57 -67 -68 -75 -78 -84 -85 -101 0
-30 -43 -44 -55 -56 -66 -67 -76 -77 -84 -86 -101 0
-31 -43 -45 -55 -56 -66 -67 -76 -77 -84 -86 -101 0
-31 -44 -45 -55 -57 -66 -67 -76 -77 -84 -86 -101 0
-31 -44 -45 -56 -57 -66 -68 -76 -77 -84 -86 -101 0
-31 -44 -45 -56 -57 -67 -68 -76 -78 -84 -86 -101 0
-31 -44 -45 -56 -57 -67 -68 -77 -78 -84 -87 -101 0
-30 -43 -44 -55 -56 -66 -67 -76 -77 -85 -86 -102 0
-31 -43 -45 -55 -56 -66 -67 -76 -77 -85 -86 -102 0
-31 -44 -45 -55 -57 -66 -67 -76 -77 -85 -86 -102 0
-31 -44 -45 -56 -57 -66 -68 -76 -77 -85 -86 -102 0
-31 -44 -45 -56 -57 -67 -68 -76 -78 -85 -86 -102 0
-31 -44 -45 -56 -57 -67 -68 -77 -78 -85 -87 -102 0
-31 -44 -45 -56 -57 -67 -68 -77 -78 -86 -87 -103 0
-30 -43 -44 -55 -56 -66 -67 -76 -77 -85 -86 -109 0
-31 -43 -45 -55 -56 -66 -67 -76 -77 -85 -86 -109 0
-31 -44 -45 -55 -57 -66 -67 -76 -77 -85 -86 -109 0
-31 -44 -45 -56 -57 -66 -68 -76 -77 -85 -86 -109 0
-31 -44 -45 -56 -57 -67 -68 -76 -78 -85 -86 -109 0
-31 -44 -45 -56 -57 -67 -68 -77 -78 -85 -87 -109 0
-31 -44 -45 -56 -57 -67 -68 -77 -78 -86 -87 -110 0
-31 -44 -45 -56 -57 -67 -68 -77 -78 -86 -87 -116 0
-29 -42 -43 -54 -55 -65 -66 -75 -76 -93 -94 -101 0
-30 -42 -44 -54 -55 -65 -66 -75 -76 -93 -94 -101 0
-31 -42 -45 -54 -55 -65 -66 -75 -76 -93 -94 -101 0
-30 -43 -44 -54 -56 -65 -66 -75 -76 -93 -94 -101 0
-31 -43 -45 -54 -56 -65 -66 -75 -76 -93 -94 -101 0
-31 -44 -45 -54 -57 -65 -66 -75 -76 -93 -94 -101 0
-30 -43 -44 -55 -56 -65 -67 -75 -76 -93 -94 -101 0
-31 -43 -45 -55 -56 -65 -67 -75 -76 -93 -94 -101 0
-31 -44 -45 -55 -57 -65 -67 -75 -76 -93 -94 -101 0
-31 -44 -45 -56 -57 -65 -68 -75 -76 -93 -94 -101 0
-30 -43 -44 -55 -56 -66 -67 -75 -77 -93 -94 -101 0
-31 -43 -45 -55 -56 -66 -67 -75 -77 -93 -94 -101 0
-31 -44 -45 -55 -57 -66 -67 -75 -77 -93 -94 -101 0
-31 -44 -45 -56 -57 -66 -68 -75 -77 -93 -94 -101 0
-31 -44 -45 -56 -57 -67 -68 -75 -78 -93 -94 -101 0
-30 -43 -44 -55 -56 -66 -67 -76 -77 -93 -95 -101 0
-31 -43 -45 -55 -56 -66 -67 -76 -77 -93 -95 -101 0
-31 -44 -45 -55 -57 -66 -67 -76 -77 -93 -95 -101 0
-31 -44 -45 -56 -57 -66 -68 -76 -77 -93 -95 -101 0
-31 -44 -45 -56 -57 -67 -68 -76 -78 -93 -95 -101 0
-31 -44 -45 -56 -57 -67 -68 -77 -78 -93 -96 -101 0
-30 -43 -44 -55 -56 -66 -67 -76 -77 -94 -95 -102 0
-31 -43 -45 -55 -56 -66 -67 -76 -77 -94 -95 -102 0
-31 -44 -45 -55 -57 -66 -67 -76 -77 -94 -95 -102 0
-31 -44 -45 -56 -57 -66 -68 -76 -77 -94 -95 -102 0
-31 -44 -45 -56 -57 -67 -68 -76 -78 -94 -95 -102 0
-31 -44 -45 -56 -57 -67 -68 -77 -78 -94 -96 -102 0
-31 -44 -45 -56 -57 -67 -68 -77 -78 -95 -96 -103 0
-30 -43 -44 -55 -56 -66 -67 -76 -77 -94 -95 -109 0
-31 -43 -45 -55 -56 -66 -67 -76 -77 -94 -95 -109 0
-31 -44 -45 -55 -57 -66 -67 -76 -77 -94 -95 -109 0
-31 -44 -45 -56 -57 -66 -68 -76 -77 -94 -95 -109 0
-31 -44 -45 -56 -57 -67 -68 -76 -78 -94 -95 -109 0
-31 -44 -45 -56 -57 -67 -68 -77 -78 -94 -96 -109 0
-31 -44 -45 -56 -57 -67 -68 -77 -78 -95 -96 -110 0
-31 -44 -45 -56 -57 -67 -68 -77 -78 -95 -96 -116 0
-30 -43 -44 -55 -56 -66 -67 -76 -77 -102 -103 -109 0
-31 -43 -45 -55 -56 -66 -67 -76 -77 -102 -103 -109 0
-31 -44 -45 -55 -57 -66 -67 -76 -77 -102 -103 -109 0
-31 -44 -45 -56 -57 -66 -68 -76 -77 -102 -103 -109 0
-31 -44 -45 -56 -57 -67 -68 -76 -78 -102 -103 -109 0
-31 -44 -45 -56 -57 -67 -68 -77 -78 -102 -104 -109 0
-31 -44 -45 -56 -57 -67 -68 -77 -78 -103 -104 -110 0
-31 -44 -45 -56 -57 -67 -68 -77 -78 -103 -104 -116 0
-31 -44 -45 -56 -57 -67 -68 -77 -78 -110 -111 -116 0
-29 -42 -43 -54 -55 -65 -66 -85 -86 -93 -94 -101 0
-30 -42 -44 -54 -55 -65 -66 -85 -86 -93 -94 -101 0
-31 -42 -45 -54 -55 -65 -66 -85 -86 -93 -94 -101 0
-30 -43 -44 -54 -56 -65 -66 -85 -86 -93 -94 -101 0
-31 -43 -45 -54 -56 -65 -66 -85 -86 -93 -94 -101 0
-31 -44 -45 -54 -57 -65 -66 -85 -86 -93 -94 -101 0
-30 -43 -44 -55 -56 -65 -67 -85 -86 -93 -94 -101 0
-31 -43 -45 -55 -56 -65 -67 -85 -86 -93 -94 -101 0
-31 -44 -45 -55 -57 -65 -67 -85 -86 -93 -94 -101 0
-31 -44 -45 -56 -57 -65 -68 -85 -86 -93 -94 -101 0
-30 -43 -44 -55 -56 -66 -67 -85 -87 -93 -94 -101 0
-31 -43 -45 -55 -56 -66 -67 -85 -87 -93 -94 -101 0
-31 -44 -45 -55 -57 -66 -67 -85 -87 -93 -94 -101 0
-31 -44 -45 -56 -57 -66 -68 -85 -87 -93 -94 -101 0
-31 -44 -45 -56 -57 -67 -68 -85 -88 -93 -94 -101 0
-30 -43 -44 -55 -56 -66 -67 -86 -87 -93 -95 -101 0
-31 -43 -45 -55 -56 -66 -67 -86 -87 -93 -95 -101 0
-31 -44 -45 -55 -57 -66 -67 -86 -87 -93 -95 -101 0
-31 -44 -45 -56 -57 -66 -68 -86 -87 -93 -95 -101 0
-31 -44 -45 -56 -57 -67 -68 -86 -88 -93 -95 -101 0
-31 -44 -45 -56 -57 -67 -68 -87 -88 -93 -96 -101 0
-30 -43 -44 -55 -56 -66 -67 -86 -87 -94 -95 -102 0
-31 -43 -45 -55 -56 -66 -67 -86 -87 -94 -95 -102 0
-31 -44 -45 -55 -57 -66 -67 -86 -87 -94 -95 -102 0
-31 -44 -45 -56 -57 -66 -68 -86 -87 -94 -95 -102 0
-31 -44 -45 -56 -57 -67 -68 -86 -88 -94 -95 -102 0
-31 -44 -45 -56 -57 -67 -68 -87 -88 -94 -96 -102 0
-31 -44 -45 -56 -57 -67 -68 -87 -88 -95 -96 -103 0
-30 -43 -44 -55 -56 -66 -67 -86 -87 -94 -95 -109 0
-31 -43 -45 -55 -56 -66 -67 -86 -87 -94 -95 -109 0
-31 -44 -45 -55 -57 -66 -67 -86 -87 -94 -95 -109 0
-31 -44 -45 -56 -57 -66 -68 -86 -87 -94 -95 -109 0
-31 -44 -45 -56 -57 -67 -68 -86 -88 -94 -95 -109 0
-31 -44 -45 -56 -57 -67 -68 -87 -88 -94 -96 -109 0
-31 -44 -45 -56 -57 -67 -68 -87 -88 -95 -96 -110 0
-31 -44 -45 -56 -57 -67 -68 -87 -88 -95 -96 -116 0
-30 -43 -44 -55 -56 -66 -67 -86 -87 -102 -103 -109 0
-31 -43 -45 -55 -56 -66 -67 -86 -87 -102 -103 -109 0
-31 -44 -45 -55 -57 -66 -67 -86 -87 -102 -103 -109 0
-31 -44 -45 -56 -57 -66 -68 -86 -87 -102 -103 -109 0
-31 -44 -45 -56 -57 -67 -68 -86 -88 -102 -103 -109 0
-31 -44 -45 -56 -57 -67 -68 -87 -88 -102 -104 -109 0
-31 -44 -45 -56 -57 -67 -68 -87 -88 -103 -104 -110 0
-31 -44 -45 -56 -57 -67 -68 -87 -88 -103 -104 -116 0
-31 -44 -45 -56 -57 -67 -68 -87 -88 -110 -111 -116 0
-30 -43 -44 -55 -56 -66 -67 -95 -96 -102 -103 -109 0
-31 -43 -45 -55 -56 -66 -67 -95 -96 -102 -103 -109 0
-31 -44 -45 -55 -57 -66 -67 -95 -96 -102 -103 -109 0
-31 -44 -45 -56 -57 -66 -68 -95 -96 -102 -103 -109 0
-31 -44 -45 -56 -57 -67 -68 -95 -97 -102 -103 -109 0
-31 -44 -45 -56 -57 -67 -68 -96 -97 -102 -104 -109 0
-31 -44 -45 -56 -57 -67 -68 -96 -97 -103 -104 -110 0
-31 -44 -45 -56 -57 -67 -68 -96 -97 -103 -104 -116 0
-31 -44 -45 -56 -57 -67 -68 -96 -97 -110 -111 -116 0
-31 -44 -45 -56 -57 -67 -68 -104 -105 -110 -111 -116 0
-29 -42 -43 -54 -55 -76 -77 -85 -86 -93 -94 -101 0
-30 -42 -44 -54 -55 -76 -77 -85 -86 -93 -94 -101 0
-31 -42 -45 -54 -55 -76 -77 -85 -86 -93 -94 -101 0
-30 -43 -44 -54 -56 -76 -77 -85 -86 -93 -94 -101 0
-31 -43 -45 -54 -56 -76 -77 -85 -86 -93 -94 -101 0
-31 -44 -45 -54 -57 -76 -77 -85 -86 -93 -94 -101 0
-30 -43 -44 -55 -56 -76 -78 -85 -86 -93 -94 -101 0
-31 -43 -45 -55 -56 -76 -78 -85 -86 -93 -94 -101 0
-31 -44 -45 -55 -57 -76 -78 -85 -86 -93 -94 -101 0
-31 -44 -45 -56 -57 -76 -79 -85 -86 -93 -94 -101 0
-30 -43 -44 -55 -56 -77 -78 -85 -87 -93 -94 -101 0
-31 -43 -45 -55 -56 -77 -78 -85 -87 -93 -94 -101 0
-31 -44 -45 -55 -57 -77 -78 -85 -87 -93 -94 -101 0
-31 -44 -45 -56 -57 -77 -79 -85 -87 -93 -94 -101 0
-31 -44 -45 -56 -57 -78 -79 -85 -88 -93 -94 -101 0
-30 -43 -44 -55 -56 -77 -78 -86 -87 -93 -95 -101 0
-31 -43 -45 -55 -56 -77 -78 -86 -87 -93 -95 -101 0
-31 -44 -45 -55 -57 -77 -78 -86 -87 -93 -95 -101 0
-31 -44 -45 -56 -57 -77 -79 -86 -87 -93 -95 -101 0
-31 -44 -45 -56 -57 -78 -79 -86 -88 -93 -95 -101 0
-31 -44 -45 -56 -57 -78 -79 -87 -88 -93 -96 -101 0
-30 -43 -44 -55 -56 -77 -78 -86 -87 -94 -95 -102 0
-31 -43 -45 -55 -56 -77 -78 -86 -87 -94 -95 -102 0
-31 -44 -45 -55 -57 -77 -78 -86 -87 -94 -95 -102 0
-31 -44 -45 -56 -57 -77 -79 -86 -87 -94 -95 -102 0
-31 -44 -45 -56 -57 -78 -79 -86 -88 -94 -95 -102 0
-31 -44 -45 -56 -57 -78 -79 -87 -88 -94 -96 -102 0
-31 -44 -45 -56 -57 -78 -79 -87 -88 -95 -96 -103 0
-30 -43 -44 -55 -56 -77 -78 -86 -87 -94 -95 -109 0
-31 -43 -45 -55 -56 -77 -78 -86 -87 -94 -95 -109 0
-31 -44 -45 -55 -57 -77 -78 -86 -87 -94 -95 -109 0
-31 -44 -45 -56 -57 -77 -79 -86 -87 -94 -95 -109 0
-31 -44 -45 -56 -57 -78 -79 -86 -88 -94 -95 -109 0
-31 -44 -45 -56 -57 -78 -79 -87 -88 -94 -96 -109 0
-31 -44 -45 -56 -57 -78 -79 -87 -88 -95 -96 -110 0
-31 -44 -45 -56 -57 -78 -79 -87 -88 -95 -96 -116 0
-30 -43 -44 -55 -56 -77 -78 -86 -87 -102 -103 -109 0
-31 -43 -45 -55 -56 -77 -78 -86 -87 -102 -103 -109 0
-31 -44 -45 -55 -57 -77 -78 -86 -87 -102 -103 -109 0
-31 -44 -45 -56 -57 -77 -79 -86 -87 -102 -103 -109 0
-31 -44 -45 -56 -57 -78 -79 -86 -88 -102 -103 -109 0
-31 -44 -45 -56 -57 -78 -79 -87 -88 -102 -104 -109 0
-31 -44 -45 -56 -57 -78 -79 -87 -88 -103 -104 -110 0
-31 -44 -45 -56 -57 -78 -79 -87 -88 -103 -104 -116 0
-31 -44 -45 -56 -57 -78 -79 -87 -88 -110 -111 -116 0
-30 -43 -44 -55 -56 -77 -78 -95 -96 -102 -103 -109 0
-31 -43 -45 -55 -56 -77 -78 -95 -96 -102 -103 -109 0
-31 -44 -45 -55 -57 -77 -78 -95 -96 -102 -103 -109 0
-31 -44 -45 -56 -57 -77 -79 -95 -96 -102 -103 -109 0
-31 -44 -45 -56 -57 -78 -79 -95 -97 -102 -103 -109 0
-31 -44 -45 -56 -57 -78 -79 -96 -97 -102 -104 -109 0
-31 -44 -45 -56 -57 -78 -79 -96 -97 -103 -104 -110 0
-31 -44 -45 -56 -57 -78 -79 -96 -97 -103 -104 -116 0
-31 -44 -45 -56 -57 -78 -79 -96 -97 -110 -111 -116 0
-31 -44 -45 -56 -57 -78 -79 -104 -105 -110 -111 -116 0
-30 -43 -44 -55 -56 -87 -88 -95 -96 -102 -103 -109 0
-31 -43 -45 -55 -56 -87 -88 -95 -96 -102 -103 -109 0
-31 -44 -45 -55 -57 -87 -88 -95 -96 -102 -103 -109 0
-31 -44 -45 -56 -57 -87 -89 -95 -96 -102 -103 -109 0
-31 -44 -45 -56 -57 -88 -89 -95 -97 -102 -103 -109 0
-31 -44 -45 -56 -57 -88 -89 -96 -97 -102 -104 -109 0
-31 -44 -45 -56 -57 -88 -89 -96 -97 -103 -104 -110 0
-31 -44 -45 -56 -57 -88 -89 -96 -97 -103 -104 -116 0
-31 -44 -45 -56 -57 -88 -89 -96 -97 -110 -111 -116 0
-31 -44 -45 -56 -57 -88 -89 -104 -105 -110 -111 -116 0
-31 -44 -45 -56 -57 -97 -98 -104 -105 -110 -111 -116 0
-29 -42 -43 -66 -67 -76 -77 -85 -86 -93 -94 -101 0
-30 -42 -44 -66 -67 -76 -77 -85 -86 -93 -94 -101 0
-31 -42 -45 -66 -67 -76 -77 -85 -86 -93 -94 -101 0
-30 -43 -44 -66 -68 -76 -77 -85 -86 -93 -94 -101 0
-31 -43 -45 -66 -68 -76 -77 -85 -86 -93 -94 -101 0
-31 -44 -45 -66 -69 -76 -77 -85 -86 -93 -94 -101 0
-30 -43 -44 -67 -68 -76 -78 -85 -86 -93 -94 -101 0
-31 -43 -45 -67 -68 -76 -78 -85 -86 -93 -94 -101 0
-31 -44 -45 -67 -69 -76 -78 -85 -86 -93 -94 -101 0
-31 -44 -45 -68 -69 -76 -79 -85 -86 -93 -94 -101 0
-30 -43 -44 -67 -68 -77 -78 -85 -87 -93 -94 -101 0
-31 -43 -45 -67 -68 -77 -78 -85 -87 -93 -94 -101 0
-31 -44 -45 -67 -69 -77 -78 -85 -87 -93 -94 -101 0
-31 -44 -45 -68 -69 -77 -79 -85 -87 -93 -94 -101 0
-31 -44 -45 -68 -69 -78 -79 -85 -88 -93 -94 -101 0
-30 -43 -44 -67 -68 -77 -78 -86 -87 -93 -95 -101 0
-31 -43 -45 -67 -68 -77 -78 -86 -87 -93 -95 -101 0
-31 -44 -45 -67 -69 -77 -78 -86 -87 -93 -95 -101 0
-31 -44 -45 -68 -69 -77 -79 -86 -87 -93 -95 -101 0
-31 -44 -45 -68 -69 -78 -79 -86 -88 -93 -95 -101 0
-31 -44 -45 -68 -69 -78 -79 -87 -88 -93 -96 -101 0
-30 -43 -44 -67 -68 -77 -78 -86 -87 -94 -95 -102 0
-31 -43 -45 -67 -68 -77 -78 -86 -87 -94 -95 -102 0
-31 -44 -45 -67 -69 -77 -78 -86 -87 -94 -95 -102 0
-31 -44 -45 -68 -69 -77 -79 -86 -87 -94 -95 -102 0
-31 -44 -45 -68 -69 -78 -79 -86 -88 -94 -95 -102 0
-31 -44 -45 -68 -69 -78 -79 -87 -88 -94 -96 -102 0
-31 -44 -45 -68 -69 -78 -79 -87 -88 -95 -96 -103 0
-30 -43 -44 -67 -68 -77 -78 -86 -87 -94 -95 -109 0
-31 -43 -45 -67 -68 -77 -78 -86 -87 -94 -95 -109 0
-31 -44 -45 -67 -69 -77 -78 -86 -87 -94 -95 -109 0
-31 -44 -45 -68 -69 -77 -79 -86 -87 -94 -95 -109 0
-31 -44 -45 -68 -69 -78 -79 -86 -88 -94 -95 -109 0
-31 -44 -45 -68 -69 -78 -79 -87 -88 -94 -96 -109 0
-31 -44 -45 -68 -69 -78 -79 -87 -88 -95 -96 -110 0
-31 -44 -45 -68 -69 -78 -79 -87 -88 -95 -96 -116 0
-30 -43 -44 -67 -68 -77 -78 -86 -87 -102 -103 -109 0
-31 -43 -45 -67 -68 -77 -78 -86 -87 -102 -103 -109 0
-31 -44 -45 -67 -69 -77 -78 -86 -87 -102 -103 -109 0
-31 -44 -45 -68 -69 -77 -79 -86 -87 -102 -103 -109 0
-31 -44 -45 -68 -69 -78 -79 -86 -88 -102 -103 -109 0
-31 -44 -45 -68 -69 -78 -79 -87 -88 -102 -104 -109 0
-31 -44 -45 -68 -69 -78 -79 -87 -88 -103 -104 -110 0
-31 -44 -45 -68 -69 -78 -79 -87 -88 -103 -104 -116 0
-31 -44 -45 -68 -69 -78 -79 -87 -88 -110 -111 -116 0
-30 -43 -44 -67 -68 -77 -78 -95 -96 -102 -103 -109 0
-31 -43 -45 -67 -68 -77 -78 -95 -96 -102 -103 -109 0
-31 -44 -45 -67 -69 -77 -78 -95 -96 -102 -103 -109 0
-31 -44 -45 -68 -69 -77 -79 -95 -96 -102 -103 -109 0
-31 -44 -45 -68 -69 -78 -79 -95 -97 -102 -103 -109 0
-31 -44 -45 -68 -69 -78 -79 -96 -97 -102 -104 -109 0
-31 -44 -45 -68 -69 -78 -79 -96 -97 -103 -104 -110 0
-31 -44 -45 -68 -69 -78 -79 -96 -97 -103 -104 -116 0
-31 -44 -45 -68 -69 -78 -79 -96 -97 -110 -111 -116 0
-31 -44 -45 -68 -69 -78 -79 -104 -105 -110 -111 -116 0
-30 -43 -44 -67 -68 -87 -88 -95 -96 -102 -103 -109 0
-31 -43 -45 -67 -68 -87 -88 -95 -96 -102 -103 -109 0
-31 -44 -45 -67 -69 -87 -88 -95 -96 -102 -103 -109 0
-31 -44 -45 -68 -69 -87 -89 -95 -96 -102 -103 -109 0
-31 -44 -45 -68 -69 -88 -89 -95 -97 -102 -103 -109 0
-31 -44 -45 -68 -69 -88 -89 -96 -97 -102 -104 -109 0
-31 -44 -45 -68 -69 -88 -89 -96 -97 -103 -104 -110 0
-31 -44 -45 -68 -69 -88 -89 -96 -97 -103 -104 -116 0
-31 -44 -45 -68 -69 -88 -89 -96 -97 -110 -111 -116 0
-31 -44 -45 -68 -69 -88 -89 -104 -105 -110 -111 -116 0
-31 -44 -45 -68 -69 -97 -98 -104 -105 -110 -111 -116 0
-30 -43 -44 -78 -79 -87 -88 -95 -96 -102 -103 -109 0
-31 -43 -45 -78 -79 -87 -88 -95 -96 -102 -103 -109 0
-31 -44 -45 -78 -80 -87 -88 -95 -96 -102 -103 -109 0
-31 -44 -45 -79 -80 -87 -89 -95 -96 -102 -103 -109 0
-31 -44 -45 -79 -80 -88 -89 -95 -97 -102 -103 -109 0
-31 -44 -45 -79 -80 -88 -89 -96 -97 -102 -104 -109 0
-31 -44 -45 -79 -80 -88 -89 -96 -97 -103 -104 -110 0
-31 -44 -45 -79 -80 -88 -89 -96 -97 -103 -104 -116 0
-31 -44 -45 -79 -80 -88 -89 -96 -97 -110 -111 -116 0
-31 -44 -45 -79 -80 -88 -89 -104 -105 -110 -111 -116 0
-31 -44 -45 -79 -80 -97 -98 -104 -105 -110 -111 -116 0
-31 -44 -45 -89 -90 -97 -98 -104 -105 -110 -111 -116 0
-29 -55 -56 -66 -67 -76 -77 -85 -86 -93 -94 -101 0
-30 -55 -57 -66 -67 -76 -77 -85 -86 -93 -94 -101 0
-31 -55 -58 -66 -67 -76 -77 -85 -86 -93 -94 -101 0
-30 -56 -57 -66 -68 -76 -77 -85 -86 -93 -94 -101 0
-31 -56 -58 -66 -68 -76 -77 -85 -86 -93 -94 -101 0
-31 -57 -58 -66 -69 -76 -77 -85 -86 -93 -94 -101 0
-30 -56 -57 -67 -68 -76 -78 -85 -86 -93 -94 -101 0
-31 -56 -58 -67 -68 -76 -78 -85 -86 -93 -94 -101 0
-31 -57 -58 -67 -69 -76 -78 -85 -86 -93 -94 -101 0
-31 -57 -58 -68 -69 -76 -79 -85 -86 -93 -94 -101 0
-30 -56 -57 -67 -68 -77 -78 -85 -87 -93 -94 -101 0
-31 -56 -58 -67 -68 -77 -78 -85 -87 -93 -94 -101 0
-31 -57 -58 -67 -69 -77 -78 -85 -87 -93 -94 -101 0
-31 -57 -58 -68 -69 -77 -79 -85 -87 -93 -94 -101 0
-31 -57 -58 -68 -69 -78 -79 -85 -88 -93 -94 -101 0
-30 -56 -57 -67 -68 -77 -78 -86 -87 -93 -95 -101 0
-31 -56 -58 -67 -68 -77 -78 -86 -87 -93 -95 -101 0
-31 -57 -58 -67 -69 -77 -78 -86 -87 -93 -95 -101 0
-31 -57 -58 -68 -69 -77 -79 -86 -87 -93 -95 -101 0
-31 -57 -58 -68 -69 -78 -79 -86 -88 -93 -95 -101 0
-31 -57 -58 -68 -69 -78 -79 -87 -88 -93 -96 -101 0
-30 -56 -57 -67 -68 -77 -78 -86 -87 -94 -95 -102 0
-31 -56 -58 -67 -68 -77 -78 -86 -87 -94 -95 -102 0
-31 -57 -58 -67 -69 -77 -78 -86 -87 -94 -95 -102 0
-31 -57 -58 -68 -69 -77 -79 -86 -87 -94 -95 -102 0
-31 -57 -58 -68 -69 -78 -79 -86 -88 -94 -95 -102 0
-31 -57 -58 -68 -69 -78 -79 -87 -88 -94 -96 -102 0
-31 -57 -58 -68 -69 -78 -79 -87 -88 -95 -96 -103 0
-30 -56 -57 -67 -68 -77 -78 -86 -87 -94 -95 -109 0
-31 -56 -58 -67 -68 -77 -78 -86 -87 -94 -95 -109 0
-31 -57 -58 -67 -69 -77 -78 -86 -87 -94 -95 -109 0
-31 -57 -58 -68 -69 -77 -79 -86 -87 -94 -95 -109 0
-31 -57 -58 -68 -69 -78 -79 -86 -88 -94 -95 -109 0
-31 -57 -58 -68 -69 -78 -79 -87 -88 -94 -96 -109 0
-31 -57 -58 -68 -69 -78 -79 -87 -88 -95 -96 -110 0
-31 -57 -58 -68 -69 -78 -79 -87 -88 -95 -96 -116 0
-30 -56 -57 -67 -68 -77 -78 -86 -87 -102 -103 -109 0
-31 -56 -58 -67 -68 -77 -78 -86 -87 -102 -103 -109 0
-31 -57 -58 -67 -69 -77 -78 -86 -87 -102 -103 -109 0
-31 -57 -58 -68 -69 -77 -79 -86 -87 -102 -103 -109 0
-31 -57 -58 -68 -69 -78 -79 -86 -88 -102 -103 -109 0
-31 -57 -58 -68 -69 -78 -79 -87 -88 -102 -104 -109 0
-31 -57 -58 -68 -69 -78 -79 -87 -88 -103 -104 -110 0
-31 -57 -58 -68 -69 -78 -79 -87 -88 -103 -104 -116 0
-31 -57 -58 -68 -69 -78 -79 -87 -88 -110 -111 -116 0
-30 -56 -57 -67 -68 -77 -78 -95 -96 -102 -103 -109 0
-31 -56 -58 -67 -68 -77 -78 -95 -96 -102 -103 -109 0
-31 -57 -58 -67 -69 -77 -78 -95 -96 -102 -103 -109 0
-31 -57 -58 -68 -69 -77 -79 -95 -96 -102 -103 -109 0
-31 -57 -58 -68 -69 -78 -79 -95 -97 -102 -103 -109 0
-31 -57 -58 -68 -69 -78 -79 -96 -97 -102 -104 -109 0
-31 -57 -58 -68 -69 -78 -79 -96 -97 -103 -104 -110 0
-31 -57 -58 -68 -69 -78 -79 -96 -97 -103 -104 -116 0
-31 -57 -58 -68 -69 -78 -79 -96 -97 -110 -111 -116 0
-31 -57 -58 -68 -69 -78 -79 -104 -105 -110 -111 -116 0
-30 -56 -57 -67 -68 -87 -88 -95 -96 -102 -103 -109 0
-31 -56 -58 -67 -68 -87 -88 -95 -96 -102 -103 -109 0
-31 -57 -58 -67 -69 -87 -88 -95 -96 -102 -103 -109 0
-31 -57 -58 -68 -69 -87 -89 -95 -96 -102 -103 -109 0
-31 -57 -58 -68 -69 -88 -89 -95 -97 -102 -103 -109 0
-31 -57 -58 -68 -69 -88 -89 -96 -97 -102 -104 -109 0
-31 -57 -58 -68 -69 -88 -89 -96 -97 -103 -104 -110 0
-31 -57 -58 -68 -69 -88 -89 -96 -97 -103 -104 -116 0
-31 -57 -58 -68 -69 -88 -89 -96 -97 -110 -111 -116 0
-31 -57 -58 -68 -69 -88 -89 -104 -105 -110 -111 -116 0
-31 -57 -58 -68 -69 -97 -98 -104 -105 -110 -111 -116 0
-30 -56 -57 -78 -79 -87 -88 -95 -96 -102 -103 -109 0
-31 -56 -58 -78 -79 -87 -88 -95 -96 -102 -103 -109 0
-31 -57 -58 -78 -80 -87 -88 -95 -96 -102 -103 -109 0
-31 -57 -58 -79 -80 -87 -89 -95 -96 -102 -103 -109 0
-31 -57 -58 -79 -80 -88 -89 -95 -97 -102 -103 -109 0
-31 -57 -58 -79 -80 -88 -89 -96 -97 -102 -104 -109 0
-31 -57 -58 -79 -80 -88 -89 -96 -97 -103 -104 -110 0
-31 -57 -58 -79 -80 -88 -89 -96 -97 -103 -104 -116 0
-31 -57 -58 -79 -80 -88 -89 -96 -97 -110 -111 -116 0
-31 -57 -58 -79 -80 -88 -89 -104 -105 -110 -111 -116 0
-31 -57 -58 -79 -80 -97 -98 -104 -105 -110 -111 -116 0
-31 -57 -58 -89 -90 -97 -98 -104 -105 -110 -111 -116 0
-30 -68 -69 -78 -79 -87 -88 -95 -96 -102 -103 -109 0
-31 -68 -70 -78 -79 -87 -88 -95 -96 -102 -103 -109 0
-31 -69 -70 -78 -80 -87 -88 -95 -96 -102 -103 -109 0
-31 -69 -70 -79 -80 -87 -89 -95 -96 -102 -103 -109 0
-31 -69 -70 -79 -80 -88 -89 -95 -97 -102 -103 -109 0
-31 -69 -70 -79 -80 -88 -89 -96 -97 -102 -104 -109 0
-31 -69 -70 -79 -80 -88 -89 -96 -97 -103 -104 -110 0
-31 -69 -70 -79 -80 -88 -89 -96 -97 -103 -104 -116 0
-31 -69 -70 -79 -80 -88 -89 -96 -97 -110 -111 -116 0
-31 -69 -70 -79 -80 -88 -89 -104 -105 -110 -111 -116 0
-31 -69 -70 -79 -80 -97 -98 -104 -105 -110 -111 -116 0
-31 -69 -70 -89 -90 -97 -98 -104 -105 -110 -111 -116 0
-31 -80 -81 -89 -90 -97 -98 -104 -105 -110 -111 -116 0
-43 -55 -56 -66 -67 -76 -77 -85 -86 -93 -94 -101 0
-44 -55 -57 -66 -67 -76 -77 -85 -86 -93 -94 -101 0
-45 -55 -58 -66 -67 -76 -77 -85 -86 -93 -94 -101 0
-44 -56 -57 -66 -68 -76 -77 -85 -86 -93 -94 -101 0
-45 -56 -58 -66 -68 -76 -77 -85 -86 -93 -94 -101 0
-45 -57 -58 -66 -69 -76 -77 -85 -86 -93 -94 -101 0
-44 -56 -57 -67 -68 -76 -78 -85 -86 -93 -94 -101 0
-45 -56 -58 -67 -68 -76 -78 -85 -86 -93 -94 -101 0
-45 -57 -58 -67 -69 -76 -78 -85 -86 -93 -94 -101 0
-45 -57 -58 -68 -69 -76 -79 -85 -86 -93 -94 -101 0
-44 -56 -57 -67 -68 -77 -78 -85 -87 -93 -94 -101 0
-45 -56 -58 -67 -68 -77 -78 -85 -87 -93 -94 -101 0
-45 -57 -58 -67 -69 -77 -78 -85 -87 -93 -94 -101 0
-45 -57 -58 -68 -69 -77 -79 -85 -87 -93 -94 -101 0
-45 -57 -58 -68 -69 -78 -79 -85 -88 -93 -94 -101 0
-44 -56 -57 -67 -68 -77 -78 -86 -87 -93 -95 -101 0
-45 -56 -58 -67 -68 -77 -78 -86 -87 -93 -95 -101 0
-45 -57 -58 -67 -69 -77 -78 -86 -87 -93 -95 -101 0
-45 -57 -58 -68 -69 -77 -79 -86 -87 -93 -95 -101 0
-45 -57 -58 -68 -69 -78 -79 -86 -88 -93 -95 -101 0
-45 -57 -58 -68 -69 -78 -79 -87 -88 -93 -96 -101 0
-44 -56 -57 -67 -68 -77 -78 -86 -87 -94 -95 -102 0
-45 -56 -58 -67 -68 -77 -78 -86 -87 -94 -95 -102 0
-45 -57 -58 -67 -69 -77 -78 -86 -87 -94 -95 -102 0
-45 -57 -58 -68 -69 -77 -79 -86 -87 -94 -95 -102 0
-45 -57 -58 -68 -69 -78 -79 -86 -88 -94 -95 -102 0
-45 -57 -58 -68 -69 -78 -79 -87 -88 -94 -96 -102 0
-45 -57 -58 -68 -69 -78 -79 -87 -88 -95 -96 -103 0
-44 -56 -57 -67 -68 -77 -78 -86 -87 -94 -95 -109 0
-45 -56 -58 -67 -68 -77 -78 -86 -87 -94 -95 -109 0
-45 -57 -58 -67 -69 -77 -78 -86 -87 -94 -95 -109 0
-45 -57 -58 -68 -69 -77 -79 -86 -87 -94 -95 -109 0
-45 -57 -58 -68 -69 -78 -79 -86 -88 -94 -95 -109 0
-45 -57 -58 -68 -69 -78 -79 -87 -88 -94 -96 -109 0
-45 -57 -58 -68 -69 -78 -79 -87 -88 -95 -96 -110 0
-45 -57 -58 -68 -69 -78 -79 -87 -88 -95 -96 -116 0
-44 -56 -57 -67 -68 -77 -78 -86 -87 -102 -103 -109 0
-45 -56 -58 -67 -68 -77 -78 -86 -87 -102 -103 -109 0
-45 -57 -58 -67 -69 -77 -78 -86 -87 -102 -103 -109 0
-45 -57 -58 -68 -69 -77 -79 -86 -87 -102 -103 -109 0
-45 -57 -58 -68 -69 -78 -79 -86 -88 -102 -103 -109 0
-45 -57 -58 -68 -69 -78 -79 -87 -88 -102 -104 -109 0
-45 -57 -58 -68 -69 -78 -79 -87 -88 -103 -104 -110 0
-45 -57 -58 -68 -69 -78 -79 -87 -88 -103 -104 -116 0
-45 -57 -58 -68 -69 -78 -79 -87 -88 -110 -111 -116 0
-44 -56 -57 -67 -68 -77 -78 -95 -96 -102 -103 -109 0
-45 -56 -58 -67 -68 -77 -78 -95 -96 -102 -103 -109 0
-45 -57 -58 -67 -69 -77 -78 -95 -96 -102 -103 -109 0
-45 -57 -58 -68 -69 -77 -79 -95 -96 -102 -103 -109 0
-45 -57 -58 -68 -69 -78 -79 -95 -97 -102 -103 -109 0
-45 -57 -58 -68 -69 -78 -79 -96 -97 -102 -104 -109 0
-45 -57 -58 -68 -69 -78 -79 -96 -97 -103 -104 -110 0
-45 -57 -58 -68 -69 -78 -79 -96 -97 -103 -104 -116 0
-45 -57 -58 -68 -69 -78 -79 -96 -97 -110 -111 -116 0
-45 -57 -58 -68 -69 -78 -79 -104 -105 -110 -111 -116 0
-44 -56 -57 -67 -68 -87 -88 -95 -96 -102 -103 -109 0
-45 -56 -58 -67 -68 -87 -88 -95 -96 -102 -103 -109 0
-45 -57 -58 -67 -69 -87 -88 -95 -96 -102 -103 -109 0
-45 -57 -58 -68 -69 -87 -89 -95 -96 -102 -103 -109 0
-45 -57 -58 -68 -69 -88 -89 -95 -97 -102 -103 -109 0
-45 -57 -58 -68 -69 -88 -89 -96 -97 -102 -104 -109 0
-45 -57 -58 -68 -69 -88 -89 -96 -97 -103 -104 -110 0
-45 -57 -58 -68 -69 -88 -89 -96 -97 -103 -104 -116 0
-45 -57 -58 -68 -69 -88 -89 -96 -97 -110 -111 -116 0
-45 -57 -58 -68 -69 -88 -89 -104 -105 -110 -111 -116 0
-45 -57 -58 -68 -69 -97 -98 -104 -105 -110 -111 -116 0
-44 -56 -57 -78 -79 -87 -88 -95 -96 -102 -103 -109 0
-45 -56 -58 -78 -79 -87 -88 -95 -96 -102 -103 -109 0
-45 -57 -58 -78 -80 -87 -88 -95 -96 -102 -103 -109 0
-45 -57 -58 -79 -80 -87 -89 -95 -96 -102 -103 -109 0
-45 -57 -58 -79 -80 -88 -89 -95 -97 -102 -103 -109 0
-45 -57 -58 -79 -80 -88 -89 -96 -97 -102 -104 -109 0
-45 -57 -58 -79 -80 -88 -89 -96 -97 -103 -104 -110 0
-45 -57 -58 -79 -80 -88 -89 -96 -97 -103 -104 -116 0
-45 -57 -58 -79 -80 -88 -89 -96 -97 -110 -111 -116 0
-45 -57 -58 -79 -80 -88 -89 -104 -105 -110 -111 -116 0
-45 -57 -58 -79 -80 -97 -98 -104 -105 -110 -111 -116 0
-45 -57 -58 -89 -90 -97 -98 -104 -105 -110 -111 -116 0
-44 -68 -69 -78 -79 -87 -88 -95 -96 -102 -103 -109 0
-45 -68 -70 -78 -79 -87 -88 -95 -96 -102 -103 -109 0
-45 -69 -70 -78 -80 -87 -88 -95 -96 -102 -103 -109 0
-45 -69 -70 -79 -80 -87 -89 -95 -96 -102 -103 -109 0
-45 -69 -70 -79 -80 -88 -89 -95 -97 -102 -103 -109 0
-45 -69 -70 -79 -80 -88 -89 -96 -97 -102 -104 -109 0
-45 -69 -70 -79 -80 -88 -89 -96 -97 -103 -104 -110 0
-45 -69 -70 -79 -80 -88 -89 -96 -97 -103 -104 -116 0
-45 -69 -70 -79 -80 -88 -89 -96 -97 -110 -111 -116 0
-45 -69 -70 -79 -80 -88 -89 -104 -105 -110 -111 -116 0
-45 -69 -70 -79 -80 -97 -98 -104 -105 -110 -111 -116 0
-45 -69 -70 -89 -90 -97 -98 -104 -105 -110 -111 -116 0
-45 -80 -81 -89 -90 -97 -98 -104 -105 -110 -111 -116 0
-57 -68 -69 -78 -79 -87 -88 -95 -96 -102 -103 -109 0
-58 -68 -70 -78 -79 -87 -88 -95 -96 -102 -103 -109 0
-58 -69 -70 -78 -80 -87 -88 -95 -96 -102 -103 -109 0
-58 -69 -70 -79 -80 -87 -89 -95 -96 -102 -103 -109 0
-58 -69 -70 -79 -80 -88 -89 -95 -97 -102 -103 -109 0
-58 -69 -70 -79 -80 -88 -89 -96 -97 -102 -104 -109 0
-58 -69 -70 -79 -80 -88 -89 -96 -97 -103 -104 -110 0
-58 -69 -70 -79 -80 -88 -89 -96 -97 -103 -104 -116 0
-58 -69 -70 -79 -80 -88 -89 -96 -97 -110 -111 -116 0
-58 -69 -70 -79 -80 -88 -89 -104 -105 -110 -111 -116 0
-58 -69 -70 -79 -80 -97 -98 -104 -105 -110 -111 -116 0
-58 -69 -70 -89 -90 -97 -98 -104 -105 -110 -111 -116 0
-58 -80 -81 -89 -90 -97 -98 -104 -105 -110 -111 -116 0
-70 -80 -81 -89 -90 -97 -98 -104 -105 -110 -111 -116 0
