c Ordered Ramsey CNF instance
c n = 14, N = 18
c Positive literal = blue edge
c Negative literal = red edge
p cnf 153 3876
1 2 0
1 3 0
1 4 0
1 5 0
1 6 0
1 7 0
1 8 0
1 9 0
1 10 0
1 11 0
1 12 0
1 13 0
1 14 0
1 15 0
1 16 0
1 17 0
2 3 0
2 4 0
2 5 0
2 6 0
2 7 0
2 8 0
2 9 0
2 10 0
2 11 0
2 12 0
2 13 0
2 14 0
2 15 0
2 16 0
2 17 0
3 4 0
3 5 0
3 6 0
3 7 0
3 8 0
3 9 0
3 10 0
3 11 0
3 12 0
3 13 0
3 14 0
3 15 0
3 16 0
3 17 0
4 5 0
4 6 0
4 7 0
4 8 0
4 9 0
4 10 0
4 11 0
4 12 0
4 13 0
4 14 0
4 15 0
4 16 0
4 17 0
5 6 0
5 7 0
5 8 0
5 9 0
5 10 0
5 11 0
5 12 0
5 13 0
5 14 0
5 15 0
5 16 0
5 17 0
6 7 0
6 8 0
6 9 0
6 10 0
6 11 0
6 12 0
6 13 0
6 14 0
6 15 0
6 16 0
6 17 0
7 8 0
7 9 0
7 10 0
7 11 0
7 12 0
7 13 0
7 14 0
7 15 0
7 16 0
7 17 0
8 9 0
8 10 0
8 11 0
8 12 0
8 13 0
8 14 0
8 15 0
8 16 0
8 17 0
9 10 0
9 11 0
9 12 0
9 13 0
9 14 0
9 15 0
9 16 0
9 17 0
10 11 0
10 12 0
10 13 0
10 14 0
10 15 0
10 16 0
10 17 0
11 12 0
11 13 0
11 14 0
11 15 0
11 16 0
11 17 0
12 13 0
12 14 0
12 15 0
12 16 0
12 17 0
13 14 0
13 15 0
13 16 0
13 17 0
14 15 0
14 16 0
14 17 0
15 16 0
15 17 0
16 17 0
18 19 0
18 20 0
18 21 0
18 22 0
18 23 0
18 24 0
18 25 0
18 26 0
18 27 0
18 28 0
18 29 0
18 30 0
18 31 0
18 32 0
18 33 0
19 20 0
19 21 0
19 22 0
19 23 0
19 24 0
19 25 0
19 26 0
19 27 0
19 28 0
19 29 0
19 30 0
19 31 0
19 32 0
19 33 0
20 21 0
20 22 0
20 23 0
20 24 0
20 25 0
20 26 0
20 27 0
20 28 0
20 29 0
20 30 0
20 31 0
20 32 0
20 33 0
21 22 0
21 23 0
21 24 0
21 25 0
21 26 0
21 27 0
21 28 0
21 29 0
21 30 0
21 31 0
21 32 0
21 33 0
22 23 0
22 24 0
22 25 0
22 26 0
22 27 0
22 28 0
22 29 0
22 30 0
22 31 0
22 32 0
22 33 0
23 24 0
23 25 0
23 26 0
23 27 0
23 28 0
23 29 0
23 30 0
23 31 0
23 32 0
23 33 0
24 25 0
24 26 0
24 27 0
24 28 0
24 29 0
24 30 0
24 31 0
24 32 0
24 33 0
25 26 0
25 27 0
25 28 0
25 29 0
25 30 0
25 31 0
25 32 0
25 33 0
26 27 0
26 28 0
26 29 0
26 30 0
26 31 0
26 32 0
26 33 0
27 28 0
27 29 0
27 30 0
27 31 0
27 32 0
27 33 0
28 29 0
28 30 0
28 31 0
28 32 0
28 33 0
29 30 0
29 31 0
29 32 0
29 33 0
30 31 0
30 32 0
30 33 0
31 32 0
31 33 0
32 33 0
34 35 0
34 36 0
34 37 0
34 38 0
34 39 0
34 40 0
34 41 0
34 42 0
34 43 0
34 44 0
34 45 0
34 46 0
34 47 0
34 48 0
35 36 0
35 37 0
35 38 0
35 39 0
35 40 0
35 41 0
35 42 0
35 43 0
35 44 0
35 45 0
35 46 0
35 47 0
35 48 0
36 37 0
36 38 0
36 39 0
36 40 0
36 41 0
36 42 0
36 43 0
36 44 0
36 45 0
36 46 0
36 47 0
36 48 0
37 38 0
37 39 0
37 40 0
37 41 0
37 42 0
37 43 0
37 44 0
37 45 0
37 46 0
37 47 0
37 48 0
38 39 0
38 40 0
38 41 0
38 42 0
38 43 0
38 44 0
38 45 0
38 46 0
38 47 0
38 48 0
39 40 0
39 41 0
39 42 0
39 43 0
39 44 0
39 45 0
39 46 0
39 47 0
39 48 0
40 41 0
40 42 0
40 43 0
40 44 0
40 45 0
40 46 0
40 47 0
40 48 0
41 42 0
41 43 0
41 44 0
41 45 0
41 46 0
41 47 0
41 48 0
42 43 0
42 44 0
42 45 0
42 46 0
42 47 0
42 48 0
43 44 0
43 45 0
43 46 0
43 47 0
43 48 0
44 45 0
44 46 0
44 47 0
44 48 0
45 46 0
45 47 0
45 48 0
46 47 0
46 48 0
47 48 0
49 50 0
49 51 0
49 52 0
49 53 0
49 54 0
49 55 0
49 56 0
49 57 0
49 58 0
49 59 0
49 60 0
49 61 0
49 62 0
50 51 0
50 52 0
50 53 0
50 54 0
50 55 0
50 56 0
50 57 0
50 58 0
50 59 0
50 60 0
50 61 0
50 62 0
51 52 0
51 53 0
51 54 0
51 55 0
51 56 0
51 57 0
51 58 0
51 59 0
51 60 0
51 61 0
51 62 0
52 53 0
52 54 0
52 55 0
52 56 0
52 57 0
52 58 0
52 59 0
52 60 0
52 61 0
52 62 0
53 54 0
53 55 0
53 56 0
53 57 0
53 58 0
53 59 0
53 60 0
53 61 0
53 62 0
54 55 0
54 56 0
54 57 0
54 58 0
54 59 0
54 60 0
54 61 0
54 62 0
55 56 0
55 57 0
55 58 0
55 59 0
55 60 0
55 61 0
55 62 0
56 57 0
56 58 0
56 59 0
56 60 0
56 61 0
56 62 0
57 58 0
57 59 0
57 60 0
57 61 0
57 62 0
58 59 0
58 60 0
58 61 0
58 62 0
59 60 0
59 61 0
59 62 0
60 61 0
60 62 0
61 62 0
63 64 0
63 65 0
63 66 0
63 67 0
63 68 0
63 69 0
63 70 0
63 71 0
63 72 0
63 73 0
63 74 0
63 75 0
64 65 0
64 66 0
64 67 0
64 68 0
64 69 0
64 70 0
64 71 0
64 72 0
64 73 0
64 74 0
64 75 0
65 66 0
65 67 0
65 68 0
65 69 0
65 70 0
65 71 0
65 72 0
65 73 0
65 74 0
65 75 0
66 67 0
66 68 0
66 69 0
66 70 0
66 71 0
66 72 0
66 73 0
66 74 0
66 75 0
67 68 0
67 69 0
67 70 0
67 71 0
67 72 0
67 73 0
67 74 0
67 75 0
68 69 0
68 70 0
68 71 0
68 72 0
68 73 0
68 74 0
68 75 0
69 70 0
69 71 0
69 72 0
69 73 0
69 74 0
69 75 0
70 71 0
70 72 0
70 73 0
70 74 0
70 75 0
71 72 0
71 73 0
71 74 0
71 75 0
72 73 0
72 74 0
72 75 0
73 74 0
73 75 0
74 75 0
76 77 0
76 78 0
76 79 0
76 80 0
76 81 0
76 82 0
76 83 0
76 84 0
76 85 0
76 86 0
76 87 0
77 78 0
77 79 0
77 80 0
77 81 0
77 82 0
77 83 0
77 84 0
77 85 0
77 86 0
77 87 0
78 79 0
78 80 0
78 81 0
78 82 0
78 83 0
78 84 0
78 85 0
78 86 0
78 87 0
79 80 0
79 81 0
79 82 0
79 83 0
79 84 0
79 85 0
79 86 0
79 87 0
80 81 0
80 82 0
80 83 0
80 84 0
80 85 0
80 86 0
80 87 0
81 82 0
81 83 0
81 84 0
81 85 0
81 86 0
81 87 0
82 83 0
82 84 0
82 85 0
82 86 0
82 87 0
83 84 0
83 85 0
83 86 0
83 87 0
84 85 0
84 86 0
84 87 0
85 86 0
85 87 0
86 87 0
88 89 0
88 90 0
88 91 0
88 92 0
88 93 0
88 94 0
88 95 0
88 96 0
88 97 0
88 98 0
89 90 0
89 91 0
89 92 0
89 93 0
89 94 0
89 95 0
89 96 0
89 97 0
89 98 0
90 91 0
90 92 0
90 93 0
90 94 0
90 95 0
90 96 0
90 97 0
90 98 0
91 92 0
91 93 0
91 94 0
91 95 0
91 96 0
91 97 0
91 98 0
92 93 0
92 94 0
92 95 0
92 96 0
92 97 0
92 98 0
93 94 0
93 95 0
93 96 0
93 97 0
93 98 0
94 95 0
94 96 0
94 97 0
94 98 0
95 96 0
95 97 0
95 98 0
96 97 0
96 98 0
97 98 0
99 100 0
99 101 0
99 102 0
99 103 0
99 104 0
99 105 0
99 106 0
99 107 0
99 108 0
100 101 0
100 102 0
100 103 0
100 104 0
100 105 0
100 106 0
100 107 0
100 108 0
101 102 0
101 103 0
101 104 0
101 105 0
101 106 0
101 107 0
101 108 0
102 103 0
102 104 0
102 105 0
102 106 0
102 107 0
102 108 0
103 104 0
103 105 0
103 106 0
103 107 0
103 108 0
104 105 0
104 106 0
104 107 0
104 108 0
105 106 0
105 107 0
105 108 0
106 107 0
106 108 0
107 108 0
109 110 0
109 111 0
109 112 0
109 113 0
109 114 0
109 115 0
109 116 0
109 117 0
110 111 0
110 112 0
110 113 0
110 114 0
110 115 0
110 116 0
110 117 0
111 112 0
111 113 0
111 114 0
111 115 0
111 116 0
111 117 0
112 113 0
112 114 0
112 115 0
112 116 0
112 117 0
113 114 0
113 115 0
113 116 0
113 117 0
114 115 0
114 116 0
114 117 0
115 116 0
115 117 0
116 117 0
118 119 0
118 120 0
118 121 0
118 122 0
118 123 0
118 124 0
118 125 0
119 120 0
119 121 0
119 122 0
119 123 0
119 124 0
119 125 0
120 121 0
120 122 0
120 123 0
120 124 0
120 125 0
121 122 0
121 123 0
121 124 0
121 125 0
122 123 0
122 124 0
122 125 0
123 124 0
123 125 0
124 125 0
126 127 0
126 128 0
126 129 0
126 130 0
126 131 0
126 132 0
127 128 0
127 129 0
127 130 0
127 131 0
127 132 0
128 129 0
128 130 0
128 131 0
128 132 0
129 130 0
129 131 0
129 132 0
130 131 0
130 132 0
131 132 0
133 134 0
133 135 0
133 136 0
133 137 0
133 138 0
134 135 0
134 136 0
134 137 0
134 138 0
135 136 0
135 137 0
135 138 0
136 137 0
136 138 0
137 138 0
139 140 0
139 141 0
139 142 0
139 143 0
140 141 0
140 142 0
140 143 0
141 142 0
141 143 0
142 143 0
144 145 0
144 146 0
144 147 0
145 146 0
145 147 0
146 147 0
148 149 0
148 150 0
149 150 0
151 152 0
-13 -28 -29 -42 -43 -55 -56 -67 -68 -78 -79 -88 -89 0
-14 -28 -30 -42 -43 -55 -56 -67 -68 -78 -79 -88 -89 0
-15 -28 -31 -42 -43 -55 -56 -67 -68 -78 -79 -88 -89 0
-16 -28 -32 -42 -43 -55 -56 -67 -68 -78 -79 -88 -89 0
-17 -28 -33 -42 -43 -55 -56 -67 -68 -78 -79 -88 -89 0
-14 -29 -30 -42 -44 -55 -56 -67 -68 -78 -79 -88 -89 0
-15 -29 -31 -42 -44 -55 -56 -67 -68 -78 -79 -88 -89 0
-16 -29 -32 -42 -44 -55 -56 -67 -68 -78 -79 -88 -89 0
-17 -29 -33 -42 -44 -55 -56 -67 -68 -78 -79 -88 -89 0
-15 -30 -31 -42 -45 -55 -56 -67 -68 -78 -79 -88 -89 0
-16 -30 -32 -42 -45 -55 -56 -67 -68 -78 -79 -88 -89 0
-17 -30 -33 -42 -45 -55 -56 -67 -68 -78 -79 -88 -89 0
-16 -31 -32 -42 -46 -55 -56 -67 -68 -78 -79 -88 -89 0
-17 -31 -33 -42 -46 -55 -56 -67 -68 -78 -79 -88 -89 0
-17 -32 -33 -42 -47 -55 -56 -67 -68 -78 -79 -88 -89 0
-14 -29 -30 -43 -44 -55 -57 -67 -68 -78 -79 -88 -89 0
-15 -29 -31 -43 -44 -55 -57 -67 -68 -78 -79 -88 -89 0
-16 -29 -32 -43 -44 -55 -57 -67 -68 -78 -79 -88 -89 0
-17 -29 -33 -43 -44 -55 -57 -67 -68 -78 -79 -88 -89 0
-15 -30 -31 -43 -45 -55 -57 -67 -68 -78 -79 -88 -89 0
-16 -30 -32 -43 -45 -55 -57 -67 -68 -78 -79 -88 -89 0
-17 -30 -33 -43 -45 -55 -57 -67 -68 -78 -79 -88 -89 0
-16 -31 -32 -43 -46 -55 -57 -67 -68 -78 -79 -88 -89 0
-17 -31 -33 -43 -46 -55 -57 -67 -68 -78 -79 -88 -89 0
-17 -32 -33 -43 -47 -55 -57 -67 -68 -78 -79 -88 -89 0
-15 -30 -31 -44 -45 -55 -58 -67 -68 -78 -79 -88 -89 0
-16 -30 -32 -44 -45 -55 -58 -67 -68 -78 -79 -88 -89 0
-17 -30 -33 -44 -45 -55 -58 -67 -68 -78 -79 -88 -89 0
-16 -31 -32 -44 -46 -55 -58 -67 -68 -78 -79 -88 -89 0
-17 -31 -33 -44 -46 -55 -58 -67 -68 -78 -79 -88 -89 0
-17 -32 -33 -44 -47 -55 -58 -67 -68 -78 -79 -88 -89 0
-16 -31 -32 -45 -46 -55 -59 -67 -68 -78 -79 -88 -89 0
-17 -31 -33 -45 -46 -55 -59 -67 -68 -78 -79 -88 -89 0
-17 -32 -33 -45 -47 -55 -59 -67 -68 -78 -79 -88 -89 0
-17 -32 -33 -46 -47 -55 -60 -67 -68 -78 -79 -88 -89 0
-14 -29 -30 -43 -44 -56 -57 -67 -69 -78 -79 -88 -89 0
-15 -29 -31 -43 -44 -56 -57 -67 -69 -78 -79 -88 -89 0
-16 -29 -32 -43 -44 -56 -57 -67 -69 -78 -79 -88 -89 0
-17 -29 -33 -43 -44 -56 -57 -67 -69 -78 -79 -88 -89 0
-15 -30 -31 -43 -45 -56 -57 -67 -69 -78 -79 -88 -89 0
-16 -30 -32 -43 -45 -56 -57 -67 -69 -78 -79 -88 -89 0
-17 -30 -33 -43 -45 -56 -57 -67 -69 -78 -79 -88 -89 0
-16 -31 -32 -43 -46 -56 -57 -67 -69 -78 -79 -88 -89 0
-17 -31 -33 -43 -46 -56 -57 -67 -69 -78 -79 -88 -89 0
-17 -32 -33 -43 -47 -56 -57 -67 -69 -78 -79 -88 -89 0
-15 -30 -31 -44 -45 -56 -58 -67 -69 -78 -79 -88 -89 0
-16 -30 -32 -44 -45 -56 -58 -67 -69 -78 -79 -88 -89 0
-17 -30 -33 -44 -45 -56 -58 -67 -69 -78 -79 -88 -89 0
-16 -31 -32 -44 -46 -56 -58 -67 -69 -78 -79 -88 -89 0
-17 -31 -33 -44 -46 -56 -58 -67 -69 -78 -79 -88 -89 0
-17 -32 -33 -44 -47 -56 -58 -67 -69 -78 -79 -88 -89 0
-16 -31 -32 -45 -46 -56 -59 -67 -69 -78 -79 -88 -89 0
-17 -31 -33 -45 -46 -56 -59 -67 -69 -78 -79 -88 -89 0
-17 -32 -33 -45 -47 -56 -59 -67 -69 -78 -79 -88 -89 0
-17 -32 -33 -46 -47 -56 -60 -67 -69 -78 -79 -88 -89 0
-15 -30 -31 -44 -45 -57 -58 -67 -70 -78 -79 -88 -89 0
-16 -30 -32 -44 -45 -57 -58 -67 -70 -78 -79 -88 -89 0
-17 -30 -33 -44 -45 -57 -58 -67 -70 -78 -79 -88 -89 0
-16 -31 -32 -44 -46 -57 -58 -67 -70 -78 -79 -88 -89 0
-17 -31 -33 -44 -46 -57 -58 -67 -70 -78 -79 -88 -89 0
-17 -32 -33 -44 -47 -57 -58 -67 -70 -78 -79 -88 -89 0
-16 -31 -32 -45 -46 -57 -59 -67 -70 -78 -79 -88 -89 0
-17 -31 -33 -45 -46 -57 -59 -67 -70 -78 -79 -88 -89 0
-17 -32 -33 -45 -47 -57 -59 -67 -70 -78 -79 -88 -89 0
-17 -32 -33 -46 -47 -57 -60 -67 -70 -78 -79 -88 -89 0
-16 -31 -32 -45 -46 -58 -59 -67 -71 -78 -79 -88 -89 0
-17 -31 -33 -45 -46 -58 -59 -67 -71 -78 -79 -88 -89 0
-17 -32 -33 -45 -47 -58 -59 -67 -71 -78 -79 -88 -89 0
-17 -32 -33 -46 -47 -58 -60 -67 -71 -78 -79 -88 -89 0
-17 -32 -33 -46 -47 -59 -60 -67 -72 -78 -79 -88 -89 0
-14 -29 -30 -43 -44 -56 -57 -68 -69 -78 -80 -88 -89 0
-15 -29 -31 -43 -44 -56 -57 -68 -69 -78 -80 -88 -89 0
-16 -29 -32 -43 -44 -56 -57 -68 -69 -78 -80 -88 -89 0
-17 -29 -33 -43 -44 -56 -57 -68 -69 -78 -80 -88 -89 0
-15 -30 -31 -43 -45 -56 -57 -68 -69 -78 -80 -88 -89 0
-16 -30 -32 -43 -45 -56 -57 -68 -69 -78 -80 -88 -89 0
-17 -30 -33 -43 -45 -56 -57 -68 -69 -78 -80 -88 -89 0
-16 -31 -32 -43 -46 -56 -57 -68 -69 -78 -80 -88 -89 0
-17 -31 -33 -43 -46 -56 -57 -68 -69 -78 -80 -88 -89 0
-17 -32 -33 -43 -47 -56 -57 -68 -69 -78 -80 -88 -89 0
-15 -30 -31 -44 -45 -56 -58 -68 -69 -78 -80 -88 -89 0
-16 -30 -32 -44 -45 -56 -58 -68 -69 -78 -80 -88 -89 0
-17 -30 -33 -44 -45 -56 -58 -68 -69 -78 -80 -88 -89 0
-16 -31 -32 -44 -46 -56 -58 -68 -69 -78 -80 -88 -89 0
-17 -31 -33 -44 -46 -56 -58 -68 -69 -78 -80 -88 -89 0
-17 -32 -33 -44 -47 -56 -58 -68 -69 -78 -80 -88 -89 0
-16 -31 -32 -45 -46 -56 -59 -68 -69 -78 -80 -88 -89 0
-17 -31 -33 -45 -46 -56 -59 -68 -69 -78 -80 -88 -89 0
-17 -32 -33 -45 -47 -56 -59 -68 -69 -78 -80 -88 -89 0
-17 -32 -33 -46 -47 -56 -60 -68 -69 -78 -80 -88 -89 0
-15 -30 -31 -44 -45 -57 -58 -68 -70 -78 -80 -88 -89 0
-16 -30 -32 -44 -45 -57 -58 -68 -70 -78 -80 -88 -89 0
-17 -30 -33 -44 -45 -57 -58 -68 -70 -78 -80 -88 -89 0
-16 -31 -32 -44 -46 -57 -58 -68 -70 -78 -80 -88 -89 0
-17 -31 -33 -44 -46 -57 -58 -68 -70 -78 -80 -88 -89 0
-17 -32 -33 -44 -47 -57 -58 -68 -70 -78 -80 -88 -89 0
-16 -31 -32 -45 -46 -57 -59 -68 -70 -78 -80 -88 -89 0
-17 -31 -33 -45 -46 -57 -59 -68 -70 -78 -80 -88 -89 0
-17 -32 -33 -45 -47 -57 -59 -68 -70 -78 -80 -88 -89 0
-17 -32 -33 -46 -47 -57 -60 -68 -70 -78 -80 -88 -89 0
-16 -31 -32 -45 -46 -58 -59 -68 -71 -78 -80 -88 -89 0
-17 -31 -33 -45 -46 -58 -59 -68 -71 -78 -80 -88 -89 0
-17 -32 -33 -45 -47 -58 -59 -68 -71 -78 -80 -88 -89 0
-17 -32 -33 -46 -47 -58 -60 -68 -71 -78 -80 -88 -89 0
-17 -32 -33 -46 -47 -59 -60 -68 -72 -78 -80 -88 -89 0
-15 -30 -31 -44 -45 -57 -58 -69 -70 -78 -81 -88 -89 0
-16 -30 -32 -44 -45 -57 -58 -69 -70 -78 -81 -88 -89 0
-17 -30 -33 -44 -45 -57 -58 -69 -70 -78 -81 -88 -89 0
-16 -31 -32 -44 -46 -57 -58 -69 -70 -78 -81 -88 -89 0
-17 -31 -33 -44 -46 -57 -58 -69 -70 -78 -81 -88 -89 0
-17 -32 -33 -44 -47 -57 -58 -69 -70 -78 -81 -88 -89 0
-16 -31 -32 -45 -46 -57 -59 -69 -70 -78 -81 -88 -89 0
-17 -31 -33 -45 -46 -57 -59 -69 -70 -78 -81 -88 -89 0
-17 -32 -33 -45 -47 -57 -59 -69 -70 -78 -81 -88 -89 0
-17 -32 -33 -46 -47 -57 -60 -69 -70 -78 -81 -88 -89 0
-16 -31 -32 -45 -46 -58 -59 -69 -71 -78 -81 -88 -89 0
-17 -31 -33 -45 -46 -58 -59 -69 -71 -78 -81 -88 -89 0
-17 -32 -33 -45 -47 -58 -59 -69 -71 -78 -81 -88 -89 0
-17 -32 -33 -46 -47 -58 -60 -69 -71 -78 -81 -88 -89 0
-17 -32 -33 -46 -47 -59 -60 -69 -72 -78 -81 -88 -89 0
-16 -31 -32 -45 -46 -58 -59 -70 -71 -78 -82 -88 -89 0
-17 -31 -33 -45 -46 -58 -59 -70 -71 -78 -82 -88 -89 0
-17 -32 -33 -45 -47 -58 -59 -70 -71 -78 -82 -88 -89 0
-17 -32 -33 -46 -47 -58 -60 -70 -71 -78 -82 -88 -89 0
-17 -32 -33 -46 -47 -59 -60 -70 -72 -78 -82 -88 -89 0
-17 -32 -33 -46 -47 -59 -60 -71 -72 -78 -83 -88 -89 0
-14 -29 -30 -43 -44 -56 -57 -68 -69 -79 -80 -88 -90 0
-15 -29 -31 -43 -44 -56 -57 -68 -69 -79 -80 -88 -90 0
-16 -29 -32 -43 -44 -56 -57 -68 -69 -79 -80 -88 -90 0
-17 -29 -33 -43 -44 -56 -57 -68 -69 -79 -80 -88 -90 0
-15 -30 -31 -43 -45 -56 -57 -68 -69 -79 -80 -88 -90 0
-16 -30 -32 -43 -45 -56 -57 -68 -69 -79 -80 -88 -90 0
-17 -30 -33 -43 -45 -56 -57 -68 -69 -79 -80 -88 -90 0
-16 -31 -32 -43 -46 -56 -57 -68 -69 -79 -80 -88 -90 0
-17 -31 -33 -43 -46 -56 -57 -68 -69 -79 -80 -88 -90 0
-17 -32 -33 -43 -47 -56 -57 -68 -69 -79 -80 -88 -90 0
-15 -30 -31 -44 -45 -56 -58 -68 -69 -79 -80 -88 -90 0
-16 -30 -32 -44 -45 -56 -58 -68 -69 -79 -80 -88 -90 0
-17 -30 -33 -44 -45 -56 -58 -68 -69 -79 -80 -88 -90 0
-16 -31 -32 -44 -46 -56 -58 -68 -69 -79 -80 -88 -90 0
-17 -31 -33 -44 -46 -56 -58 -68 -69 -79 -80 -88 -90 0
-17 -32 -33 -44 -47 -56 -58 -68 -69 -79 -80 -88 -90 0
-16 -31 -32 -45 -46 -56 -59 -68 -69 -79 -80 -88 -90 0
-17 -31 -33 -45 -46 -56 -59 -68 -69 -79 -80 -88 -90 0
-17 -32 -33 -45 -47 -56 -59 -68 -69 -79 -80 -88 -90 0
-17 -32 -33 -46 -47 -56 -60 -68 -69 -79 -80 -88 -90 0
-15 -30 -31 -44 -45 -57 -58 -68 -70 -79 -80 -88 -90 0
-16 -30 -32 -44 -45 -57 -58 -68 -70 -79 -80 -88 -90 0
-17 -30 -33 -44 -45 -57 -58 -68 -70 -79 -80 -88 -90 0
-16 -31 -32 -44 -46 -57 -58 -68 -70 -79 -80 -88 -90 0
-17 -31 -33 -44 -46 -57 -58 -68 -70 -79 -80 -88 -90 0
-17 -32 -33 -44 -47 -57 -58 -68 -70 -79 -80 -88 -90 0
-16 -31 -32 -45 -46 -57 -59 -68 -70 -79 -80 -88 -90 0
-17 -31 -33 -45 -46 -57 -59 -68 -70 -79 -80 -88 -90 0
-17 -32 -33 -45 -47 -57 -59 -68 -70 -79 -80 -88 -90 0
-17 -32 -33 -46 -47 -57 -60 -68 -70 -79 -80 -88 -90 0
-16 -31 -32 -45 -46 -58 -59 -68 -71 -79 -80 -88 -90 0
-17 -31 -33 -45 -46 -58 -59 -68 -71 -79 -80 -88 -90 0
-17 -32 -33 -45 -47 -58 -59 -68 -71 -79 -80 -88 -90 0
-17 -32 -33 -46 -47 -58 -60 -68 -71 -79 -80 -88 -90 0
-17 -32 -33 -46 -47 -59 -60 -68 -72 -79 -80 -88 -90 0
-15 -30 -31 -44 -45 -57 -58 -69 -70 -79 -81 -88 -90 0
-16 -30 -32 -44 -45 -57 -58 -69 -70 -79 -81 -88 -90 0
-17 -30 -33 -44 -45 -57 -58 -69 -70 -79 -81 -88 -90 0
-16 -31 -32 -44 -46 -57 -58 -69 -70 -79 -81 -88 -90 0
-17 -31 -33 -44 -46 -57 -58 -69 -70 -79 -81 -88 -90 0
-17 -32 -33 -44 -47 -57 -58 -69 -70 -79 -81 -88 -90 0
-16 -31 -32 -45 -46 -57 -59 -69 -70 -79 -81 -88 -90 0
-17 -31 -33 -45 -46 -57 -59 -69 -70 -79 -81 -88 -90 0
-17 -32 -33 -45 -47 -57 -59 -69 -70 -79 -81 -88 -90 0
-17 -32 -33 -46 -47 -57 -60 -69 -70 -79 -81 -88 -90 0
-16 -31 -32 -45 -46 -58 -59 -69 -71 -79 -81 -88 -90 0
-17 -31 -33 -45 -46 -58 -59 -69 -71 -79 -81 -88 -90 0
-17 -32 -33 -45 -47 -58 -59 -69 -71 -79 -81 -88 -90 0
-17 -32 -33 -46 -47 -58 -60 -69 -71 -79 -81 -88 -90 0
-17 -32 -33 -46 -47 -59 -60 -69 -72 -79 -81 -88 -90 0
-16 -31 -32 -45 -46 -58 -59 -70 -71 -79 -82 -88 -90 0
-17 -31 -33 -45 -46 -58 -59 -70 -71 -79 -82 -88 -90 0
-17 -32 -33 -45 -47 -58 -59 -70 -71 -79 -82 -88 -90 0
-17 -32 -33 -46 -47 -58 -60 -70 -71 -79 -82 -88 -90 0
-17 -32 -33 -46 -47 -59 -60 -70 -72 -79 -82 -88 -90 0
-17 -32 -33 -46 -47 -59 -60 -71 -72 -79 -83 -88 -90 0
-15 -30 -31 -44 -45 -57 -58 -69 -70 -80 -81 -88 -91 0
-16 -30 -32 -44 -45 -57 -58 -69 -70 -80 -81 -88 -91 0
-17 -30 -33 -44 -45 -57 -58 -69 -70 -80 -81 -88 -91 0
-16 -31 -32 -44 -46 -57 -58 -69 -70 -80 -81 -88 -91 0
-17 -31 -33 -44 -46 -57 -58 -69 -70 -80 -81 -88 -91 0
-17 -32 -33 -44 -47 -57 -58 -69 -70 -80 -81 -88 -91 0
-16 -31 -32 -45 -46 -57 -59 -69 -70 -80 -81 -88 -91 0
-17 -31 -33 -45 -46 -57 -59 -69 -70 -80 -81 -88 -91 0
-17 -32 -33 -45 -47 -57 -59 -69 -70 -80 -81 -88 -91 0
-17 -32 -33 -46 -47 -57 -60 -69 -70 -80 -81 -88 -91 0
-16 -31 -32 -45 -46 -58 -59 -69 -71 -80 -81 -88 -91 0
-17 -31 -33 -45 -46 -58 -59 -69 -71 -80 -81 -88 -91 0
-17 -32 -33 -45 -47 -58 -59 -69 -71 -80 -81 -88 -91 0
-17 -32 -33 -46 -47 -58 -60 -69 -71 -80 -81 -88 -91 0
-17 -32 -33 -46 -47 -59 -60 -69 -72 -80 -81 -88 -91 0
-16 -31 -32 -45 -46 -58 -59 -70 -71 -80 -82 -88 -91 0
-17 -31 -33 -45 -46 -58 -59 -70 -71 -80 -82 -88 -91 0
-17 -32 -33 -45 -47 -58 -59 -70 -71 -80 -82 -88 -91 0
-17 -32 -33 -46 -47 -58 -60 -70 -71 -80 -82 -88 -91 0
-17 -32 -33 -46 -47 -59 -60 -70 -72 -80 -82 -88 -91 0
-17 -32 -33 -46 -47 -59 -60 -71 -72 -80 -83 -88 -91 0
-16 -31 -32 -45 -46 -58 -59 -70 -71 -81 -82 -88 -92 0
-17 -31 -33 -45 -46 -58 -59 -70 -71 -81 -82 -88 -92 0
-17 -32 -33 -45 -47 -58 -59 -70 -71 -81 -82 -88 -92 0
-17 -32 -33 -46 -47 -58 -60 -70 -71 -81 -82 -88 -92 0
-17 -32 -33 -46 -47 -59 -60 -70 -72 -81 -82 -88 -92 0
-17 -32 -33 -46 -47 -59 -60 -71 -72 -81 -83 -88 -92 0
-17 -32 -33 -46 -47 -59 -60 -71 -72 -82 -83 -88 -93 0
-14 -29 -30 -43 -44 -56 -57 -68 -69 -79 -80 -89 -90 0
-15 -29 -31 -43 -44 -56 -57 -68 -69 -79 -80 -89 -90 0
-16 -29 -32 -43 -44 -56 -57 -68 -69 -79 -80 -89 -90 0
-17 -29 -33 -43 -44 -56 -57 -68 -69 -79 -80 -89 -90 0
-15 -30 -31 -43 -45 -56 -57 -68 -69 -79 -80 -89 -90 0
-16 -30 -32 -43 -45 -56 -57 -68 -69 -79 -80 -89 -90 0
-17 -30 -33 -43 -45 -56 -57 -68 -69 -79 -80 -89 -90 0
-16 -31 -32 -43 -46 -56 -57 -68 -69 -79 -80 -89 -90 0
-17 -31 -33 -43 -46 -56 -57 -68 -69 -79 -80 -89 -90 0
-17 -32 -33 -43 -47 -56 -57 -68 -69 -79 -80 -89 -90 0
-15 -30 -31 -44 -45 -56 -58 -68 -69 -79 -80 -89 -90 0
-16 -30 -32 -44 -45 -56 -58 -68 -69 -79 -80 -89 -90 0
-17 -30 -33 -44 -45 -56 -58 -68 -69 -79 -80 -89 -90 0
-16 -31 -32 -44 -46 -56 -58 -68 -69 -79 -80 -89 -90 0
-17 -31 -33 -44 -46 -56 -58 -68 -69 -79 -80 -89 -90 0
-17 -32 -33 -44 -47 -56 -58 -68 -69 -79 -80 -89 -90 0
-16 -31 -32 -45 -46 -56 -59 -68 -69 -79 -80 -89 -90 0
-17 -31 -33 -45 -46 -56 -59 -68 -69 -79 -80 -89 -90 0
-17 -32 -33 -45 -47 -56 -59 -68 -69 -79 -80 -89 -90 0
-17 -32 -33 -46 -47 -56 -60 -68 -69 -79 -80 -89 -90 0
-15 -30 -31 -44 -45 -57 -58 -68 -70 -79 -80 -89 -90 0
-16 -30 -32 -44 -45 -57 -58 -68 -70 -79 -80 -89 -90 0
-17 -30 -33 -44 -45 -57 -58 -68 -70 -79 -80 -89 -90 0
-16 -31 -32 -44 -46 -57 -58 -68 -70 -79 -80 -89 -90 0
-17 -31 -33 -44 -46 -57 -58 -68 -70 -79 -80 -89 -90 0
-17 -32 -33 -44 -47 -57 -58 -68 -70 -79 -80 -89 -90 0
-16 -31 -32 -45 -46 -57 -59 -68 -70 -79 -80 -89 -90 0
-17 -31 -33 -45 -46 -57 -59 -68 -70 -79 -80 -89 -90 0
-17 -32 -33 -45 -47 -57 -59 -68 -70 -79 -80 -89 -90 0
-17 -32 -33 -46 -47 -57 -60 -68 -70 -79 -80 -89 -90 0
-16 -31 -32 -45 -46 -58 -59 -68 -71 -79 -80 -89 -90 0
-17 -31 -33 -45 -46 -58 -59 -68 -71 -79 -80 -89 -90 0
-17 -32 -33 -45 -47 -58 -59 -68 -71 -79 -80 -89 -90 0
-17 -32 -33 -46 -47 -58 -60 -68 -71 -79 -80 -89 -90 0
-17 -32 -33 -46 -47 -59 -60 -68 -72 -79 -80 -89 -90 0
-15 -30 -31 -44 -45 -57 -58 -69 -70 -79 -81 -89 -90 0
-16 -30 -32 -44 -45 -57 -58 -69 -70 -79 -81 -89 -90 0
-17 -30 -33 -44 -45 -57 -58 -69 -70 -79 -81 -89 -90 0
-16 -31 -32 -44 -46 -57 -58 -69 -70 -79 -81 -89 -90 0
-17 -31 -33 -44 -46 -57 -58 -69 -70 -79 -81 -89 -90 0
-17 -32 -33 -44 -47 -57 -58 -69 -70 -79 -81 -89 -90 0
-16 -31 -32 -45 -46 -57 -59 -69 -70 -79 -81 -89 -90 0
-17 -31 -33 -45 -46 -57 -59 -69 -70 -79 -81 -89 -90 0
-17 -32 -33 -45 -47 -57 -59 -69 -70 -79 -81 -89 -90 0
-17 -32 -33 -46 -47 -57 -60 -69 -70 -79 -81 -89 -90 0
-16 -31 -32 -45 -46 -58 -59 -69 -71 -79 -81 -89 -90 0
-17 -31 -33 -45 -46 -58 -59 -69 -71 -79 -81 -89 -90 0
-17 -32 -33 -45 -47 -58 -59 -69 -71 -79 -81 -89 -90 0
-17 -32 -33 -46 -47 -58 -60 -69 -71 -79 -81 -89 -90 0
-17 -32 -33 -46 -47 -59 -60 -69 -72 -79 -81 -89 -90 0
-16 -31 -32 -45 -46 -58 -59 -70 -71 -79 -82 -89 -90 0
-17 -31 -33 -45 -46 -58 -59 -70 -71 -79 -82 -89 -90 0
-17 -32 -33 -45 -47 -58 -59 -70 -71 -79 -82 -89 -90 0
-17 -32 -33 -46 -47 -58 -60 -70 -71 -79 -82 -89 -90 0
-17 -32 -33 -46 -47 -59 -60 -70 -72 -79 -82 -89 -90 0
-17 -32 -33 -46 -47 -59 -60 -71 -72 -79 -83 -89 -90 0
-15 -30 -31 -44 -45 -57 -58 -69 -70 -80 -81 -89 -91 0
-16 -30 -32 -44 -45 -57 -58 -69 -70 -80 -81 -89 -91 0
-17 -30 -33 -44 -45 -57 -58 -69 -70 -80 -81 -89 -91 0
-16 -31 -32 -44 -46 -57 -58 -69 -70 -80 -81 -89 -91 0
-17 -31 -33 -44 -46 -57 -58 -69 -70 -80 -81 -89 -91 0
-17 -32 -33 -44 -47 -57 -58 -69 -70 -80 -81 -89 -91 0
-16 -31 -32 -45 -46 -57 -59 -69 -70 -80 -81 -89 -91 0
-17 -31 -33 -45 -46 -57 -59 -69 -70 -80 -81 -89 -91 0
-17 -32 -33 -45 -47 -57 -59 -69 -70 -80 -81 -89 -91 0
-17 -32 -33 -46 -47 -57 -60 -69 -70 -80 -81 -89 -91 0
-16 -31 -32 -45 -46 -58 -59 -69 -71 -80 -81 -89 -91 0
-17 -31 -33 -45 -46 -58 -59 -69 -71 -80 -81 -89 -91 0
-17 -32 -33 -45 -47 -58 -59 -69 -71 -80 -81 -89 -91 0
-17 -32 -33 -46 -47 -58 -60 -69 -71 -80 -81 -89 -91 0
-17 -32 -33 -46 -47 -59 -60 -69 -72 -80 -81 -89 -91 0
-16 -31 -32 -45 -46 -58 -59 -70 -71 -80 -82 -89 -91 0
-17 -31 -33 -45 -46 -58 -59 -70 -71 -80 -82 -89 -91 0
-17 -32 -33 -45 -47 -58 -59 -70 -71 -80 -82 -89 -91 0
-17 -32 -33 -46 -47 -58 -60 -70 -71 -80 -82 -89 -91 0
-17 -32 -33 -46 -47 -59 -60 -70 -72 -80 -82 -89 -91 0
-17 -32 -33 -46 -47 -59 -60 -71 -72 -80 -83 -89 -91 0
-16 -31 -32 -45 -46 -58 -59 -70 -71 -81 -82 -89 -92 0
-17 -31 -33 -45 -46 -58 -59 -70 -71 -81 -82 -89 -92 0
-17 -32 -33 -45 -47 -58 -59 -70 -71 -81 -82 -89 -92 0
-17 -32 -33 -46 -47 -58 -60 -70 -71 -81 -82 -89 -92 0
-17 -32 -33 -46 -47 -59 -60 -70 -72 -81 -82 -89 -92 0
-17 -32 -33 -46 -47 -59 -60 -71 -72 -81 -83 -89 -92 0
-17 -32 -33 -46 -47 -59 -60 -71 -72 -82 -83 -89 -93 0
-15 -30 -31 -44 -45 -57 -58 -69 -70 -80 -81 -90 -91 0
-16 -30 -32 -44 -45 -57 -58 -69 -70 -80 -81 -90 -91 0
-17 -30 -33 -44 -45 -57 -58 -69 -70 -80 -81 -90 -91 0
-16 -31 -32 -44 -46 -57 -58 -69 -70 -80 -81 -90 -91 0
-17 -31 -33 -44 -46 -57 -58 -69 -70 -80 -81 -90 -91 0
-17 -32 -33 -44 -47 -57 -58 -69 -70 -80 -81 -90 -91 0
-16 -31 -32 -45 -46 -57 -59 -69 -70 -80 -81 -90 -91 0
-17 -31 -33 -45 -46 -57 -59 -69 -70 -80 -81 -90 -91 0
-17 -32 -33 -45 -47 -57 -59 -69 -70 -80 -81 -90 -91 0
-17 -32 -33 -46 -47 -57 -60 -69 -70 -80 -81 -90 -91 0
-16 -31 -32 -45 -46 -58 -59 -69 -71 -80 -81 -90 -91 0
-17 -31 -33 -45 -46 -58 -59 -69 -71 -80 -81 -90 -91 0
-17 -32 -33 -45 -47 -58 -59 -69 -71 -80 -81 -90 -91 0
-17 -32 -33 -46 -47 -58 -60 -69 -71 -80 -81 -90 -91 0
-17 -32 -33 -46 -47 -59 -60 -69 -72 -80 -81 -90 -91 0
-16 -31 -32 -45 -46 -58 -59 -70 -71 -80 -82 -90 -91 0
-17 -31 -33 -45 -46 -58 -59 -70 -71 -80 -82 -90 -91 0
-17 -32 -33 -45 -47 -58 -59 -70 -71 -80 -82 -90 -91 0
-17 -32 -33 -46 -47 -58 -60 -70 -71 -80 -82 -90 -91 0
-17 -32 -33 -46 -47 -59 -60 -70 -72 -80 -82 -90 -91 0
-17 -32 -33 -46 -47 -59 -60 -71 -72 -80 -83 -90 -91 0
-16 -31 -32 -45 -46 -58 -59 -70 -71 -81 -82 -90 -92 0
-17 -31 -33 -45 -46 -58 -59 -70 -71 -81 -82 -90 -92 0
-17 -32 -33 -45 -47 -58 -59 -70 -71 -81 -82 -90 -92 0
-17 -32 -33 -46 -47 -58 -60 -70 -71 -81 -82 -90 -92 0
-17 -32 -33 -46 -47 -59 -60 -70 -72 -81 -82 -90 -92 0
-17 -32 -33 -46 -47 -59 -60 -71 -72 -81 -83 -90 -92 0
-17 -32 -33 -46 -47 -59 -60 -71 -72 -82 -83 -90 -93 0
-16 -31 -32 -45 -46 -58 -59 -70 -71 -81 -82 -91 -92 0
-17 -31 -33 -45 -46 -58 -59 -70 -71 -81 -82 -91 -92 0
-17 -32 -33 -45 -47 -58 -59 -70 -71 -81 -82 -91 -92 0
-17 -32 -33 -46 -47 -58 -60 -70 -71 -81 -82 -91 -92 0
-17 -32 -33 -46 -47 -59 -60 -70 -72 -81 -82 -91 -92 0
-17 -32 -33 -46 -47 -59 -60 -71 -72 -81 -83 -91 -92 0
-17 -32 -33 -46 -47 -59 -60 -71 -72 -82 -83 -91 -93 0
-17 -32 -33 -46 -47 -59 -60 -71 -72 -82 -83 -92 -93 0
-14 -29 -30 -43 -44 -56 -57 -68 -69 -79 -80 -99 -100 0
-15 -29 -31 -43 -44 -56 -57 -68 -69 -79 -80 -99 -100 0
-16 -29 -32 -43 -44 -56 -57 -68 -69 -79 -80 -99 -100 0
-17 -29 -33 -43 -44 -56 -57 -68 -69 -79 -80 -99 -100 0
-15 -30 -31 -43 -45 -56 -57 -68 -69 -79 -80 -99 -100 0
-16 -30 -32 -43 -45 -56 -57 -68 -69 -79 -80 -99 -100 0
-17 -30 -33 -43 -45 -56 -57 -68 -69 -79 -80 -99 -100 0
-16 -31 -32 -43 -46 -56 -57 -68 -69 -79 -80 -99 -100 0
-17 -31 -33 -43 -46 -56 -57 -68 -69 -79 -80 -99 -100 0
-17 -32 -33 -43 -47 -56 -57 -68 -69 -79 -80 -99 -100 0
-15 -30 -31 -44 -45 -56 -58 -68 -69 -79 -80 -99 -100 0
-16 -30 -32 -44 -45 -56 -58 -68 -69 -79 -80 -99 -100 0
-17 -30 -33 -44 -45 -56 -58 -68 -69 -79 -80 -99 -100 0
-16 -31 -32 -44 -46 -56 -58 -68 -69 -79 -80 -99 -100 0
-17 -31 -33 -44 -46 -56 -58 -68 -69 -79 -80 -99 -100 0
-17 -32 -33 -44 -47 -56 -58 -68 -69 -79 -80 -99 -100 0
-16 -31 -32 -45 -46 -56 -59 -68 -69 -79 -80 -99 -100 0
-17 -31 -33 -45 -46 -56 -59 -68 -69 -79 -80 -99 -100 0
-17 -32 -33 -45 -47 -56 -59 -68 -69 -79 -80 -99 -100 0
-17 -32 -33 -46 -47 -56 -60 -68 -69 -79 -80 -99 -100 0
-15 -30 -31 -44 -45 -57 -58 -68 -70 -79 -80 -99 -100 0
-16 -30 -32 -44 -45 -57 -58 -68 -70 -79 -80 -99 -100 0
-17 -30 -33 -44 -45 -57 -58 -68 -70 -79 -80 -99 -100 0
-16 -31 -32 -44 -46 -57 -58 -68 -70 -79 -80 -99 -100 0
-17 -31 -33 -44 -46 -57 -58 -68 -70 -79 -80 -99 -100 0
-17 -32 -33 -44 -47 -57 -58 -68 -70 -79 -80 -99 -100 0
-16 -31 -32 -45 -46 -57 -59 -68 -70 -79 -80 -99 -100 0
-17 -31 -33 -45 -46 -57 -59 -68 -70 -79 -80 -99 -100 0
-17 -32 -33 -45 -47 -57 -59 -68 -70 -79 -80 -99 -100 0
-17 -32 -33 -46 -47 -57 -60 -68 -70 -79 -80 -99 -100 0
-16 -31 -32 -45 -46 -58 -59 -68 -71 -79 -80 -99 -100 0
-17 -31 -33 -45 -46 -58 -59 -68 -71 -79 -80 -99 -100 0
-17 -32 -33 -45 -47 -58 -59 -68 -71 -79 -80 -99 -100 0
-17 -32 -33 -46 -47 -58 -60 -68 -71 -79 -80 -99 -100 0
-17 -32 -33 -46 -47 -59 -60 -68 -72 -79 -80 -99 -100 0
-15 -30 -31 -44 -45 -57 -58 -69 -70 -79 -81 -99 -100 0
-16 -30 -32 -44 -45 -57 -58 -69 -70 -79 -81 -99 -100 0
-17 -30 -33 -44 -45 -57 -58 -69 -70 -79 -81 -99 -100 0
-16 -31 -32 -44 -46 -57 -58 -69 -70 -79 -81 -99 -100 0
-17 -31 -33 -44 -46 -57 -58 -69 -70 -79 -81 -99 -100 0
-17 -32 -33 -44 -47 -57 -58 -69 -70 -79 -81 -99 -100 0
-16 -31 -32 -45 -46 -57 -59 -69 -70 -79 -81 -99 -100 0
-17 -31 -33 -45 -46 -57 -59 -69 -70 -79 -81 -99 -100 0
-17 -32 -33 -45 -47 -57 -59 -69 -70 -79 -81 -99 -100 0
-17 -32 -33 -46 -47 -57 -60 -69 -70 -79 -81 -99 -100 0
-16 -31 -32 -45 -46 -58 -59 -69 -71 -79 -81 -99 -100 0
-17 -31 -33 -45 -46 -58 -59 -69 -71 -79 -81 -99 -100 0
-17 -32 -33 -45 -47 -58 -59 -69 -71 -79 -81 -99 -100 0
-17 -32 -33 -46 -47 -58 -60 -69 -71 -79 -81 -99 -100 0
-17 -32 -33 -46 -47 -59 -60 -69 -72 -79 -81 -99 -100 0
-16 -31 -32 -45 -46 -58 -59 -70 -71 -79 -82 -99 -100 0
-17 -31 -33 -45 -46 -58 -59 -70 -71 -79 -82 -99 -100 0
-17 -32 -33 -45 -47 -58 -59 -70 -71 -79 -82 -99 -100 0
-17 -32 -33 -46 -47 -58 -60 -70 -71 -79 -82 -99 -100 0
-17 -32 -33 -46 -47 -59 -60 -70 -72 -79 -82 -99 -100 0
-17 -32 -33 -46 -47 -59 -60 -71 -72 -79 -83 -99 -100 0
-15 -30 -31 -44 -45 -57 -58 -69 -70 -80 -81 -99 -101 0
-16 -30 -32 -44 -45 -57 -58 -69 -70 -80 -81 -99 -101 0
-17 -30 -33 -44 -45 -57 -58 -69 -70 -80 -81 -99 -101 0
-16 -31 -32 -44 -46 -57 -58 -69 -70 -80 -81 -99 -101 0
-17 -31 -33 -44 -46 -57 -58 -69 -70 -80 -81 -99 -101 0
-17 -32 -33 -44 -47 -57 -58 -69 -70 -80 -81 -99 -101 0
-16 -31 -32 -45 -46 -57 -59 -69 -70 -80 -81 -99 -101 0
-17 -31 -33 -45 -46 -57 -59 -69 -70 -80 -81 -99 -101 0
-17 -32 -33 -45 -47 -57 -59 -69 -70 -80 -81 -99 -101 0
-17 -32 -33 -46 -47 -57 -60 -69 -70 -80 -81 -99 -101 0
-16 -31 -32 -45 -46 -58 -59 -69 -71 -80 -81 -99 -101 0
-17 -31 -33 -45 -46 -58 -59 -69 -71 -80 -81 -99 -101 0
-17 -32 -33 -45 -47 -58 -59 -69 -71 -80 -81 -99 -101 0
-17 -32 -33 -46 -47 -58 -60 -69 -71 -80 -81 -99 -101 0
-17 -32 -33 -46 -47 -59 -60 -69 -72 -80 -81 -99 -101 0
-16 -31 -32 -45 -46 -58 -59 -70 -71 -80 -82 -99 -101 0
-17 -31 -33 -45 -46 -58 -59 -70 -71 -80 -82 -99 -101 0
-17 -32 -33 -45 -47 -58 -59 -70 -71 -80 -82 -99 -101 0
-17 -32 -33 -46 -47 -58 -60 -70 -71 -80 -82 -99 -101 0
-17 -32 -33 -46 -47 -59 -60 -70 -72 -80 -82 -99 -101 0
-17 -32 -33 -46 -47 -59 -60 -71 -72 -80 -83 -99 -101 0
-16 -31 -32 -45 -46 -58 -59 -70 -71 -81 -82 -99 -102 0
-17 -31 -33 -45 -46 -58 -59 -70 -71 -81 -82 -99 -102 0
-17 -32 -33 -45 -47 -58 -59 -70 -71 -81 -82 -99 -102 0
-17 -32 -33 -46 -47 -58 -60 -70 -71 -81 -82 -99 -102 0
-17 -32 -33 -46 -47 -59 -60 -70 -72 -81 -82 -99 -102 0
-17 -32 -33 -46 -47 -59 -60 -71 -72 -81 -83 -99 -102 0
-17 -32 -33 -46 -47 -59 -60 -71 -72 -82 -83 -99 -103 0
-15 -30 -31 -44 -45 -57 -58 -69 -70 -80 -81 -100 -101 0
-16 -30 -32 -44 -45 -57 -58 -69 -70 -80 -81 -100 -101 0
-17 -30 -33 -44 -45 -57 -58 -69 -70 -80 -81 -100 -101 0
-16 -31 -32 -44 -46 -57 -58 -69 -70 -80 -81 -100 -101 0
-17 -31 -33 -44 -46 -57 -58 -69 -70 -80 -81 -100 -101 0
-17 -32 -33 -44 -47 -57 -58 -69 -70 -80 -81 -100 -101 0
-16 -31 -32 -45 -46 -57 -59 -69 -70 -80 -81 -100 -101 0
-17 -31 -33 -45 -46 -57 -59 -69 -70 -80 -81 -100 -101 0
-17 -32 -33 -45 -47 -57 -59 -69 -70 -80 -81 -100 -101 0
-17 -32 -33 -46 -47 -57 -60 -69 -70 -80 -81 -100 -101 0
-16 -31 -32 -45 -46 -58 -59 -69 -71 -80 -81 -100 -101 0
-17 -31 -33 -45 -46 -58 -59 -69 -71 -80 -81 -100 -101 0
-17 -32 -33 -45 -47 -58 -59 -69 -71 -80 -81 -100 -101 0
-17 -32 -33 -46 -47 -58 -60 -69 -71 -80 -81 -100 -101 0
-17 -32 -33 -46 -47 -59 -60 -69 -72 -80 -81 -100 -101 0
-16 -31 -32 -45 -46 -58 -59 -70 -71 -80 -82 -100 -101 0
-17 -31 -33 -45 -46 -58 -59 -70 -71 -80 -82 -100 -101 0
-17 -32 -33 -45 -47 -58 -59 -70 -71 -80 -82 -100 -101 0
-17 -32 -33 -46 -47 -58 -60 -70 -71 -80 -82 -100 -101 0
-17 -32 -33 -46 -47 -59 -60 -70 -72 -80 -82 -100 -101 0
-17 -32 -33 -46 -47 -59 -60 -71 -72 -80 -83 -100 -101 0
-16 -31 -32 -45 -46 -58 -59 -70 -71 -81 -82 -100 -102 0
-17 -31 -33 -45 -46 -58 -59 -70 -71 -81 -82 -100 -102 0
-17 -32 -33 -45 -47 -58 -59 -70 -71 -81 -82 -100 -102 0
-17 -32 -33 -46 -47 -58 -60 -70 -71 -81 -82 -100 -102 0
-17 -32 -33 -46 -47 -59 -60 -70 -72 -81 -82 -100 -102 0
-17 -32 -33 -46 -47 -59 -60 -71 -72 -81 -83 -100 -102 0
-17 -32 -33 -46 -47 -59 -60 -71 -72 -82 -83 -100 -103 0
-16 -31 -32 -45 -46 -58 -59 -70 -71 -81 -82 -101 -102 0
-17 -31 -33 -45 -46 -58 -59 -70 -71 -81 -82 -101 -102 0
-17 -32 -33 -45 -47 -58 -59 -70 -71 -81 -82 -101 -102 0
-17 -32 -33 -46 -47 -58 -60 -70 -71 -81 -82 -101 -102 0
-17 -32 -33 -46 -47 -59 -60 -70 -72 -81 -82 -101 -102 0
-17 -32 -33 -46 -47 -59 -60 -71 -72 -81 -83 -101 -102 0
-17 -32 -33 -46 -47 -59 -60 -71 -72 -82 -83 -101 -103 0
-17 -32 -33 -46 -47 -59 -60 -71 -72 -82 -83 -102 -103 0
-15 -30 -31 -44 -45 -57 -58 -69 -70 -80 -81 -109 -110 0
-16 -30 -32 -44 -45 -57 -58 -69 -70 -80 -81 -109 -110 0
-17 -30 -33 -44 -45 -57 -58 -69 -70 -80 -81 -109 -110 0
-16 -31 -32 -44 -46 -57 -58 -69 -70 -80 -81 -109 -110 0
-17 -31 -33 -44 -46 -57 -58 -69 -70 -80 -81 -109 -110 0
-17 -32 -33 -44 -47 -57 -58 -69 -70 -80 -81 -109 -110 0
-16 -31 -32 -45 -46 -57 -59 -69 -70 -80 -81 -109 -110 0
-17 -31 -33 -45 -46 -57 -59 -69 -70 -80 -81 -109 -110 0
-17 -32 -33 -45 -47 -57 -59 -69 -70 -80 -81 -109 -110 0
-17 -32 -33 -46 -47 -57 -60 -69 -70 -80 -81 -109 -110 0
-16 -31 -32 -45 -46 -58 -59 -69 -71 -80 -81 -109 -110 0
-17 -31 -33 -45 -46 -58 -59 -69 -71 -80 -81 -109 -110 0
-17 -32 -33 -45 -47 -58 -59 -69 -71 -80 -81 -109 -110 0
-17 -32 -33 -46 -47 -58 -60 -69 -71 -80 -81 -109 -110 0
-17 -32 -33 -46 -47 -59 -60 -69 -72 -80 -81 -109 -110 0
-16 -31 -32 -45 -46 -58 -59 -70 -71 -80 -82 -109 -110 0
-17 -31 -33 -45 -46 -58 -59 -70 -71 -80 -82 -109 -110 0
-17 -32 -33 -45 -47 -58 -59 -70 -71 -80 -82 -109 -110 0
-17 -32 -33 -46 -47 -58 -60 -70 -71 -80 -82 -109 -110 0
-17 -32 -33 -46 -47 -59 -60 -70 -72 -80 -82 -109 -110 0
-17 -32 -33 -46 -47 -59 -60 -71 -72 -80 -83 -109 -110 0
-16 -31 -32 -45 -46 -58 -59 -70 -71 -81 -82 -109 -111 0
-17 -31 -33 -45 -46 -58 -59 -70 -71 -81 -82 -109 -111 0
-17 -32 -33 -45 -47 -58 -59 -70 -71 -81 -82 -109 -111 0
-17 -32 -33 -46 -47 -58 -60 -70 -71 -81 -82 -109 -111 0
-17 -32 -33 -46 -47 -59 -60 -70 -72 -81 -82 -109 -111 0
-17 -32 -33 -46 -47 -59 -60 -71 -72 -81 -83 -109 -111 0
-17 -32 -33 -46 -47 -59 -60 -71 -72 -82 -83 -109 -112 0
-16 -31 -32 -45 -46 -58 -59 -70 -71 -81 -82 -110 -111 0
-17 -31 -33 -45 -46 -58 -59 -70 -71 -81 -82 -110 -111 0
-17 -32 -33 -45 -47 -58 -59 -70 -71 -81 -82 -110 -111 0
-17 -32 -33 -46 -47 -58 -60 -70 -71 -81 -82 -110 -111 0
-17 -32 -33 -46 -47 -59 -60 -70 -72 -81 -82 -110 -111 0
-17 -32 -33 -46 -47 -59 -60 -71 -72 -81 -83 -110 -111 0
-17 -32 -33 -46 -47 -59 -60 -71 -72 -82 -83 -110 -112 0
-17 -32 -33 -46 -47 -59 -60 -71 -72 -82 -83 -111 -112 0
-16 -31 -32 -45 -46 -58 -59 -70 -71 -81 -82 -118 -119 0
-17 -31 -33 -45 -46 -58 -59 -70 -71 -81 -82 -118 -119 0
-17 -32 -33 -45 -47 -58 -59 -70 -71 -81 -82 -118 -119 0
-17 -32 -33 -46 -47 -58 -60 -70 -71 -81 -82 -118 -119 0
-17 -32 -33 -46 -47 -59 -60 -70 -72 -81 -82 -118 -119 0
-17 -32 -33 -46 -47 -59 -60 -71 -72 -81 -83 -118 -119 0
-17 -32 -33 -46 -47 -59 -60 -71 -72 -82 -83 -118 -120 0
-17 -32 -33 -46 -47 -59 -60 -71 -72 -82 -83 -119 -120 0
-17 -32 -33 -46 -47 -59 -60 -71 -72 -82 -83 -126 -127 0
-14 -29 -30 -43 -44 -56 -57 -68 -69 -90 -91 -99 -100 0
-15 -29 -31 -43 -44 -56 -57 -68 -69 -90 -91 -99 -100 0
-16 -29 -32 -43 -44 -56 -57 -68 -69 -90 -91 -99 -100 0
-17 -29 -33 -43 -44 -56 -57 -68 -69 -90 -91 -99 -100 0
-15 -30 -31 -43 -45 -56 -57 -68 -69 -90 -91 -99 -100 0
-16 -30 -32 -43 -45 -56 -57 -68 -69 -90 -91 -99 -100 0
-17 -30 -33 -43 -45 -56 -57 -68 -69 -90 -91 -99 -100 0
-16 -31 -32 -43 -46 -56 -57 -68 -69 -90 -91 -99 -100 0
-17 -31 -33 -43 -46 -56 -57 -68 -69 -90 -91 -99 -100 0
-17 -32 -33 -43 -47 -56 -57 -68 -69 -90 -91 -99 -100 0
-15 -30 -31 -44 -45 -56 -58 -68 -69 -90 -91 -99 -100 0
-16 -30 -32 -44 -45 -56 -58 -68 -69 -90 -91 -99 -100 0
-17 -30 -33 -44 -45 -56 -58 -68 -69 -90 -91 -99 -100 0
-16 -31 -32 -44 -46 -56 -58 -68 -69 -90 -91 -99 -100 0
-17 -31 -33 -44 -46 -56 -58 -68 -69 -90 -91 -99 -100 0
-17 -32 -33 -44 -47 -56 -58 -68 -69 -90 -91 -99 -100 0
-16 -31 -32 -45 -46 -56 -59 -68 -69 -90 -91 -99 -100 0
-17 -31 -33 -45 -46 -56 -59 -68 -69 -90 -91 -99 -100 0
-17 -32 -33 -45 -47 -56 -59 -68 -69 -90 -91 -99 -100 0
-17 -32 -33 -46 -47 -56 -60 -68 -69 -90 -91 -99 -100 0
-15 -30 -31 -44 -45 -57 -58 -68 -70 -90 -91 -99 -100 0
-16 -30 -32 -44 -45 -57 -58 -68 -70 -90 -91 -99 -100 0
-17 -30 -33 -44 -45 -57 -58 -68 -70 -90 -91 -99 -100 0
-16 -31 -32 -44 -46 -57 -58 -68 -70 -90 -91 -99 -100 0
-17 -31 -33 -44 -46 -57 -58 -68 -70 -90 -91 -99 -100 0
-17 -32 -33 -44 -47 -57 -58 -68 -70 -90 -91 -99 -100 0
-16 -31 -32 -45 -46 -57 -59 -68 -70 -90 -91 -99 -100 0
-17 -31 -33 -45 -46 -57 -59 -68 -70 -90 -91 -99 -100 0
-17 -32 -33 -45 -47 -57 -59 -68 -70 -90 -91 -99 -100 0
-17 -32 -33 -46 -47 -57 -60 -68 -70 -90 -91 -99 -100 0
-16 -31 -32 -45 -46 -58 -59 -68 -71 -90 -91 -99 -100 0
-17 -31 -33 -45 -46 -58 -59 -68 -71 -90 -91 -99 -100 0
-17 -32 -33 -45 -47 -58 -59 -68 -71 -90 -91 -99 -100 0
-17 -32 -33 -46 -47 -58 -60 -68 -71 -90 -91 -99 -100 0
-17 -32 -33 -46 -47 -59 -60 -68 -72 -90 -91 -99 -100 0
-15 -30 -31 -44 -45 -57 -58 -69 -70 -90 -92 -99 -100 0
-16 -30 -32 -44 -45 -57 -58 -69 -70 -90 -92 -99 -100 0
-17 -30 -33 -44 -45 -57 -58 -69 -70 -90 -92 -99 -100 0
-16 -31 -32 -44 -46 -57 -58 -69 -70 -90 -92 -99 -100 0
-17 -31 -33 -44 -46 -57 -58 -69 -70 -90 -92 -99 -100 0
-17 -32 -33 -44 -47 -57 -58 -69 -70 -90 -92 -99 -100 0
-16 -31 -32 -45 -46 -57 -59 -69 -70 -90 -92 -99 -100 0
-17 -31 -33 -45 -46 -57 -59 -69 -70 -90 -92 -99 -100 0
-17 -32 -33 -45 -47 -57 -59 -69 -70 -90 -92 -99 -100 0
-17 -32 -33 -46 -47 -57 -60 -69 -70 -90 -92 -99 -100 0
-16 -31 -32 -45 -46 -58 -59 -69 -71 -90 -92 -99 -100 0
-17 -31 -33 -45 -46 -58 -59 -69 -71 -90 -92 -99 -100 0
-17 -32 -33 -45 -47 -58 -59 -69 -71 -90 -92 -99 -100 0
-17 -32 -33 -46 -47 -58 -60 -69 -71 -90 -92 -99 -100 0
-17 -32 -33 -46 -47 -59 -60 -69 -72 -90 -92 -99 -100 0
-16 -31 -32 -45 -46 -58 -59 -70 -71 -90 -93 -99 -100 0
-17 -31 -33 -45 -46 -58 -59 -70 -71 -90 -93 -99 -100 0
-17 -32 -33 -45 -47 -58 -59 -70 -71 -90 -93 -99 -100 0
-17 -32 -33 -46 -47 -58 -60 -70 -71 -90 -93 -99 -100 0
-17 -32 -33 -46 -47 -59 -60 -70 -72 -90 -93 -99 -100 0
-17 -32 -33 -46 -47 -59 -60 -71 -72 -90 -94 -99 -100 0
-15 -30 -31 -44 -45 -57 -58 -69 -70 -91 -92 -99 -101 0
-16 -30 -32 -44 -45 -57 -58 -69 -70 -91 -92 -99 -101 0
-17 -30 -33 -44 -45 -57 -58 -69 -70 -91 -92 -99 -101 0
-16 -31 -32 -44 -46 -57 -58 -69 -70 -91 -92 -99 -101 0
-17 -31 -33 -44 -46 -57 -58 -69 -70 -91 -92 -99 -101 0
-17 -32 -33 -44 -47 -57 -58 -69 -70 -91 -92 -99 -101 0
-16 -31 -32 -45 -46 -57 -59 -69 -70 -91 -92 -99 -101 0
-17 -31 -33 -45 -46 -57 -59 -69 -70 -91 -92 -99 -101 0
-17 -32 -33 -45 -47 -57 -59 -69 -70 -91 -92 -99 -101 0
-17 -32 -33 -46 -47 -57 -60 -69 -70 -91 -92 -99 -101 0
-16 -31 -32 -45 -46 -58 -59 -69 -71 -91 -92 -99 -101 0
-17 -31 -33 -45 -46 -58 -59 -69 -71 -91 -92 -99 -101 0
-17 -32 -33 -45 -47 -58 -59 -69 -71 -91 -92 -99 -101 0
-17 -32 -33 -46 -47 -58 -60 -69 -71 -91 -92 -99 -101 0
-17 -32 -33 -46 -47 -59 -60 -69 -72 -91 -92 -99 -101 0
-16 -31 -32 -45 -46 -58 -59 -70 -71 -91 -93 -99 -101 0
-17 -31 -33 -45 -46 -58 -59 -70 -71 -91 -93 -99 -101 0
-17 -32 -33 -45 -47 -58 -59 -70 -71 -91 -93 -99 -101 0
-17 -32 -33 -46 -47 -58 -60 -70 -71 -91 -93 -99 -101 0
-17 -32 -33 -46 -47 -59 -60 -70 -72 -91 -93 -99 -101 0
-17 -32 -33 -46 -47 -59 -60 -71 -72 -91 -94 -99 -101 0
-16 -31 -32 -45 -46 -58 -59 -70 -71 -92 -93 -99 -102 0
-17 -31 -33 -45 -46 -58 -59 -70 -71 -92 -93 -99 -102 0
-17 -32 -33 -45 -47 -58 -59 -70 -71 -92 -93 -99 -102 0
-17 -32 -33 -46 -47 -58 -60 -70 -71 -92 -93 -99 -102 0
-17 -32 -33 -46 -47 -59 -60 -70 -72 -92 -93 -99 -102 0
-17 -32 -33 -46 -47 -59 -60 -71 -72 -92 -94 -99 -102 0
-17 -32 -33 -46 -47 -59 -60 -71 -72 -93 -94 -99 -103 0
-15 -30 -31 -44 -45 -57 -58 -69 -70 -91 -92 -100 -101 0
-16 -30 -32 -44 -45 -57 -58 -69 -70 -91 -92 -100 -101 0
-17 -30 -33 -44 -45 -57 -58 -69 -70 -91 -92 -100 -101 0
-16 -31 -32 -44 -46 -57 -58 -69 -70 -91 -92 -100 -101 0
-17 -31 -33 -44 -46 -57 -58 -69 -70 -91 -92 -100 -101 0
-17 -32 -33 -44 -47 -57 -58 -69 -70 -91 -92 -100 -101 0
-16 -31 -32 -45 -46 -57 -59 -69 -70 -91 -92 -100 -101 0
-17 -31 -33 -45 -46 -57 -59 -69 -70 -91 -92 -100 -101 0
-17 -32 -33 -45 -47 -57 -59 -69 -70 -91 -92 -100 -101 0
-17 -32 -33 -46 -47 -57 -60 -69 -70 -91 -92 -100 -101 0
-16 -31 -32 -45 -46 -58 -59 -69 -71 -91 -92 -100 -101 0
-17 -31 -33 -45 -46 -58 -59 -69 -71 -91 -92 -100 -101 0
-17 -32 -33 -45 -47 -58 -59 -69 -71 -91 -92 -100 -101 0
-17 -32 -33 -46 -47 -58 -60 -69 -71 -91 -92 -100 -101 0
-17 -32 -33 -46 -47 -59 -60 -69 -72 -91 -92 -100 -101 0
-16 -31 -32 -45 -46 -58 -59 -70 -71 -91 -93 -100 -101 0
-17 -31 -33 -45 -46 -58 -59 -70 -71 -91 -93 -100 -101 0
-17 -32 -33 -45 -47 -58 -59 -70 -71 -91 -93 -100 -101 0
-17 -32 -33 -46 -47 -58 -60 -70 -71 -91 -93 -100 -101 0
-17 -32 -33 -46 -47 -59 -60 -70 -72 -91 -93 -100 -101 0
-17 -32 -33 -46 -47 -59 -60 -71 -72 -91 -94 -100 -101 0
-16 -31 -32 -45 -46 -58 -59 -70 -71 -92 -93 -100 -102 0
-17 -31 -33 -45 -46 -58 -59 -70 -71 -92 -93 -100 -102 0
-17 -32 -33 -45 -47 -58 -59 -70 -71 -92 -93 -100 -102 0
-17 -32 -33 -46 -47 -58 -60 -70 -71 -92 -93 -100 -102 0
-17 -32 -33 -46 -47 -59 -60 -70 -72 -92 -93 -100 -102 0
-17 -32 -33 -46 -47 -59 -60 -71 -72 -92 -94 -100 -102 0
-17 -32 -33 -46 -47 -59 -60 -71 -72 -93 -94 -100 -103 0
-16 -31 -32 -45 -46 -58 -59 -70 -71 -92 -93 -101 -102 0
-17 -31 -33 -45 -46 -58 -59 -70 -71 -92 -93 -101 -102 0
-17 -32 -33 -45 -47 -58 -59 -70 -71 -92 -93 -101 -102 0
-17 -32 -33 -46 -47 -58 -60 -70 -71 -92 -93 -101 -102 0
-17 -32 -33 -46 -47 -59 -60 -70 -72 -92 -93 -101 -102 0
-17 -32 -33 -46 -47 -59 -60 -71 -72 -92 -94 -101 -102 0
-17 -32 -33 -46 -47 -59 -60 -71 -72 -93 -94 -101 -103 0
-17 -32 -33 -46 -47 -59 -60 -71 -72 -93 -94 -102 -103 0
-15 -30 -31 -44 -45 -57 -58 -69 -70 -91 -92 -109 -110 0
-16 -30 -32 -44 -45 -57 -58 -69 -70 -91 -92 -109 -110 0
-17 -30 -33 -44 -45 -57 -58 -69 -70 -91 -92 -109 -110 0
-16 -31 -32 -44 -46 -57 -58 -69 -70 -91 -92 -109 -110 0
-17 -31 -33 -44 -46 -57 -58 -69 -70 -91 -92 -109 -110 0
-17 -32 -33 -44 -47 -57 -58 -69 -70 -91 -92 -109 -110 0
-16 -31 -32 -45 -46 -57 -59 -69 -70 -91 -92 -109 -110 0
-17 -31 -33 -45 -46 -57 -59 -69 -70 -91 -92 -109 -110 0
-17 -32 -33 -45 -47 -57 -59 -69 -70 -91 -92 -109 -110 0
-17 -32 -33 -46 -47 -57 -60 -69 -70 -91 -92 -109 -110 0
-16 -31 -32 -45 -46 -58 -59 -69 -71 -91 -92 -109 -110 0
-17 -31 -33 -45 -46 -58 -59 -69 -71 -91 -92 -109 -110 0
-17 -32 -33 -45 -47 -58 -59 -69 -71 -91 -92 -109 -110 0
-17 -32 -33 -46 -47 -58 -60 -69 -71 -91 -92 -109 -110 0
-17 -32 -33 -46 -47 -59 -60 -69 -72 -91 -92 -109 -110 0
-16 -31 -32 -45 -46 -58 -59 -70 -71 -91 -93 -109 -110 0
-17 -31 -33 -45 -46 -58 -59 -70 -71 -91 -93 -109 -110 0
-17 -32 -33 -45 -47 -58 -59 -70 -71 -91 -93 -109 -110 0
-17 -32 -33 -46 -47 -58 -60 -70 -71 -91 -93 -109 -110 0
-17 -32 -33 -46 -47 -59 -60 -70 -72 -91 -93 -109 -110 0
-17 -32 -33 -46 -47 -59 -60 -71 -72 -91 -94 -109 -110 0
-16 -31 -32 -45 -46 -58 -59 -70 -71 -92 -93 -109 -111 0
-17 -31 -33 -45 -46 -58 -59 -70 -71 -92 -93 -109 -111 0
-17 -32 -33 -45 -47 -58 -59 -70 -71 -92 -93 -109 -111 0
-17 -32 -33 -46 -47 -58 -60 -70 -71 -92 -93 -109 -111 0
-17 -32 -33 -46 -47 -59 -60 -70 -72 -92 -93 -109 -111 0
-17 -32 -33 -46 -47 -59 -60 -71 -72 -92 -94 -109 -111 0
-17 -32 -33 -46 -47 -59 -60 -71 -72 -93 -94 -109 -112 0
-16 -31 -32 -45 -46 -58 -59 -70 -71 -92 -93 -110 -111 0
-17 -31 -33 -45 -46 -58 -59 -70 -71 -92 -93 -110 -111 0
-17 -32 -33 -45 -47 -58 -59 -70 -71 -92 -93 -110 -111 0
-17 -32 -33 -46 -47 -58 -60 -70 -71 -92 -93 -110 -111 0
-17 -32 -33 -46 -47 -59 -60 -70 -72 -92 -93 -110 -111 0
-17 -32 -33 -46 -47 -59 -60 -71 -72 -92 -94 -110 -111 0
-17 -32 -33 -46 -47 -59 -60 -71 -72 -93 -94 -110 -112 0
-17 -32 -33 -46 -47 -59 -60 -71 -72 -93 -94 -111 -112 0
-16 -31 -32 -45 -46 -58 -59 -70 -71 -92 -93 -118 -119 0
-17 -31 -33 -45 -46 -58 -59 -70 -71 -92 -93 -118 -119 0
-17 -32 -33 -45 -47 -58 -59 -70 -71 -92 -93 -118 -119 0
-17 -32 -33 -46 -47 -58 -60 -70 -71 -92 -93 -118 -119 0
-17 -32 -33 -46 -47 -59 -60 -70 -72 -92 -93 -118 -119 0
-17 -32 -33 -46 -47 -59 -60 -71 -72 -92 -94 -118 -119 0
-17 -32 -33 -46 -47 -59 -60 -71 -72 -93 -94 -118 -120 0
-17 -32 -33 -46 -47 -59 -60 -71 -72 -93 -94 -119 -120 0
-17 -32 -33 -46 -47 -59 -60 -71 -72 -93 -94 -126 -127 0
-15 -30 -31 -44 -45 -57 -58 -69 -70 -101 -102 -109 -110 0
-16 -30 -32 -44 -45 -57 -58 -69 -70 -101 -102 -109 -110 0
-17 -30 -33 -44 -45 -57 -58 -69 -70 -101 -102 -109 -110 0
-16 -31 -32 -44 -46 -57 -58 -69 -70 -101 -102 -109 -110 0
-17 -31 -33 -44 -46 -57 -58 -69 -70 -101 -102 -109 -110 0
-17 -32 -33 -44 -47 -57 -58 -69 -70 -101 -102 -109 -110 0
-16 -31 -32 -45 -46 -57 -59 -69 -70 -101 -102 -109 -110 0
-17 -31 -33 -45 -46 -57 -59 -69 -70 -101 -102 -109 -110 0
-17 -32 -33 -45 -47 -57 -59 -69 -70 -101 -102 -109 -110 0
-17 -32 -33 -46 -47 -57 -60 -69 -70 -101 -102 -109 -110 0
-16 -31 -32 -45 -46 -58 -59 -69 -71 -101 -102 -109 -110 0
-17 -31 -33 -45 -46 -58 -59 -69 -71 -101 -102 -109 -110 0
-17 -32 -33 -45 -47 -58 -59 -69 -71 -101 -102 -109 -110 0
-17 -32 -33 -46 -47 -58 -60 -69 -71 -101 -102 -109 -110 0
-17 -32 -33 -46 -47 -59 -60 -69 -72 -101 -102 -109 -110 0
-16 -31 -32 -45 -46 -58 -59 -70 -71 -101 -103 -109 -110 0
-17 -31 -33 -45 -46 -58 -59 -70 -71 -101 -103 -109 -110 0
-17 -32 -33 -45 -47 -58 -59 -70 -71 -101 -103 -109 -110 0
-17 -32 -33 -46 -47 -58 -60 -70 -71 -101 -103 -109 -110 0
-17 -32 -33 -46 -47 -59 -60 -70 -72 -101 -103 -109 -110 0
-17 -32 -33 -46 -47 -59 -60 -71 -72 -101 -104 -109 -110 0
-16 -31 -32 -45 -46 -58 -59 -70 -71 -102 -103 -109 -111 0
-17 -31 -33 -45 -46 -58 -59 -70 -71 -102 -103 -109 -111 0
-17 -32 -33 -45 -47 -58 -59 -70 -71 -102 -103 -109 -111 0
-17 -32 -33 -46 -47 -58 -60 -70 -71 -102 -103 -109 -111 0
-17 -32 -33 -46 -47 -59 -60 -70 -72 -102 -103 -109 -111 0
-17 -32 -33 -46 -47 -59 -60 -71 -72 -102 -104 -109 -111 0
-17 -32 -33 -46 -47 -59 -60 -71 -72 -103 -104 -109 -112 0
-16 -31 -32 -45 -46 -58 -59 -70 -71 -102 -103 -110 -111 0
-17 -31 -33 -45 -46 -58 -59 -70 -71 -102 -103 -110 -111 0
-17 -32 -33 -45 -47 -58 -59 -70 -71 -102 -103 -110 -111 0
-17 -32 -33 -46 -47 -58 -60 -70 -71 -102 -103 -110 -111 0
-17 -32 -33 -46 -47 -59 -60 -70 -72 -102 -103 -110 -111 0
-17 -32 -33 -46 -47 -59 -60 -71 -72 -102 -104 -110 -111 0
-17 -32 -33 -46 -47 -59 -60 -71 -72 -103 -104 -110 -112 0
-17 -32 -33 -46 -47 -59 -60 -71 -72 -103 -104 -111 -112 0
-16 -31 -32 -45 -46 -58 -59 -70 -71 -102 -103 -118 -119 0
-17 -31 -33 -45 -46 -58 -59 -70 -71 -102 -103 -118 -119 0
-17 -32 -33 -45 -47 -58 -59 -70 -71 -102 -103 -118 -119 0
-17 -32 -33 -46 -47 -58 -60 -70 -71 -102 -103 -118 -119 0
-17 -32 -33 -46 -47 -59 -60 -70 -72 -102 -103 -118 -119 0
-17 -32 -33 -46 -47 -59 -60 -71 -72 -102 -104 -118 -119 0
-17 -32 -33 -46 -47 -59 -60 -71 -72 -103 -104 -118 -120 0
-17 -32 -33 -46 -47 -59 -60 -71 -72 -103 -104 -119 -120 0
-17 -32 -33 -46 -47 -59 -60 -71 -72 -103 -104 -126 -127 0
-16 -31 -32 -45 -46 -58 -59 -70 -71 -111 -112 -118 -119 0
-17 -31 -33 -45 -46 -58 -59 -70 -71 -111 -112 -118 -119 0
-17 -32 -33 -45 -47 -58 -59 -70 -71 -111 -112 -118 -119 0
-17 -32 -33 -46 -47 -58 -60 -70 -71 -111 -112 -118 -119 0
-17 -32 -33 -46 -47 -59 -60 -70 -72 -111 -112 -118 -119 0
-17 -32 -33 -46 -47 -59 -60 -71 -72 -111 -113 -118 -119 0
-17 -32 -33 -46 -47 -59 -60 -71 -72 -112 -113 -118 -120 0
-17 -32 -33 -46 -47 -59 -60 -71 -72 -112 -113 -119 -120 0
-17 -32 -33 -46 -47 -59 -60 -71 -72 -112 -113 -126 -127 0
-17 -32 -33 -46 -47 -59 -60 -71 -72 -120 -121 -126 -127 0
-14 -29 -30 -43 -44 -56 -57 -80 -81 -90 -91 -99 -100 0
-15 -29 -31 -43 -44 -56 -57 -80 -81 -90 -91 -99 -100 0
-16 -29 -32 -43 -44 -56 -57 -80 -81 -90 -91 -99 -100 0
-17 -29 -33 -43 -44 -56 -57 -80 -81 -90 -91 -99 -100 0
-15 -30 -31 -43 -45 -56 -57 -80 -81 -90 -91 -99 -100 0
-16 -30 -32 -43 -45 -56 -57 -80 -81 -90 -91 -99 -100 0
-17 -30 -33 -43 -45 -56 -57 -80 -81 -90 -91 -99 -100 0
-16 -31 -32 -43 -46 -56 -57 -80 -81 -90 -91 -99 -100 0
-17 -31 -33 -43 -46 -56 -57 -80 -81 -90 -91 -99 -100 0
-17 -32 -33 -43 -47 -56 -57 -80 -81 -90 -91 -99 -100 0
-15 -30 -31 -44 -45 -56 -58 -80 -81 -90 -91 -99 -100 0
-16 -30 -32 -44 -45 -56 -58 -80 -81 -90 -91 -99 -100 0
-17 -30 -33 -44 -45 -56 -58 -80 -81 -90 -91 -99 -100 0
-16 -31 -32 -44 -46 -56 -58 -80 -81 -90 -91 -99 -100 0
-17 -31 -33 -44 -46 -56 -58 -80 -81 -90 -91 -99 -100 0
-17 -32 -33 -44 -47 -56 -58 -80 -81 -90 -91 -99 -100 0
-16 -31 -32 -45 -46 -56 -59 -80 -81 -90 -91 -99 -100 0
-17 -31 -33 -45 -46 -56 -59 -80 -81 -90 -91 -99 -100 0
-17 -32 -33 -45 -47 -56 -59 -80 -81 -90 -91 -99 -100 0
-17 -32 -33 -46 -47 -56 -60 -80 -81 -90 -91 -99 -100 0
-15 -30 -31 -44 -45 -57 -58 -80 -82 -90 -91 -99 -100 0
-16 -30 -32 -44 -45 -57 -58 -80 -82 -90 -91 -99 -100 0
-17 -30 -33 -44 -45 -57 -58 -80 -82 -90 -91 -99 -100 0
-16 -31 -32 -44 -46 -57 -58 -80 -82 -90 -91 -99 -100 0
-17 -31 -33 -44 -46 -57 -58 -80 -82 -90 -91 -99 -100 0
-17 -32 -33 -44 -47 -57 -58 -80 -82 -90 -91 -99 -100 0
-16 -31 -32 -45 -46 -57 -59 -80 -82 -90 -91 -99 -100 0
-17 -31 -33 -45 -46 -57 -59 -80 -82 -90 -91 -99 -100 0
-17 -32 -33 -45 -47 -57 -59 -80 -82 -90 -91 -99 -100 0
-17 -32 -33 -46 -47 -57 -60 -80 -82 -90 -91 -99 -100 0
-16 -31 -32 -45 -46 -58 -59 -80 -83 -90 -91 -99 -100 0
-17 -31 -33 -45 -46 -58 -59 -80 -83 -90 -91 -99 -100 0
-17 -32 -33 -45 -47 -58 -59 -80 -83 -90 -91 -99 -100 0
-17 -32 -33 -46 -47 -58 -60 -80 -83 -90 -91 -99 -100 0
-17 -32 -33 -46 -47 -59 -60 -80 -84 -90 -91 -99 -100 0
-15 -30 -31 -44 -45 -57 -58 -81 -82 -90 -92 -99 -100 0
-16 -30 -32 -44 -45 -57 -58 -81 -82 -90 -92 -99 -100 0
-17 -30 -33 -44 -45 -57 -58 -81 -82 -90 -92 -99 -100 0
-16 -31 -32 -44 -46 -57 -58 -81 -82 -90 -92 -99 -100 0
-17 -31 -33 -44 -46 -57 -58 -81 -82 -90 -92 -99 -100 0
-17 -32 -33 -44 -47 -57 -58 -81 -82 -90 -92 -99 -100 0
-16 -31 -32 -45 -46 -57 -59 -81 -82 -90 -92 -99 -100 0
-17 -31 -33 -45 -46 -57 -59 -81 -82 -90 -92 -99 -100 0
-17 -32 -33 -45 -47 -57 -59 -81 -82 -90 -92 -99 -100 0
-17 -32 -33 -46 -47 -57 -60 -81 -82 -90 -92 -99 -100 0
-16 -31 -32 -45 -46 -58 -59 -81 -83 -90 -92 -99 -100 0
-17 -31 -33 -45 -46 -58 -59 -81 -83 -90 -92 -99 -100 0
-17 -32 -33 -45 -47 -58 -59 -81 -83 -90 -92 -99 -100 0
-17 -32 -33 -46 -47 -58 -60 -81 -83 -90 -92 -99 -100 0
-17 -32 -33 -46 -47 -59 -60 -81 -84 -90 -92 -99 -100 0
-16 -31 -32 -45 -46 -58 -59 -82 -83 -90 -93 -99 -100 0
-17 -31 -33 -45 -46 -58 -59 -82 -83 -90 -93 -99 -100 0
-17 -32 -33 -45 -47 -58 -59 -82 -83 -90 -93 -99 -100 0
-17 -32 -33 -46 -47 -58 -60 -82 -83 -90 -93 -99 -100 0
-17 -32 -33 -46 -47 -59 -60 -82 -84 -90 -93 -99 -100 0
-17 -32 -33 -46 -47 -59 -60 -83 -84 -90 -94 -99 -100 0
-15 -30 -31 -44 -45 -57 -58 -81 -82 -91 -92 -99 -101 0
-16 -30 -32 -44 -45 -57 -58 -81 -82 -91 -92 -99 -101 0
-17 -30 -33 -44 -45 -57 -58 -81 -82 -91 -92 -99 -101 0
-16 -31 -32 -44 -46 -57 -58 -81 -82 -91 -92 -99 -101 0
-17 -31 -33 -44 -46 -57 -58 -81 -82 -91 -92 -99 -101 0
-17 -32 -33 -44 -47 -57 -58 -81 -82 -91 -92 -99 -101 0
-16 -31 -32 -45 -46 -57 -59 -81 -82 -91 -92 -99 -101 0
-17 -31 -33 -45 -46 -57 -59 -81 -82 -91 -92 -99 -101 0
-17 -32 -33 -45 -47 -57 -59 -81 -82 -91 -92 -99 -101 0
-17 -32 -33 -46 -47 -57 -60 -81 -82 -91 -92 -99 -101 0
-16 -31 -32 -45 -46 -58 -59 -81 -83 -91 -92 -99 -101 0
-17 -31 -33 -45 -46 -58 -59 -81 -83 -91 -92 -99 -101 0
-17 -32 -33 -45 -47 -58 -59 -81 -83 -91 -92 -99 -101 0
-17 -32 -33 -46 -47 -58 -60 -81 -83 -91 -92 -99 -101 0
-17 -32 -33 -46 -47 -59 -60 -81 -84 -91 -92 -99 -101 0
-16 -31 -32 -45 -46 -58 -59 -82 -83 -91 -93 -99 -101 0
-17 -31 -33 -45 -46 -58 -59 -82 -83 -91 -93 -99 -101 0
-17 -32 -33 -45 -47 -58 -59 -82 -83 -91 -93 -99 -101 0
-17 -32 -33 -46 -47 -58 -60 -82 -83 -91 -93 -99 -101 0
-17 -32 -33 -46 -47 -59 -60 -82 -84 -91 -93 -99 -101 0
-17 -32 -33 -46 -47 -59 -60 -83 -84 -91 -94 -99 -101 0
-16 -31 -32 -45 -46 -58 -59 -82 -83 -92 -93 -99 -102 0
-17 -31 -33 -45 -46 -58 -59 -82 -83 -92 -93 -99 -102 0
-17 -32 -33 -45 -47 -58 -59 -82 -83 -92 -93 -99 -102 0
-17 -32 -33 -46 -47 -58 -60 -82 -83 -92 -93 -99 -102 0
-17 -32 -33 -46 -47 -59 -60 -82 -84 -92 -93 -99 -102 0
-17 -32 -33 -46 -47 -59 -60 -83 -84 -92 -94 -99 -102 0
-17 -32 -33 -46 -47 -59 -60 -83 -84 -93 -94 -99 -103 0
-15 -30 -31 -44 -45 -57 -58 -81 -82 -91 -92 -100 -101 0
-16 -30 -32 -44 -45 -57 -58 -81 -82 -91 -92 -100 -101 0
-17 -30 -33 -44 -45 -57 -58 -81 -82 -91 -92 -100 -101 0
-16 -31 -32 -44 -46 -57 -58 -81 -82 -91 -92 -100 -101 0
-17 -31 -33 -44 -46 -57 -58 -81 -82 -91 -92 -100 -101 0
-17 -32 -33 -44 -47 -57 -58 -81 -82 -91 -92 -100 -101 0
-16 -31 -32 -45 -46 -57 -59 -81 -82 -91 -92 -100 -101 0
-17 -31 -33 -45 -46 -57 -59 -81 -82 -91 -92 -100 -101 0
-17 -32 -33 -45 -47 -57 -59 -81 -82 -91 -92 -100 -101 0
-17 -32 -33 -46 -47 -57 -60 -81 -82 -91 -92 -100 -101 0
-16 -31 -32 -45 -46 -58 -59 -81 -83 -91 -92 -100 -101 0
-17 -31 -33 -45 -46 -58 -59 -81 -83 -91 -92 -100 -101 0
-17 -32 -33 -45 -47 -58 -59 -81 -83 -91 -92 -100 -101 0
-17 -32 -33 -46 -47 -58 -60 -81 -83 -91 -92 -100 -101 0
-17 -32 -33 -46 -47 -59 -60 -81 -84 -91 -92 -100 -101 0
-16 -31 -32 -45 -46 -58 -59 -82 -83 -91 -93 -100 -101 0
-17 -31 -33 -45 -46 -58 -59 -82 -83 -91 -93 -100 -101 0
-17 -32 -33 -45 -47 -58 -59 -82 -83 -91 -93 -100 -101 0
-17 -32 -33 -46 -47 -58 -60 -82 -83 -91 -93 -100 -101 0
-17 -32 -33 -46 -47 -59 -60 -82 -84 -91 -93 -100 -101 0
-17 -32 -33 -46 -47 -59 -60 -83 -84 -91 -94 -100 -101 0
-16 -31 -32 -45 -46 -58 -59 -82 -83 -92 -93 -100 -102 0
-17 -31 -33 -45 -46 -58 -59 -82 -83 -92 -93 -100 -102 0
-17 -32 -33 -45 -47 -58 -59 -82 -83 -92 -93 -100 -102 0
-17 -32 -33 -46 -47 -58 -60 -82 -83 -92 -93 -100 -102 0
-17 -32 -33 -46 -47 -59 -60 -82 -84 -92 -93 -100 -102 0
-17 -32 -33 -46 -47 -59 -60 -83 -84 -92 -94 -100 -102 0
-17 -32 -33 -46 -47 -59 -60 -83 -84 -93 -94 -100 -103 0
-16 -31 -32 -45 -46 -58 -59 -82 -83 -92 -93 -101 -102 0
-17 -31 -33 -45 -46 -58 -59 -82 -83 -92 -93 -101 -102 0
-17 -32 -33 -45 -47 -58 -59 -82 -83 -92 -93 -101 -102 0
-17 -32 -33 -46 -47 -58 -60 -82 -83 -92 -93 -101 -102 0
-17 -32 -33 -46 -47 -59 -60 -82 -84 -92 -93 -101 -102 0
-17 -32 -33 -46 -47 -59 -60 -83 -84 -92 -94 -101 -102 0
-17 -32 -33 -46 -47 -59 -60 -83 -84 -93 -94 -101 -103 0
-17 -32 -33 -46 -47 -59 -60 -83 -84 -93 -94 -102 -103 0
-15 -30 -31 -44 -45 -57 -58 -81 -82 -91 -92 -109 -110 0
-16 -30 -32 -44 -45 -57 -58 -81 -82 -91 -92 -109 -110 0
-17 -30 -33 -44 -45 -57 -58 -81 -82 -91 -92 -109 -110 0
-16 -31 -32 -44 -46 -57 -58 -81 -82 -91 -92 -109 -110 0
-17 -31 -33 -44 -46 -57 -58 -81 -82 -91 -92 -109 -110 0
-17 -32 -33 -44 -47 -57 -58 -81 -82 -91 -92 -109 -110 0
-16 -31 -32 -45 -46 -57 -59 -81 -82 -91 -92 -109 -110 0
-17 -31 -33 -45 -46 -57 -59 -81 -82 -91 -92 -109 -110 0
-17 -32 -33 -45 -47 -57 -59 -81 -82 -91 -92 -109 -110 0
-17 -32 -33 -46 -47 -57 -60 -81 -82 -91 -92 -109 -110 0
-16 -31 -32 -45 -46 -58 -59 -81 -83 -91 -92 -109 -110 0
-17 -31 -33 -45 -46 -58 -59 -81 -83 -91 -92 -109 -110 0
-17 -32 -33 -45 -47 -58 -59 -81 -83 -91 -92 -109 -110 0
-17 -32 -33 -46 -47 -58 -60 -81 -83 -91 -92 -109 -110 0
-17 -32 -33 -46 -47 -59 -60 -81 -84 -91 -92 -109 -110 0
-16 -31 -32 -45 -46 -58 -59 -82 -83 -91 -93 -109 -110 0
-17 -31 -33 -45 -46 -58 -59 -82 -83 -91 -93 -109 -110 0
-17 -32 -33 -45 -47 -58 -59 -82 -83 -91 -93 -109 -110 0
-17 -32 -33 -46 -47 -58 -60 -82 -83 -91 -93 -109 -110 0
-17 -32 -33 -46 -47 -59 -60 -82 -84 -91 -93 -109 -110 0
-17 -32 -33 -46 -47 -59 -60 -83 -84 -91 -94 -109 -110 0
-16 -31 -32 -45 -46 -58 -59 -82 -83 -92 -93 -109 -111 0
-17 -31 -33 -45 -46 -58 -59 -82 -83 -92 -93 -109 -111 0
-17 -32 -33 -45 -47 -58 -59 -82 -83 -92 -93 -109 -111 0
-17 -32 -33 -46 -47 -58 -60 -82 -83 -92 -93 -109 -111 0
-17 -32 -33 -46 -47 -59 -60 -82 -84 -92 -93 -109 -111 0
-17 -32 -33 -46 -47 -59 -60 -83 -84 -92 -94 -109 -111 0
-17 -32 -33 -46 -47 -59 -60 -83 -84 -93 -94 -109 -112 0
-16 -31 -32 -45 -46 -58 -59 -82 -83 -92 -93 -110 -111 0
-17 -31 -33 -45 -46 -58 -59 -82 -83 -92 -93 -110 -111 0
-17 -32 -33 -45 -47 -58 -59 -82 -83 -92 -93 -110 -111 0
-17 -32 -33 -46 -47 -58 -60 -82 -83 -92 -93 -110 -111 0
-17 -32 -33 -46 -47 -59 -60 -82 -84 -92 -93 -110 -111 0
-17 -32 -33 -46 -47 -59 -60 -83 -84 -92 -94 -110 -111 0
-17 -32 -33 -46 -47 -59 -60 -83 -84 -93 -94 -110 -112 0
-17 -32 -33 -46 -47 -59 -60 -83 -84 -93 -94 -111 -112 0
-16 -31 -32 -45 -46 -58 -59 -82 -83 -92 -93 -118 -119 0
-17 -31 -33 -45 -46 -58 -59 -82 -83 -92 -93 -118 -119 0
-17 -32 -33 -45 -47 -58 -59 -82 -83 -92 -93 -118 -119 0
-17 -32 -33 -46 -47 -58 -60 -82 -83 -92 -93 -118 -119 0
-17 -32 -33 -46 -47 -59 -60 -82 -84 -92 -93 -118 -119 0
-17 -32 -33 -46 -47 -59 -60 -83 -84 -92 -94 -118 -119 0
-17 -32 -33 -46 -47 -59 -60 -83 -84 -93 -94 -118 -120 0
-17 -32 -33 -46 -47 -59 -60 -83 -84 -93 -94 -119 -120 0
-17 -32 -33 -46 -47 -59 -60 -83 -84 -93 -94 -126 -127 0
-15 -30 -31 -44 -45 -57 -58 -81 -82 -101 -102 -109 -110 0
-16 -30 -32 -44 -45 -57 -58 -81 -82 -101 -102 -109 -110 0
-17 -30 -33 -44 -45 -57 -58 -81 -82 -101 -102 -109 -110 0
-16 -31 -32 -44 -46 -57 -58 -81 -82 -101 -102 -109 -110 0
-17 -31 -33 -44 -46 -57 -58 -81 -82 -101 -102 -109 -110 0
-17 -32 -33 -44 -47 -57 -58 -81 -82 -101 -102 -109 -110 0
-16 -31 -32 -45 -46 -57 -59 -81 -82 -101 -102 -109 -110 0
-17 -31 -33 -45 -46 -57 -59 -81 -82 -101 -102 -109 -110 0
-17 -32 -33 -45 -47 -57 -59 -81 -82 -101 -102 -109 -110 0
-17 -32 -33 -46 -47 -57 -60 -81 -82 -101 -102 -109 -110 0
-16 -31 -32 -45 -46 -58 -59 -81 -83 -101 -102 -109 -110 0
-17 -31 -33 -45 -46 -58 -59 -81 -83 -101 -102 -109 -110 0
-17 -32 -33 -45 -47 -58 -59 -81 -83 -101 -102 -109 -110 0
-17 -32 -33 -46 -47 -58 -60 -81 -83 -101 -102 -109 -110 0
-17 -32 -33 -46 -47 -59 -60 -81 -84 -101 -102 -109 -110 0
-16 -31 -32 -45 -46 -58 -59 -82 -83 -101 -103 -109 -110 0
-17 -31 -33 -45 -46 -58 -59 -82 -83 -101 -103 -109 -110 0
-17 -32 -33 -45 -47 -58 -59 -82 -83 -101 -103 -109 -110 0
-17 -32 -33 -46 -47 -58 -60 -82 -83 -101 -103 -109 -110 0
-17 -32 -33 -46 -47 -59 -60 -82 -84 -101 -103 -109 -110 0
-17 -32 -33 -46 -47 -59 -60 -83 -84 -101 -104 -109 -110 0
-16 -31 -32 -45 -46 -58 -59 -82 -83 -102 -103 -109 -111 0
-17 -31 -33 -45 -46 -58 -59 -82 -83 -102 -103 -109 -111 0
-17 -32 -33 -45 -47 -58 -59 -82 -83 -102 -103 -109 -111 0
-17 -32 -33 -46 -47 -58 -60 -82 -83 -102 -103 -109 -111 0
-17 -32 -33 -46 -47 -59 -60 -82 -84 -102 -103 -109 -111 0
-17 -32 -33 -46 -47 -59 -60 -83 -84 -102 -104 -109 -111 0
-17 -32 -33 -46 -47 -59 -60 -83 -84 -103 -104 -109 -112 0
-16 -31 -32 -45 -46 -58 -59 -82 -83 -102 -103 -110 -111 0
-17 -31 -33 -45 -46 -58 -59 -82 -83 -102 -103 -110 -111 0
-17 -32 -33 -45 -47 -58 -59 -82 -83 -102 -103 -110 -111 0
-17 -32 -33 -46 -47 -58 -60 -82 -83 -102 -103 -110 -111 0
-17 -32 -33 -46 -47 -59 -60 -82 -84 -102 -103 -110 -111 0
-17 -32 -33 -46 -47 -59 -60 -83 -84 -102 -104 -110 -111 0
-17 -32 -33 -46 -47 -59 -60 -83 -84 -103 -104 -110 -112 0
-17 -32 -33 -46 -47 -59 -60 -83 -84 -103 -104 -111 -112 0
-16 -31 -32 -45 -46 -58 -59 -82 -83 -102 -103 -118 -119 0
-17 -31 -33 -45 -46 -58 -59 -82 -83 -102 -103 -118 -119 0
-17 -32 -33 -45 -47 -58 -59 -82 -83 -102 -103 -118 -119 0
-17 -32 -33 -46 -47 -58 -60 -82 -83 -102 -103 -118 -119 0
-17 -32 -33 -46 -47 -59 -60 -82 -84 -102 -103 -118 -119 0
-17 -32 -33 -46 -47 -59 -60 -83 -84 -102 -104 -118 -119 0
-17 -32 -33 -46 -47 -59 -60 -83 -84 -103 -104 -118 -120 0
-17 -32 -33 -46 -47 -59 -60 -83 -84 -103 -104 -119 -120 0
-17 -32 -33 -46 -47 -59 -60 -83 -84 -103 -104 -126 -127 0
-16 -31 -32 -45 -46 -58 -59 -82 -83 -111 -112 -118 -119 0
-17 -31 -33 -45 -46 -58 -59 -82 -83 -111 -112 -118 -119 0
-17 -32 -33 -45 -47 -58 -59 -82 -83 -111 -112 -118 -119 0
-17 -32 -33 -46 -47 -58 -60 -82 -83 -111 -112 -118 -119 0
-17 -32 -33 -46 -47 -59 -60 -82 -84 -111 -112 -118 -119 0
-17 -32 -33 -46 -47 -59 -60 -83 -84 -111 -113 -118 -119 0
-17 -32 -33 -46 -47 -59 -60 -83 -84 -112 -113 -118 -120 0
-17 -32 -33 -46 -47 -59 -60 -83 -84 -112 -113 -119 -120 0
-17 -32 -33 -46 -47 -59 -60 -83 -84 -112 -113 -126 -127 0
-17 -32 -33 -46 -47 -59 -60 -83 -84 -120 -121 -126 -127 0
-15 -30 -31 -44 -45 -57 -58 -92 -93 -101 -102 -109 -110 0
-16 -30 -32 -44 -45 -57 -58 -92 -93 -101 -102 -109 -110 0
-17 -30 -33 -44 -45 -57 -58 -92 -93 -101 -102 -109 -110 0
-16 -31 -32 -44 -46 -57 -58 -92 -93 -101 -102 -109 -110 0
-17 -31 -33 -44 -46 -57 -58 -92 -93 -101 -102 -109 -110 0
-17 -32 -33 -44 -47 -57 -58 -92 -93 -101 -102 -109 -110 0
-16 -31 -32 -45 -46 -57 -59 -92 -93 -101 -102 -109 -110 0
-17 -31 -33 -45 -46 -57 -59 -92 -93 -101 -102 -109 -110 0
-17 -32 -33 -45 -47 -57 -59 -92 -93 -101 -102 -109 -110 0
-17 -32 -33 -46 -47 -57 -60 -92 -93 -101 -102 -109 -110 0
-16 -31 -32 -45 -46 -58 -59 -92 -94 -101 -102 -109 -110 0
-17 -31 -33 -45 -46 -58 -59 -92 -94 -101 -102 -109 -110 0
-17 -32 -33 -45 -47 -58 -59 -92 -94 -101 -102 -109 -110 0
-17 -32 -33 -46 -47 -58 -60 -92 -94 -101 -102 -109 -110 0
-17 -32 -33 -46 -47 -59 -60 -92 -95 -101 -102 -109 -110 0
-16 -31 -32 -45 -46 -58 -59 -93 -94 -101 -103 -109 -110 0
-17 -31 -33 -45 -46 -58 -59 -93 -94 -101 -103 -109 -110 0
-17 -32 -33 -45 -47 -58 -59 -93 -94 -101 -103 -109 -110 0
-17 -32 -33 -46 -47 -58 -60 -93 -94 -101 -103 -109 -110 0
-17 -32 -33 -46 -47 -59 -60 -93 -95 -101 -103 -109 -110 0
-17 -32 -33 -46 -47 -59 -60 -94 -95 -101 -104 -109 -110 0
-16 -31 -32 -45 -46 -58 -59 -93 -94 -102 -103 -109 -111 0
-17 -31 -33 -45 -46 -58 -59 -93 -94 -102 -103 -109 -111 0
-17 -32 -33 -45 -47 -58 -59 -93 -94 -102 -103 -109 -111 0
-17 -32 -33 -46 -47 -58 -60 -93 -94 -102 -103 -109 -111 0
-17 -32 -33 -46 -47 -59 -60 -93 -95 -102 -103 -109 -111 0
-17 -32 -33 -46 -47 -59 -60 -94 -95 -102 -104 -109 -111 0
-17 -32 -33 -46 -47 -59 -60 -94 -95 -103 -104 -109 -112 0
-16 -31 -32 -45 -46 -58 -59 -93 -94 -102 -103 -110 -111 0
-17 -31 -33 -45 -46 -58 -59 -93 -94 -102 -103 -110 -111 0
-17 -32 -33 -45 -47 -58 -59 -93 -94 -102 -103 -110 -111 0
-17 -32 -33 -46 -47 -58 -60 -93 -94 -102 -103 -110 -111 0
-17 -32 -33 -46 -47 -59 -60 -93 -95 -102 -103 -110 -111 0
-17 -32 -33 -46 -47 -59 -60 -94 -95 -102 -104 -110 -111 0
-17 -32 -33 -46 -47 -59 -60 -94 -95 -103 -104 -110 -112 0
-17 -32 -33 -46 -47 -59 -60 -94 -95 -103 -104 -111 -112 0
-16 -31 -32 -45 -46 -58 -59 -93 -94 -102 -103 -118 -119 0
-17 -31 -33 -45 -46 -58 -59 -93 -94 -102 -103 -118 -119 0
-17 -32 -33 -45 -47 -58 -59 -93 -94 -102 -103 -118 -119 0
-17 -32 -33 -46 -47 -58 -60 -93 -94 -102 -103 -118 -119 0
-17 -32 -33 -46 -47 -59 -60 -93 -95 -102 -103 -118 -119 0
-17 -32 -33 -46 -47 -59 -60 -94 -95 -102 -104 -118 -119 0
-17 -32 -33 -46 -47 -59 -60 -94 -95 -103 -104 -118 -120 0
-17 -32 -33 -46 -47 -59 -60 -94 -95 -103 -104 -119 -120 0
-17 -32 -33 -46 -47 -59 -60 -94 -95 -103 -104 -126 -127 0
-16 -31 -32 -45 -46 -58 -59 -93 -94 -111 -112 -118 -119 0
-17 -31 -33 -45 -46 -58 -59 -93 -94 -111 -112 -118 -119 0
-17 -32 -33 -45 -47 -58 -59 -93 -94 -111 -112 -118 -119 0
-17 -32 -33 -46 -47 -58 -60 -93 -94 -111 -112 -118 -119 0
-17 -32 -33 -46 -47 -59 -60 -93 -95 -111 -112 -118 -119 0
-17 -32 -33 -46 -47 -59 -60 -94 -95 -111 -113 -118 -119 0
-17 -32 -33 -46 -47 -59 -60 -94 -95 -112 -113 -118 -120 0
-17 -32 -33 -46 -47 -59 -60 -94 -95 -112 -113 -119 -120 0
-17 -32 -33 -46 -47 -59 -60 -94 -95 -112 -113 -126 -127 0
-17 -32 -33 -46 -47 -59 -60 -94 -95 -120 -121 -126 -127 0
-16 -31 -32 -45 -46 -58 -59 -103 -104 -111 -112 -118 -119 0
-17 -31 -33 -45 -46 -58 -59 -103 -104 -111 -112 -118 -119 0
-17 -32 -33 -45 -47 -58 -59 -103 -104 -111 -112 -118 -119 0
-17 -32 -33 -46 -47 -58 -60 -103 -104 -111 -112 -118 -119 0
-17 -32 -33 -46 -47 -59 -60 -103 -105 -111 -112 -118 -119 0
-17 -32 -33 -46 -47 -59 -60 -104 -105 -111 -113 -118 -119 0
-17 -32 -33 -46 -47 -59 -60 -104 -105 -112 -113 -118 -120 0
-17 -32 -33 -46 -47 -59 -60 -104 -105 -112 -113 -119 -120 0
-17 -32 -33 -46 -47 -59 -60 -104 -105 -112 -113 -126 -127 0
-17 -32 -33 -46 -47 -59 -60 -104 -105 -120 -121 -126 -127 0
-17 -32 -33 -46 -47 -59 -60 -113 -114 -120 -121 -126 -127 0
-14 -29 -30 -43 -44 -69 -70 -80 -81 -90 -91 -99 -100 0
-15 -29 -31 -43 -44 -69 -70 -80 -81 -90 -91 -99 -100 0
-16 -29 -32 -43 -44 -69 -70 -80 -81 -90 -91 -99 -100 0
-17 -29 -33 -43 -44 -69 -70 -80 -81 -90 -91 -99 -100 0
-15 -30 -31 -43 -45 -69 -70 -80 -81 -90 -91 -99 -100 0
-16 -30 -32 -43 -45 -69 -70 -80 -81 -90 -91 -99 -100 0
-17 -30 -33 -43 -45 -69 -70 -80 -81 -90 -91 -99 -100 0
-16 -31 -32 -43 -46 -69 -70 -80 -81 -90 -91 -99 -100 0
-17 -31 -33 -43 -46 -69 -70 -80 -81 -90 -91 -99 -100 0
-17 -32 -33 -43 -47 -69 -70 -80 -81 -90 -91 -99 -100 0
-15 -30 -31 -44 -45 -69 -71 -80 -81 -90 -91 -99 -100 0
-16 -30 -32 -44 -45 -69 -71 -80 -81 -90 -91 -99 -100 0
-17 -30 -33 -44 -45 -69 -71 -80 -81 -90 -91 -99 -100 0
-16 -31 -32 -44 -46 -69 -71 -80 -81 -90 -91 -99 -100 0
-17 -31 -33 -44 -46 -69 -71 -80 -81 -90 -91 -99 -100 0
-17 -32 -33 -44 -47 -69 -71 -80 -81 -90 -91 -99 -100 0
-16 -31 -32 -45 -46 -69 -72 -80 -81 -90 -91 -99 -100 0
-17 -31 -33 -45 -46 -69 -72 -80 -81 -90 -91 -99 -100 0
-17 -32 -33 -45 -47 -69 -72 -80 -81 -90 -91 -99 -100 0
-17 -32 -33 -46 -47 -69 -73 -80 -81 -90 -91 -99 -100 0
-15 -30 -31 -44 -45 -70 -71 -80 -82 -90 -91 -99 -100 0
-16 -30 -32 -44 -45 -70 -71 -80 -82 -90 -91 -99 -100 0
-17 -30 -33 -44 -45 -70 -71 -80 -82 -90 -91 -99 -100 0
-16 -31 -32 -44 -46 -70 -71 -80 -82 -90 -91 -99 -100 0
-17 -31 -33 -44 -46 -70 -71 -80 -82 -90 -91 -99 -100 0
-17 -32 -33 -44 -47 -70 -71 -80 -82 -90 -91 -99 -100 0
-16 -31 -32 -45 -46 -70 -72 -80 -82 -90 -91 -99 -100 0
-17 -31 -33 -45 -46 -70 -72 -80 -82 -90 -91 -99 -100 0
-17 -32 -33 -45 -47 -70 -72 -80 -82 -90 -91 -99 -100 0
-17 -32 -33 -46 -47 -70 -73 -80 -82 -90 -91 -99 -100 0
-16 -31 -32 -45 -46 -71 -72 -80 -83 -90 -91 -99 -100 0
-17 -31 -33 -45 -46 -71 -72 -80 -83 -90 -91 -99 -100 0
-17 -32 -33 -45 -47 -71 -72 -80 -83 -90 -91 -99 -100 0
-17 -32 -33 -46 -47 -71 -73 -80 -83 -90 -91 -99 -100 0
-17 -32 -33 -46 -47 -72 -73 -80 -84 -90 -91 -99 -100 0
-15 -30 -31 -44 -45 -70 -71 -81 -82 -90 -92 -99 -100 0
-16 -30 -32 -44 -45 -70 -71 -81 -82 -90 -92 -99 -100 0
-17 -30 -33 -44 -45 -70 -71 -81 -82 -90 -92 -99 -100 0
-16 -31 -32 -44 -46 -70 -71 -81 -82 -90 -92 -99 -100 0
-17 -31 -33 -44 -46 -70 -71 -81 -82 -90 -92 -99 -100 0
-17 -32 -33 -44 -47 -70 -71 -81 -82 -90 -92 -99 -100 0
-16 -31 -32 -45 -46 -70 -72 -81 -82 -90 -92 -99 -100 0
-17 -31 -33 -45 -46 -70 -72 -81 -82 -90 -92 -99 -100 0
-17 -32 -33 -45 -47 -70 -72 -81 -82 -90 -92 -99 -100 0
-17 -32 -33 -46 -47 -70 -73 -81 -82 -90 -92 -99 -100 0
-16 -31 -32 -45 -46 -71 -72 -81 -83 -90 -92 -99 -100 0
-17 -31 -33 -45 -46 -71 -72 -81 -83 -90 -92 -99 -100 0
-17 -32 -33 -45 -47 -71 -72 -81 -83 -90 -92 -99 -100 0
-17 -32 -33 -46 -47 -71 -73 -81 -83 -90 -92 -99 -100 0
-17 -32 -33 -46 -47 -72 -73 -81 -84 -90 -92 -99 -100 0
-16 -31 -32 -45 -46 -71 -72 -82 -83 -90 -93 -99 -100 0
-17 -31 -33 -45 -46 -71 -72 -82 -83 -90 -93 -99 -100 0
-17 -32 -33 -45 -47 -71 -72 -82 -83 -90 -93 -99 -100 0
-17 -32 -33 -46 -47 -71 -73 -82 -83 -90 -93 -99 -100 0
-17 -32 -33 -46 -47 -72 -73 -82 -84 -90 -93 -99 -100 0
-17 -32 -33 -46 -47 -72 -73 -83 -84 -90 -94 -99 -100 0
-15 -30 -31 -44 -45 -70 -71 -81 -82 -91 -92 -99 -101 0
-16 -30 -32 -44 -45 -70 -71 -81 -82 -91 -92 -99 -101 0
-17 -30 -33 -44 -45 -70 -71 -81 -82 -91 -92 -99 -101 0
-16 -31 -32 -44 -46 -70 -71 -81 -82 -91 -92 -99 -101 0
-17 -31 -33 -44 -46 -70 -71 -81 -82 -91 -92 -99 -101 0
-17 -32 -33 -44 -47 -70 -71 -81 -82 -91 -92 -99 -101 0
-16 -31 -32 -45 -46 -70 -72 -81 -82 -91 -92 -99 -101 0
-17 -31 -33 -45 -46 -70 -72 -81 -82 -91 -92 -99 -101 0
-17 -32 -33 -45 -47 -70 -72 -81 -82 -91 -92 -99 -101 0
-17 -32 -33 -46 -47 -70 -73 -81 -82 -91 -92 -99 -101 0
-16 -31 -32 -45 -46 -71 -72 -81 -83 -91 -92 -99 -101 0
-17 -31 -33 -45 -46 -71 -72 -81 -83 -91 -92 -99 -101 0
-17 -32 -33 -45 -47 -71 -72 -81 -83 -91 -92 -99 -101 0
-17 -32 -33 -46 -47 -71 -73 -81 -83 -91 -92 -99 -101 0
-17 -32 -33 -46 -47 -72 -73 -81 -84 -91 -92 -99 -101 0
-16 -31 -32 -45 -46 -71 -72 -82 -83 -91 -93 -99 -101 0
-17 -31 -33 -45 -46 -71 -72 -82 -83 -91 -93 -99 -101 0
-17 -32 -33 -45 -47 -71 -72 -82 -83 -91 -93 -99 -101 0
-17 -32 -33 -46 -47 -71 -73 -82 -83 -91 -93 -99 -101 0
-17 -32 -33 -46 -47 -72 -73 -82 -84 -91 -93 -99 -101 0
-17 -32 -33 -46 -47 -72 -73 -83 -84 -91 -94 -99 -101 0
-16 -31 -32 -45 -46 -71 -72 -82 -83 -92 -93 -99 -102 0
-17 -31 -33 -45 -46 -71 -72 -82 -83 -92 -93 -99 -102 0
-17 -32 -33 -45 -47 -71 -72 -82 -83 -92 -93 -99 -102 0
-17 -32 -33 -46 -47 -71 -73 -82 -83 -92 -93 -99 -102 0
-17 -32 -33 -46 -47 -72 -73 -82 -84 -92 -93 -99 -102 0
-17 -32 -33 -46 -47 -72 -73 -83 -84 -92 -94 -99 -102 0
-17 -32 -33 -46 -47 -72 -73 -83 -84 -93 -94 -99 -103 0
-15 -30 -31 -44 -45 -70 -71 -81 -82 -91 -92 -100 -101 0
-16 -30 -32 -44 -45 -70 -71 -81 -82 -91 -92 -100 -101 0
-17 -30 -33 -44 -45 -70 -71 -81 -82 -91 -92 -100 -101 0
-16 -31 -32 -44 -46 -70 -71 -81 -82 -91 -92 -100 -101 0
-17 -31 -33 -44 -46 -70 -71 -81 -82 -91 -92 -100 -101 0
-17 -32 -33 -44 -47 -70 -71 -81 -82 -91 -92 -100 -101 0
-16 -31 -32 -45 -46 -70 -72 -81 -82 -91 -92 -100 -101 0
-17 -31 -33 -45 -46 -70 -72 -81 -82 -91 -92 -100 -101 0
-17 -32 -33 -45 -47 -70 -72 -81 -82 -91 -92 -100 -101 0
-17 -32 -33 -46 -47 -70 -73 -81 -82 -91 -92 -100 -101 0
-16 -31 -32 -45 -46 -71 -72 -81 -83 -91 -92 -100 -101 0
-17 -31 -33 -45 -46 -71 -72 -81 -83 -91 -92 -100 -101 0
-17 -32 -33 -45 -47 -71 -72 -81 -83 -91 -92 -100 -101 0
-17 -32 -33 -46 -47 -71 -73 -81 -83 -91 -92 -100 -101 0
-17 -32 -33 -46 -47 -72 -73 -81 -84 -91 -92 -100 -101 0
-16 -31 -32 -45 -46 -71 -72 -82 -83 -91 -93 -100 -101 0
-17 -31 -33 -45 -46 -71 -72 -82 -83 -91 -93 -100 -101 0
-17 -32 -33 -45 -47 -71 -72 -82 -83 -91 -93 -100 -101 0
-17 -32 -33 -46 -47 -71 -73 -82 -83 -91 -93 -100 -101 0
-17 -32 -33 -46 -47 -72 -73 -82 -84 -91 -93 -100 -101 0
-17 -32 -33 -46 -47 -72 -73 -83 -84 -91 -94 -100 -101 0
-16 -31 -32 -45 -46 -71 -72 -82 -83 -92 -93 -100 -102 0
-17 -31 -33 -45 -46 -71 -72 -82 -83 -92 -93 -100 -102 0
-17 -32 -33 -45 -47 -71 -72 -82 -83 -92 -93 -100 -102 0
-17 -32 -33 -46 -47 -71 -73 -82 -83 -92 -93 -100 -102 0
-17 -32 -33 -46 -47 -72 -73 -82 -84 -92 -93 -100 -102 0
-17 -32 -33 -46 -47 -72 -73 -83 -84 -92 -94 -100 -102 0
-17 -32 -33 -46 -47 -72 -73 -83 -84 -93 -94 -100 -103 0
-16 -31 -32 -45 -46 -71 -72 -82 -83 -92 -93 -101 -102 0
-17 -31 -33 -45 -46 -71 -72 -82 -83 -92 -93 -101 -102 0
-17 -32 -33 -45 -47 -71 -72 -82 -83 -92 -93 -101 -102 0
-17 -32 -33 -46 -47 -71 -73 -82 -83 -92 -93 -101 -102 0
-17 -32 -33 -46 -47 -72 -73 -82 -84 -92 -93 -101 -102 0
-17 -32 -33 -46 -47 -72 -73 -83 -84 -92 -94 -101 -102 0
-17 -32 -33 -46 -47 -72 -73 -83 -84 -93 -94 -101 -103 0
-17 -32 -33 -46 -47 -72 -73 -83 -84 -93 -94 -102 -103 0
-15 -30 -31 -44 -45 -70 -71 -81 -82 -91 -92 -109 -110 0
-16 -30 -32 -44 -45 -70 -71 -81 -82 -91 -92 -109 -110 0
-17 -30 -33 -44 -45 -70 -71 -81 -82 -91 -92 -109 -110 0
-16 -31 -32 -44 -46 -70 -71 -81 -82 -91 -92 -109 -110 0
-17 -31 -33 -44 -46 -70 -71 -81 -82 -91 -92 -109 -110 0
-17 -32 -33 -44 -47 -70 -71 -81 -82 -91 -92 -109 -110 0
-16 -31 -32 -45 -46 -70 -72 -81 -82 -91 -92 -109 -110 0
-17 -31 -33 -45 -46 -70 -72 -81 -82 -91 -92 -109 -110 0
-17 -32 -33 -45 -47 -70 -72 -81 -82 -91 -92 -109 -110 0
-17 -32 -33 -46 -47 -70 -73 -81 -82 -91 -92 -109 -110 0
-16 -31 -32 -45 -46 -71 -72 -81 -83 -91 -92 -109 -110 0
-17 -31 -33 -45 -46 -71 -72 -81 -83 -91 -92 -109 -110 0
-17 -32 -33 -45 -47 -71 -72 -81 -83 -91 -92 -109 -110 0
-17 -32 -33 -46 -47 -71 -73 -81 -83 -91 -92 -109 -110 0
-17 -32 -33 -46 -47 -72 -73 -81 -84 -91 -92 -109 -110 0
-16 -31 -32 -45 -46 -71 -72 -82 -83 -91 -93 -109 -110 0
-17 -31 -33 -45 -46 -71 -72 -82 -83 -91 -93 -109 -110 0
-17 -32 -33 -45 -47 -71 -72 -82 -83 -91 -93 -109 -110 0
-17 -32 -33 -46 -47 -71 -73 -82 -83 -91 -93 -109 -110 0
-17 -32 -33 -46 -47 -72 -73 -82 -84 -91 -93 -109 -110 0
-17 -32 -33 -46 -47 -72 -73 -83 -84 -91 -94 -109 -110 0
-16 -31 -32 -45 -46 -71 -72 -82 -83 -92 -93 -109 -111 0
-17 -31 -33 -45 -46 -71 -72 -82 -83 -92 -93 -109 -111 0
-17 -32 -33 -45 -47 -71 -72 -82 -83 -92 -93 -109 -111 0
-17 -32 -33 -46 -47 -71 -73 -82 -83 -92 -93 -109 -111 0
-17 -32 -33 -46 -47 -72 -73 -82 -84 -92 -93 -109 -111 0
-17 -32 -33 -46 -47 -72 -73 -83 -84 -92 -94 -109 -111 0
-17 -32 -33 -46 -47 -72 -73 -83 -84 -93 -94 -109 -112 0
-16 -31 -32 -45 -46 -71 -72 -82 -83 -92 -93 -110 -111 0
-17 -31 -33 -45 -46 -71 -72 -82 -83 -92 -93 -110 -111 0
-17 -32 -33 -45 -47 -71 -72 -82 -83 -92 -93 -110 -111 0
-17 -32 -33 -46 -47 -71 -73 -82 -83 -92 -93 -110 -111 0
-17 -32 -33 -46 -47 -72 -73 -82 -84 -92 -93 -110 -111 0
-17 -32 -33 -46 -47 -72 -73 -83 -84 -92 -94 -110 -111 0
-17 -32 -33 -46 -47 -72 -73 -83 -84 -93 -94 -110 -112 0
-17 -32 -33 -46 -47 -72 -73 -83 -84 -93 -94 -111 -112 0
-16 -31 -32 -45 -46 -71 -72 -82 -83 -92 -93 -118 -119 0
-17 -31 -33 -45 -46 -71 -72 -82 -83 -92 -93 -118 -119 0
-17 -32 -33 -45 -47 -71 -72 -82 -83 -92 -93 -118 -119 0
-17 -32 -33 -46 -47 -71 -73 -82 -83 -92 -93 -118 -119 0
-17 -32 -33 -46 -47 -72 -73 -82 -84 -92 -93 -118 -119 0
-17 -32 -33 -46 -47 -72 -73 -83 -84 -92 -94 -118 -119 0
-17 -32 -33 -46 -47 -72 -73 -83 -84 -93 -94 -118 -120 0
-17 -32 -33 -46 -47 -72 -73 -83 -84 -93 -94 -119 -120 0
-17 -32 -33 -46 -47 -72 -73 -83 -84 -93 -94 -126 -127 0
-15 -30 -31 -44 -45 -70 -71 -81 -82 -101 -102 -109 -110 0
-16 -30 -32 -44 -45 -70 -71 -81 -82 -101 -102 -109 -110 0
-17 -30 -33 -44 -45 -70 -71 -81 -82 -101 -102 -109 -110 0
-16 -31 -32 -44 -46 -70 -71 -81 -82 -101 -102 -109 -110 0
-17 -31 -33 -44 -46 -70 -71 -81 -82 -101 -102 -109 -110 0
-17 -32 -33 -44 -47 -70 -71 -81 -82 -101 -102 -109 -110 0
-16 -31 -32 -45 -46 -70 -72 -81 -82 -101 -102 -109 -110 0
-17 -31 -33 -45 -46 -70 -72 -81 -82 -101 -102 -109 -110 0
-17 -32 -33 -45 -47 -70 -72 -81 -82 -101 -102 -109 -110 0
-17 -32 -33 -46 -47 -70 -73 -81 -82 -101 -102 -109 -110 0
-16 -31 -32 -45 -46 -71 -72 -81 -83 -101 -102 -109 -110 0
-17 -31 -33 -45 -46 -71 -72 -81 -83 -101 -102 -109 -110 0
-17 -32 -33 -45 -47 -71 -72 -81 -83 -101 -102 -109 -110 0
-17 -32 -33 -46 -47 -71 -73 -81 -83 -101 -102 -109 -110 0
-17 -32 -33 -46 -47 -72 -73 -81 -84 -101 -102 -109 -110 0
-16 -31 -32 -45 -46 -71 -72 -82 -83 -101 -103 -109 -110 0
-17 -31 -33 -45 -46 -71 -72 -82 -83 -101 -103 -109 -110 0
-17 -32 -33 -45 -47 -71 -72 -82 -83 -101 -103 -109 -110 0
-17 -32 -33 -46 -47 -71 -73 -82 -83 -101 -103 -109 -110 0
-17 -32 -33 -46 -47 -72 -73 -82 -84 -101 -103 -109 -110 0
-17 -32 -33 -46 -47 -72 -73 -83 -84 -101 -104 -109 -110 0
-16 -31 -32 -45 -46 -71 -72 -82 -83 -102 -103 -109 -111 0
-17 -31 -33 -45 -46 -71 -72 -82 -83 -102 -103 -109 -111 0
-17 -32 -33 -45 -47 -71 -72 -82 -83 -102 -103 -109 -111 0
-17 -32 -33 -46 -47 -71 -73 -82 -83 -102 -103 -109 -111 0
-17 -32 -33 -46 -47 -72 -73 -82 -84 -102 -103 -109 -111 0
-17 -32 -33 -46 -47 -72 -73 -83 -84 -102 -104 -109 -111 0
-17 -32 -33 -46 -47 -72 -73 -83 -84 -103 -104 -109 -112 0
-16 -31 -32 -45 -46 -71 -72 -82 -83 -102 -103 -110 -111 0
-17 -31 -33 -45 -46 -71 -72 -82 -83 -102 -103 -110 -111 0
-17 -32 -33 -45 -47 -71 -72 -82 -83 -102 -103 -110 -111 0
-17 -32 -33 -46 -47 -71 -73 -82 -83 -102 -103 -110 -111 0
-17 -32 -33 -46 -47 -72 -73 -82 -84 -102 -103 -110 -111 0
-17 -32 -33 -46 -47 -72 -73 -83 -84 -102 -104 -110 -111 0
-17 -32 -33 -46 -47 -72 -73 -83 -84 -103 -104 -110 -112 0
-17 -32 -33 -46 -47 -72 -73 -83 -84 -103 -104 -111 -112 0
-16 -31 -32 -45 -46 -71 -72 -82 -83 -102 -103 -118 -119 0
-17 -31 -33 -45 -46 -71 -72 -82 -83 -102 -103 -118 -119 0
-17 -32 -33 -45 -47 -71 -72 -82 -83 -102 -103 -118 -119 0
-17 -32 -33 -46 -47 -71 -73 -82 -83 -102 -103 -118 -119 0
-17 -32 -33 -46 -47 -72 -73 -82 -84 -102 -103 -118 -119 0
-17 -32 -33 -46 -47 -72 -73 -83 -84 -102 -104 -118 -119 0
-17 -32 -33 -46 -47 -72 -73 -83 -84 -103 -104 -118 -120 0
-17 -32 -33 -46 -47 -72 -73 -83 -84 -103 -104 -119 -120 0
-17 -32 -33 -46 -47 -72 -73 -83 -84 -103 -104 -126 -127 0
-16 -31 -32 -45 -46 -71 -72 -82 -83 -111 -112 -118 -119 0
-17 -31 -33 -45 -46 -71 -72 -82 -83 -111 -112 -118 -119 0
-17 -32 -33 -45 -47 -71 -72 -82 -83 -111 -112 -118 -119 0
-17 -32 -33 -46 -47 -71 -73 -82 -83 -111 -112 -118 -119 0
-17 -32 -33 -46 -47 -72 -73 -82 -84 -111 -112 -118 -119 0
-17 -32 -33 -46 -47 -72 -73 -83 -84 -111 -113 -118 -119 0
-17 -32 -33 -46 -47 -72 -73 -83 -84 -112 -113 -118 -120 0
-17 -32 -33 -46 -47 -72 -73 -83 -84 -112 -113 -119 -120 0
-17 -32 -33 -46 -47 -72 -73 -83 -84 -112 -113 -126 -127 0
-17 -32 -33 -46 -47 -72 -73 -83 -84 -120 -121 -126 -127 0
-15 -30 -31 -44 -45 -70 -71 -92 -93 -101 -102 -109 -110 0
-16 -30 -32 -44 -45 -70 -71 -92 -93 -101 -102 -109 -110 0
-17 -30 -33 -44 -45 -70 -71 -92 -93 -101 -102 -109 -110 0
-16 -31 -32 -44 -46 -70 -71 -92 -93 -101 -102 -109 -110 0
-17 -31 -33 -44 -46 -70 -71 -92 -93 -101 -102 -109 -110 0
-17 -32 -33 -44 -47 -70 -71 -92 -93 -101 -102 -109 -110 0
-16 -31 -32 -45 -46 -70 -72 -92 -93 -101 -102 -109 -110 0
-17 -31 -33 -45 -46 -70 -72 -92 -93 -101 -102 -109 -110 0
-17 -32 -33 -45 -47 -70 -72 -92 -93 -101 -102 -109 -110 0
-17 -32 -33 -46 -47 -70 -73 -92 -93 -101 -102 -109 -110 0
-16 -31 -32 -45 -46 -71 -72 -92 -94 -101 -102 -109 -110 0
-17 -31 -33 -45 -46 -71 -72 -92 -94 -101 -102 -109 -110 0
-17 -32 -33 -45 -47 -71 -72 -92 -94 -101 -102 -109 -110 0
-17 -32 -33 -46 -47 -71 -73 -92 -94 -101 -102 -109 -110 0
-17 -32 -33 -46 -47 -72 -73 -92 -95 -101 -102 -109 -110 0
-16 -31 -32 -45 -46 -71 -72 -93 -94 -101 -103 -109 -110 0
-17 -31 -33 -45 -46 -71 -72 -93 -94 -101 -103 -109 -110 0
-17 -32 -33 -45 -47 -71 -72 -93 -94 -101 -103 -109 -110 0
-17 -32 -33 -46 -47 -71 -73 -93 -94 -101 -103 -109 -110 0
-17 -32 -33 -46 -47 -72 -73 -93 -95 -101 -103 -109 -110 0
-17 -32 -33 -46 -47 -72 -73 -94 -95 -101 -104 -109 -110 0
-16 -31 -32 -45 -46 -71 -72 -93 -94 -102 -103 -109 -111 0
-17 -31 -33 -45 -46 -71 -72 -93 -94 -102 -103 -109 -111 0
-17 -32 -33 -45 -47 -71 -72 -93 -94 -102 -103 -109 -111 0
-17 -32 -33 -46 -47 -71 -73 -93 -94 -102 -103 -109 -111 0
-17 -32 -33 -46 -47 -72 -73 -93 -95 -102 -103 -109 -111 0
-17 -32 -33 -46 -47 -72 -73 -94 -95 -102 -104 -109 -111 0
-17 -32 -33 -46 -47 -72 -73 -94 -95 -103 -104 -109 -112 0
-16 -31 -32 -45 -46 -71 -72 -93 -94 -102 -103 -110 -111 0
-17 -31 -33 -45 -46 -71 -72 -93 -94 -102 -103 -110 -111 0
-17 -32 -33 -45 -47 -71 -72 -93 -94 -102 -103 -110 -111 0
-17 -32 -33 -46 -47 -71 -73 -93 -94 -102 -103 -110 -111 0
-17 -32 -33 -46 -47 -72 -73 -93 -95 -102 -103 -110 -111 0
-17 -32 -33 -46 -47 -72 -73 -94 -95 -102 -104 -110 -111 0
-17 -32 -33 -46 -47 -72 -73 -94 -95 -103 -104 -110 -112 0
-17 -32 -33 -46 -47 -72 -73 -94 -95 -103 -104 -111 -112 0
-16 -31 -32 -45 -46 -71 -72 -93 -94 -102 -103 -118 -119 0
-17 -31 -33 -45 -46 -71 -72 -93 -94 -102 -103 -118 -119 0
-17 -32 -33 -45 -47 -71 -72 -93 -94 -102 -103 -118 -119 0
-17 -32 -33 -46 -47 -71 -73 -93 -94 -102 -103 -118 -119 0
-17 -32 -33 -46 -47 -72 -73 -93 -95 -102 -103 -118 -119 0
-17 -32 -33 -46 -47 -72 -73 -94 -95 -102 -104 -118 -119 0
-17 -32 -33 -46 -47 -72 -73 -94 -95 -103 -104 -118 -120 0
-17 -32 -33 -46 -47 -72 -73 -94 -95 -103 -104 -119 -120 0
-17 -32 -33 -46 -47 -72 -73 -94 -95 -103 -104 -126 -127 0
-16 -31 -32 -45 -46 -71 -72 -93 -94 -111 -112 -118 -119 0
-17 -31 -33 -45 -46 -71 -72 -93 -94 -111 -112 -118 -119 0
-17 -32 -33 -45 -47 -71 -72 -93 -94 -111 -112 -118 -119 0
-17 -32 -33 -46 -47 -71 -73 -93 -94 -111 -112 -118 -119 0
-17 -32 -33 -46 -47 -72 -73 -93 -95 -111 -112 -118 -119 0
-17 -32 -33 -46 -47 -72 -73 -94 -95 -111 -113 -118 -119 0
-17 -32 -33 -46 -47 -72 -73 -94 -95 -112 -113 -118 -120 0
-17 -32 -33 -46 -47 -72 -73 -94 -95 -112 -113 -119 -120 0
-17 -32 -33 -46 -47 -72 -73 -94 -95 -112 -113 -126 -127 0
-17 -32 -33 -46 -47 -72 -73 -94 -95 -120 -121 -126 -127 0
-16 -31 -32 -45 -46 -71 -72 -103 -104 -111 -112 -118 -119 0
-17 -31 -33 -45 -46 -71 -72 -103 -104 -111 -112 -118 -119 0
-17 -32 -33 -45 -47 -71 -72 -103 -104 -111 -112 -118 -119 0
-17 -32 -33 -46 -47 -71 -73 -103 -104 -111 -112 -118 -119 0
-17 -32 -33 -46 -47 -72 -73 -103 -105 -111 -112 -118 -119 0
-17 -32 -33 -46 -47 -72 -73 -104 -105 -111 -113 -118 -119 0
-17 -32 -33 -46 -47 -72 -73 -104 -105 -112 -113 -118 -120 0
-17 -32 -33 -46 -47 -72 -73 -104 -105 -112 -113 -119 -120 0
-17 -32 -33 -46 -47 -72 -73 -104 -105 -112 -113 -126 -127 0
-17 -32 -33 -46 -47 -72 -73 -104 -105 -120 -121 -126 -127 0
-17 -32 -33 -46 -47 -72 -73 -113 -114 -120 -121 -126 -127 0
-15 -30 -31 -44 -45 -82 -83 -92 -93 -101 -102 -109 -110 0
-16 -30 -32 -44 -45 -82 -83 -92 -93 -101 -102 -109 -110 0
-17 -30 -33 -44 -45 -82 -83 -92 -93 -101 -102 -109 -110 0
-16 -31 -32 -44 -46 -82 -83 -92 -93 -101 -102 -109 -110 0
-17 -31 -33 -44 -46 -82 -83 -92 -93 -101 -102 -109 -110 0
-17 -32 -33 -44 -47 -82 -83 -92 -93 -101 -102 -109 -110 0
-16 -31 -32 -45 -46 -82 -84 -92 -93 -101 -102 -109 -110 0
-17 -31 -33 -45 -46 -82 -84 -92 -93 -101 -102 -109 -110 0
-17 -32 -33 -45 -47 -82 -84 -92 -93 -101 -102 -109 -110 0
-17 -32 -33 -46 -47 -82 -85 -92 -93 -101 -102 -109 -110 0
-16 -31 -32 -45 -46 -83 -84 -92 -94 -101 -102 -109 -110 0
-17 -31 -33 -45 -46 -83 -84 -92 -94 -101 -102 -109 -110 0
-17 -32 -33 -45 -47 -83 -84 -92 -94 -101 -102 -109 -110 0
-17 -32 -33 -46 -47 -83 -85 -92 -94 -101 -102 -109 -110 0
-17 -32 -33 -46 -47 -84 -85 -92 -95 -101 -102 -109 -110 0
-16 -31 -32 -45 -46 -83 -84 -93 -94 -101 -103 -109 -110 0
-17 -31 -33 -45 -46 -83 -84 -93 -94 -101 -103 -109 -110 0
-17 -32 -33 -45 -47 -83 -84 -93 -94 -101 -103 -109 -110 0
-17 -32 -33 -46 -47 -83 -85 -93 -94 -101 -103 -109 -110 0
-17 -32 -33 -46 -47 -84 -85 -93 -95 -101 -103 -109 -110 0
-17 -32 -33 -46 -47 -84 -85 -94 -95 -101 -104 -109 -110 0
-16 -31 -32 -45 -46 -83 -84 -93 -94 -102 -103 -109 -111 0
-17 -31 -33 -45 -46 -83 -84 -93 -94 -102 -103 -109 -111 0
-17 -32 -33 -45 -47 -83 -84 -93 -94 -102 -103 -109 -111 0
-17 -32 -33 -46 -47 -83 -85 -93 -94 -102 -103 -109 -111 0
-17 -32 -33 -46 -47 -84 -85 -93 -95 -102 -103 -109 -111 0
-17 -32 -33 -46 -47 -84 -85 -94 -95 -102 -104 -109 -111 0
-17 -32 -33 -46 -47 -84 -85 -94 -95 -103 -104 -109 -112 0
-16 -31 -32 -45 -46 -83 -84 -93 -94 -102 -103 -110 -111 0
-17 -31 -33 -45 -46 -83 -84 -93 -94 -102 -103 -110 -111 0
-17 -32 -33 -45 -47 -83 -84 -93 -94 -102 -103 -110 -111 0
-17 -32 -33 -46 -47 -83 -85 -93 -94 -102 -103 -110 -111 0
-17 -32 -33 -46 -47 -84 -85 -93 -95 -102 -103 -110 -111 0
-17 -32 -33 -46 -47 -84 -85 -94 -95 -102 -104 -110 -111 0
-17 -32 -33 -46 -47 -84 -85 -94 -95 -103 -104 -110 -112 0
-17 -32 -33 -46 -47 -84 -85 -94 -95 -103 -104 -111 -112 0
-16 -31 -32 -45 -46 -83 -84 -93 -94 -102 -103 -118 -119 0
-17 -31 -33 -45 -46 -83 -84 -93 -94 -102 -103 -118 -119 0
-17 -32 -33 -45 -47 -83 -84 -93 -94 -102 -103 -118 -119 0
-17 -32 -33 -46 -47 -83 -85 -93 -94 -102 -103 -118 -119 0
-17 -32 -33 -46 -47 -84 -85 -93 -95 -102 -103 -118 -119 0
-17 -32 -33 -46 -47 -84 -85 -94 -95 -102 -104 -118 -119 0
-17 -32 -33 -46 -47 -84 -85 -94 -95 -103 -104 -118 -120 0
-17 -32 -33 -46 -47 -84 -85 -94 -95 -103 -104 -119 -120 0
-17 -32 -33 -46 -47 -84 -85 -94 -95 -103 -104 -126 -127 0
-16 -31 -32 -45 -46 -83 -84 -93 -94 -111 -112 -118 -119 0
-17 -31 -33 -45 -46 -83 -84 -93 -94 -111 -112 -118 -119 0
-17 -32 -33 -45 -47 -83 -84 -93 -94 -111 -112 -118 -119 0
-17 -32 -33 -46 -47 -83 -85 -93 -94 -111 -112 -118 -119 0
-17 -32 -33 -46 -47 -84 -85 -93 -95 -111 -112 -118 -119 0
-17 -32 -33 -46 -47 -84 -85 -94 -95 -111 -113 -118 -119 0
-17 -32 -33 -46 -47 -84 -85 -94 -95 -112 -113 -118 -120 0
-17 -32 -33 -46 -47 -84 -85 -94 -95 -112 -113 -119 -120 0
-17 -32 -33 -46 -47 -84 -85 -94 -95 -112 -113 -126 -127 0
-17 -32 -33 -46 -47 -84 -85 -94 -95 -120 -121 -126 -127 0
-16 -31 -32 -45 -46 -83 -84 -103 -104 -111 -112 -118 -119 0
-17 -31 -33 -45 -46 -83 -84 -103 -104 -111 -112 -118 -119 0
-17 -32 -33 -45 -47 -83 -84 -103 -104 -111 -112 -118 -119 0
-17 -32 -33 -46 -47 -83 -85 -103 -104 -111 -112 -118 -119 0
-17 -32 -33 -46 -47 -84 -85 -103 -105 -111 -112 -118 -119 0
-17 -32 -33 -46 -47 -84 -85 -104 -105 -111 -113 -118 -119 0
-17 -32 -33 -46 -47 -84 -85 -104 -105 -112 -113 -118 -120 0
-17 -32 -33 -46 -47 -84 -85 -104 -105 -112 -113 -119 -120 0
-17 -32 -33 -46 -47 -84 -85 -104 -105 -112 -113 -126 -127 0
-17 -32 -33 -46 -47 -84 -85 -104 -105 -120 -121 -126 -127 0
-17 -32 -33 -46 -47 -84 -85 -113 -114 -120 -121 -126 -127 0
-16 -31 -32 -45 -46 -94 -95 -103 -104 -111 -112 -118 -119 0
-17 -31 -33 -45 -46 -94 -95 -103 -104 -111 -112 -118 -119 0
-17 -32 -33 -45 -47 -94 -95 -103 -104 -111 -112 -118 -119 0
-17 -32 -33 -46 -47 -94 -96 -103 -104 -111 -112 -118 -119 0
-17 -32 -33 -46 -47 -95 -96 -103 -105 -111 -112 -118 -119 0
-17 -32 -33 -46 -47 -95 -96 -104 -105 -111 -113 -118 -119 0
-17 -32 -33 -46 -47 -95 -96 -104 -105 -112 -113 -118 -120 0
-17 -32 -33 -46 -47 -95 -96 -104 -105 -112 -113 -119 -120 0
-17 -32 -33 -46 -47 -95 -96 -104 -105 -112 -113 -126 -127 0
-17 -32 -33 -46 -47 -95 -96 -104 -105 -120 -121 -126 -127 0
-17 -32 -33 -46 -47 -95 -96 -113 -114 -120 -121 -126 -127 0
-17 -32 -33 -46 -47 -105 -106 -113 -114 -120 -121 -126 -127 0
-14 -29 -30 -57 -58 -69 -70 -80 -81 -90 -91 -99 -100 0
-15 -29 -31 -57 -58 -69 -70 -80 -81 -90 -91 -99 -100 0
-16 -29 -32 -57 -58 -69 -70 -80 -81 -90 -91 -99 -100 0
-17 -29 -33 -57 -58 -69 -70 -80 -81 -90 -91 -99 -100 0
-15 -30 -31 -57 -59 -69 -70 -80 -81 -90 -91 -99 -100 0
-16 -30 -32 -57 -59 -69 -70 -80 -81 -90 -91 -99 -100 0
-17 -30 -33 -57 -59 -69 -70 -80 -81 -90 -91 -99 -100 0
-16 -31 -32 -57 -60 -69 -70 -80 -81 -90 -91 -99 -100 0
-17 -31 -33 -57 -60 -69 -70 -80 -81 -90 -91 -99 -100 0
-17 -32 -33 -57 -61 -69 -70 -80 -81 -90 -91 -99 -100 0
-15 -30 -31 -58 -59 -69 -71 -80 -81 -90 -91 -99 -100 0
-16 -30 -32 -58 -59 -69 -71 -80 -81 -90 -91 -99 -100 0
-17 -30 -33 -58 -59 -69 -71 -80 -81 -90 -91 -99 -100 0
-16 -31 -32 -58 -60 -69 -71 -80 -81 -90 -91 -99 -100 0
-17 -31 -33 -58 -60 -69 -71 -80 -81 -90 -91 -99 -100 0
-17 -32 -33 -58 -61 -69 -71 -80 -81 -90 -91 -99 -100 0
-16 -31 -32 -59 -60 -69 -72 -80 -81 -90 -91 -99 -100 0
-17 -31 -33 -59 -60 -69 -72 -80 -81 -90 -91 -99 -100 0
-17 -32 -33 -59 -61 -69 -72 -80 -81 -90 -91 -99 -100 0
-17 -32 -33 -60 -61 -69 -73 -80 -81 -90 -91 -99 -100 0
-15 -30 -31 -58 -59 -70 -71 -80 -82 -90 -91 -99 -100 0
-16 -30 -32 -58 -59 -70 -71 -80 -82 -90 -91 -99 -100 0
-17 -30 -33 -58 -59 -70 -71 -80 -82 -90 -91 -99 -100 0
-16 -31 -32 -58 -60 -70 -71 -80 -82 -90 -91 -99 -100 0
-17 -31 -33 -58 -60 -70 -71 -80 -82 -90 -91 -99 -100 0
-17 -32 -33 -58 -61 -70 -71 -80 -82 -90 -91 -99 -100 0
-16 -31 -32 -59 -60 -70 -72 -80 -82 -90 -91 -99 -100 0
-17 -31 -33 -59 -60 -70 -72 -80 -82 -90 -91 -99 -100 0
-17 -32 -33 -59 -61 -70 -72 -80 -82 -90 -91 -99 -100 0
-17 -32 -33 -60 -61 -70 -73 -80 -82 -90 -91 -99 -100 0
-16 -31 -32 -59 -60 -71 -72 -80 -83 -90 -91 -99 -100 0
-17 -31 -33 -59 -60 -71 -72 -80 -83 -90 -91 -99 -100 0
-17 -32 -33 -59 -61 -71 -72 -80 -83 -90 -91 -99 -100 0
-17 -32 -33 -60 -61 -71 -73 -80 -83 -90 -91 -99 -100 0
-17 -32 -33 -60 -61 -72 -73 -80 -84 -90 -91 -99 -100 0
-15 -30 -31 -58 -59 -70 -71 -81 -82 -90 -92 -99 -100 0
-16 -30 -32 -58 -59 -70 -71 -81 -82 -90 -92 -99 -100 0
-17 -30 -33 -58 -59 -70 -71 -81 -82 -90 -92 -99 -100 0
-16 -31 -32 -58 -60 -70 -71 -81 -82 -90 -92 -99 -100 0
-17 -31 -33 -58 -60 -70 -71 -81 -82 -90 -92 -99 -100 0
-17 -32 -33 -58 -61 -70 -71 -81 -82 -90 -92 -99 -100 0
-16 -31 -32 -59 -60 -70 -72 -81 -82 -90 -92 -99 -100 0
-17 -31 -33 -59 -60 -70 -72 -81 -82 -90 -92 -99 -100 0
-17 -32 -33 -59 -61 -70 -72 -81 -82 -90 -92 -99 -100 0
-17 -32 -33 -60 -61 -70 -73 -81 -82 -90 -92 -99 -100 0
-16 -31 -32 -59 -60 -71 -72 -81 -83 -90 -92 -99 -100 0
-17 -31 -33 -59 -60 -71 -72 -81 -83 -90 -92 -99 -100 0
-17 -32 -33 -59 -61 -71 -72 -81 -83 -90 -92 -99 -100 0
-17 -32 -33 -60 -61 -71 -73 -81 -83 -90 -92 -99 -100 0
-17 -32 -33 -60 -61 -72 -73 -81 -84 -90 -92 -99 -100 0
-16 -31 -32 -59 -60 -71 -72 -82 -83 -90 -93 -99 -100 0
-17 -31 -33 -59 -60 -71 -72 -82 -83 -90 -93 -99 -100 0
-17 -32 -33 -59 -61 -71 -72 -82 -83 -90 -93 -99 -100 0
-17 -32 -33 -60 -61 -71 -73 -82 -83 -90 -93 -99 -100 0
-17 -32 -33 -60 -61 -72 -73 -82 -84 -90 -93 -99 -100 0
-17 -32 -33 -60 -61 -72 -73 -83 -84 -90 -94 -99 -100 0
-15 -30 -31 -58 -59 -70 -71 -81 -82 -91 -92 -99 -101 0
-16 -30 -32 -58 -59 -70 -71 -81 -82 -91 -92 -99 -101 0
-17 -30 -33 -58 -59 -70 -71 -81 -82 -91 -92 -99 -101 0
-16 -31 -32 -58 -60 -70 -71 -81 -82 -91 -92 -99 -101 0
-17 -31 -33 -58 -60 -70 -71 -81 -82 -91 -92 -99 -101 0
-17 -32 -33 -58 -61 -70 -71 -81 -82 -91 -92 -99 -101 0
-16 -31 -32 -59 -60 -70 -72 -81 -82 -91 -92 -99 -101 0
-17 -31 -33 -59 -60 -70 -72 -81 -82 -91 -92 -99 -101 0
-17 -32 -33 -59 -61 -70 -72 -81 -82 -91 -92 -99 -101 0
-17 -32 -33 -60 -61 -70 -73 -81 -82 -91 -92 -99 -101 0
-16 -31 -32 -59 -60 -71 -72 -81 -83 -91 -92 -99 -101 0
-17 -31 -33 -59 -60 -71 -72 -81 -83 -91 -92 -99 -101 0
-17 -32 -33 -59 -61 -71 -72 -81 -83 -91 -92 -99 -101 0
-17 -32 -33 -60 -61 -71 -73 -81 -83 -91 -92 -99 -101 0
-17 -32 -33 -60 -61 -72 -73 -81 -84 -91 -92 -99 -101 0
-16 -31 -32 -59 -60 -71 -72 -82 -83 -91 -93 -99 -101 0
-17 -31 -33 -59 -60 -71 -72 -82 -83 -91 -93 -99 -101 0
-17 -32 -33 -59 -61 -71 -72 -82 -83 -91 -93 -99 -101 0
-17 -32 -33 -60 -61 -71 -73 -82 -83 -91 -93 -99 -101 0
-17 -32 -33 -60 -61 -72 -73 -82 -84 -91 -93 -99 -101 0
-17 -32 -33 -60 -61 -72 -73 -83 -84 -91 -94 -99 -101 0
-16 -31 -32 -59 -60 -71 -72 -82 -83 -92 -93 -99 -102 0
-17 -31 -33 -59 -60 -71 -72 -82 -83 -92 -93 -99 -102 0
-17 -32 -33 -59 -61 -71 -72 -82 -83 -92 -93 -99 -102 0
-17 -32 -33 -60 -61 -71 -73 -82 -83 -92 -93 -99 -102 0
-17 -32 -33 -60 -61 -72 -73 -82 -84 -92 -93 -99 -102 0
-17 -32 -33 -60 -61 -72 -73 -83 -84 -92 -94 -99 -102 0
-17 -32 -33 -60 -61 -72 -73 -83 -84 -93 -94 -99 -103 0
-15 -30 -31 -58 -59 -70 -71 -81 -82 -91 -92 -100 -101 0
-16 -30 -32 -58 -59 -70 -71 -81 -82 -91 -92 -100 -101 0
-17 -30 -33 -58 -59 -70 -71 -81 -82 -91 -92 -100 -101 0
-16 -31 -32 -58 -60 -70 -71 -81 -82 -91 -92 -100 -101 0
-17 -31 -33 -58 -60 -70 -71 -81 -82 -91 -92 -100 -101 0
-17 -32 -33 -58 -61 -70 -71 -81 -82 -91 -92 -100 -101 0
-16 -31 -32 -59 -60 -70 -72 -81 -82 -91 -92 -100 -101 0
-17 -31 -33 -59 -60 -70 -72 -81 -82 -91 -92 -100 -101 0
-17 -32 -33 -59 -61 -70 -72 -81 -82 -91 -92 -100 -101 0
-17 -32 -33 -60 -61 -70 -73 -81 -82 -91 -92 -100 -101 0
-16 -31 -32 -59 -60 -71 -72 -81 -83 -91 -92 -100 -101 0
-17 -31 -33 -59 -60 -71 -72 -81 -83 -91 -92 -100 -101 0
-17 -32 -33 -59 -61 -71 -72 -81 -83 -91 -92 -100 -101 0
-17 -32 -33 -60 -61 -71 -73 -81 -83 -91 -92 -100 -101 0
-17 -32 -33 -60 -61 -72 -73 -81 -84 -91 -92 -100 -101 0
-16 -31 -32 -59 -60 -71 -72 -82 -83 -91 -93 -100 -101 0
-17 -31 -33 -59 -60 -71 -72 -82 -83 -91 -93 -100 -101 0
-17 -32 -33 -59 -61 -71 -72 -82 -83 -91 -93 -100 -101 0
-17 -32 -33 -60 -61 -71 -73 -82 -83 -91 -93 -100 -101 0
-17 -32 -33 -60 -61 -72 -73 -82 -84 -91 -93 -100 -101 0
-17 -32 -33 -60 -61 -72 -73 -83 -84 -91 -94 -100 -101 0
-16 -31 -32 -59 -60 -71 -72 -82 -83 -92 -93 -100 -102 0
-17 -31 -33 -59 -60 -71 -72 -82 -83 -92 -93 -100 -102 0
-17 -32 -33 -59 -61 -71 -72 -82 -83 -92 -93 -100 -102 0
-17 -32 -33 -60 -61 -71 -73 -82 -83 -92 -93 -100 -102 0
-17 -32 -33 -60 -61 -72 -73 -82 -84 -92 -93 -100 -102 0
-17 -32 -33 -60 -61 -72 -73 -83 -84 -92 -94 -100 -102 0
-17 -32 -33 -60 -61 -72 -73 -83 -84 -93 -94 -100 -103 0
-16 -31 -32 -59 -60 -71 -72 -82 -83 -92 -93 -101 -102 0
-17 -31 -33 -59 -60 -71 -72 -82 -83 -92 -93 -101 -102 0
-17 -32 -33 -59 -61 -71 -72 -82 -83 -92 -93 -101 -102 0
-17 -32 -33 -60 -61 -71 -73 -82 -83 -92 -93 -101 -102 0
-17 -32 -33 -60 -61 -72 -73 -82 -84 -92 -93 -101 -102 0
-17 -32 -33 -60 -61 -72 -73 -83 -84 -92 -94 -101 -102 0
-17 -32 -33 -60 -61 -72 -73 -83 -84 -93 -94 -101 -103 0
-17 -32 -33 -60 -61 -72 -73 -83 -84 -93 -94 -102 -103 0
-15 -30 -31 -58 -59 -70 -71 -81 -82 -91 -92 -109 -110 0
-16 -30 -32 -58 -59 -70 -71 -81 -82 -91 -92 -109 -110 0
-17 -30 -33 -58 -59 -70 -71 -81 -82 -91 -92 -109 -110 0
-16 -31 -32 -58 -60 -70 -71 -81 -82 -91 -92 -109 -110 0
-17 -31 -33 -58 -60 -70 -71 -81 -82 -91 -92 -109 -110 0
-17 -32 -33 -58 -61 -70 -71 -81 -82 -91 -92 -109 -110 0
-16 -31 -32 -59 -60 -70 -72 -81 -82 -91 -92 -109 -110 0
-17 -31 -33 -59 -60 -70 -72 -81 -82 -91 -92 -109 -110 0
-17 -32 -33 -59 -61 -70 -72 -81 -82 -91 -92 -109 -110 0
-17 -32 -33 -60 -61 -70 -73 -81 -82 -91 -92 -109 -110 0
-16 -31 -32 -59 -60 -71 -72 -81 -83 -91 -92 -109 -110 0
-17 -31 -33 -59 -60 -71 -72 -81 -83 -91 -92 -109 -110 0
-17 -32 -33 -59 -61 -71 -72 -81 -83 -91 -92 -109 -110 0
-17 -32 -33 -60 -61 -71 -73 -81 -83 -91 -92 -109 -110 0
-17 -32 -33 -60 -61 -72 -73 -81 -84 -91 -92 -109 -110 0
-16 -31 -32 -59 -60 -71 -72 -82 -83 -91 -93 -109 -110 0
-17 -31 -33 -59 -60 -71 -72 -82 -83 -91 -93 -109 -110 0
-17 -32 -33 -59 -61 -71 -72 -82 -83 -91 -93 -109 -110 0
-17 -32 -33 -60 -61 -71 -73 -82 -83 -91 -93 -109 -110 0
-17 -32 -33 -60 -61 -72 -73 -82 -84 -91 -93 -109 -110 0
-17 -32 -33 -60 -61 -72 -73 -83 -84 -91 -94 -109 -110 0
-16 -31 -32 -59 -60 -71 -72 -82 -83 -92 -93 -109 -111 0
-17 -31 -33 -59 -60 -71 -72 -82 -83 -92 -93 -109 -111 0
-17 -32 -33 -59 -61 -71 -72 -82 -83 -92 -93 -109 -111 0
-17 -32 -33 -60 -61 -71 -73 -82 -83 -92 -93 -109 -111 0
-17 -32 -33 -60 -61 -72 -73 -82 -84 -92 -93 -109 -111 0
-17 -32 -33 -60 -61 -72 -73 -83 -84 -92 -94 -109 -111 0
-17 -32 -33 -60 -61 -72 -73 -83 -84 -93 -94 -109 -112 0
-16 -31 -32 -59 -60 -71 -72 -82 -83 -92 -93 -110 -111 0
-17 -31 -33 -59 -60 -71 -72 -82 -83 -92 -93 -110 -111 0
-17 -32 -33 -59 -61 -71 -72 -82 -83 -92 -93 -110 -111 0
-17 -32 -33 -60 -61 -71 -73 -82 -83 -92 -93 -110 -111 0
-17 -32 -33 -60 -61 -72 -73 -82 -84 -92 -93 -110 -111 0
-17 -32 -33 -60 -61 -72 -73 -83 -84 -92 -94 -110 -111 0
-17 -32 -33 -60 -61 -72 -73 -83 -84 -93 -94 -110 -112 0
-17 -32 -33 -60 -61 -72 -73 -83 -84 -93 -94 -111 -112 0
-16 -31 -32 -59 -60 -71 -72 -82 -83 -92 -93 -118 -119 0
-17 -31 -33 -59 -60 -71 -72 -82 -83 -92 -93 -118 -119 0
-17 -32 -33 -59 -61 -71 -72 -82 -83 -92 -93 -118 -119 0
-17 -32 -33 -60 -61 -71 -73 -82 -83 -92 -93 -118 -119 0
-17 -32 -33 -60 -61 -72 -73 -82 -84 -92 -93 -118 -119 0
-17 -32 -33 -60 -61 -72 -73 -83 -84 -92 -94 -118 -119 0
-17 -32 -33 -60 -61 -72 -73 -83 -84 -93 -94 -118 -120 0
-17 -32 -33 -60 -61 -72 -73 -83 -84 -93 -94 -119 -120 0
-17 -32 -33 -60 -61 -72 -73 -83 -84 -93 -94 -126 -127 0
-15 -30 -31 -58 -59 -70 -71 -81 -82 -101 -102 -109 -110 0
-16 -30 -32 -58 -59 -70 -71 -81 -82 -101 -102 -109 -110 0
-17 -30 -33 -58 -59 -70 -71 -81 -82 -101 -102 -109 -110 0
-16 -31 -32 -58 -60 -70 -71 -81 -82 -101 -102 -109 -110 0
-17 -31 -33 -58 -60 -70 -71 -81 -82 -101 -102 -109 -110 0
-17 -32 -33 -58 -61 -70 -71 -81 -82 -101 -102 -109 -110 0
-16 -31 -32 -59 -60 -70 -72 -81 -82 -101 -102 -109 -110 0
-17 -31 -33 -59 -60 -70 -72 -81 -82 -101 -102 -109 -110 0
-17 -32 -33 -59 -61 -70 -72 -81 -82 -101 -102 -109 -110 0
-17 -32 -33 -60 -61 -70 -73 -81 -82 -101 -102 -109 -110 0
-16 -31 -32 -59 -60 -71 -72 -81 -83 -101 -102 -109 -110 0
-17 -31 -33 -59 -60 -71 -72 -81 -83 -101 -102 -109 -110 0
-17 -32 -33 -59 -61 -71 -72 -81 -83 -101 -102 -109 -110 0
-17 -32 -33 -60 -61 -71 -73 -81 -83 -101 -102 -109 -110 0
-17 -32 -33 -60 -61 -72 -73 -81 -84 -101 -102 -109 -110 0
-16 -31 -32 -59 -60 -71 -72 -82 -83 -101 -103 -109 -110 0
-17 -31 -33 -59 -60 -71 -72 -82 -83 -101 -103 -109 -110 0
-17 -32 -33 -59 -61 -71 -72 -82 -83 -101 -103 -109 -110 0
-17 -32 -33 -60 -61 -71 -73 -82 -83 -101 -103 -109 -110 0
-17 -32 -33 -60 -61 -72 -73 -82 -84 -101 -103 -109 -110 0
-17 -32 -33 -60 -61 -72 -73 -83 -84 -101 -104 -109 -110 0
-16 -31 -32 -59 -60 -71 -72 -82 -83 -102 -103 -109 -111 0
-17 -31 -33 -59 -60 -71 -72 -82 -83 -102 -103 -109 -111 0
-17 -32 -33 -59 -61 -71 -72 -82 -83 -102 -103 -109 -111 0
-17 -32 -33 -60 -61 -71 -73 -82 -83 -102 -103 -109 -111 0
-17 -32 -33 -60 -61 -72 -73 -82 -84 -102 -103 -109 -111 0
-17 -32 -33 -60 -61 -72 -73 -83 -84 -102 -104 -109 -111 0
-17 -32 -33 -60 -61 -72 -73 -83 -84 -103 -104 -109 -112 0
-16 -31 -32 -59 -60 -71 -72 -82 -83 -102 -103 -110 -111 0
-17 -31 -33 -59 -60 -71 -72 -82 -83 -102 -103 -110 -111 0
-17 -32 -33 -59 -61 -71 -72 -82 -83 -102 -103 -110 -111 0
-17 -32 -33 -60 -61 -71 -73 -82 -83 -102 -103 -110 -111 0
-17 -32 -33 -60 -61 -72 -73 -82 -84 -102 -103 -110 -111 0
-17 -32 -33 -60 -61 -72 -73 -83 -84 -102 -104 -110 -111 0
-17 -32 -33 -60 -61 -72 -73 -83 -84 -103 -104 -110 -112 0
-17 -32 -33 -60 -61 -72 -73 -83 -84 -103 -104 -111 -112 0
-16 -31 -32 -59 -60 -71 -72 -82 -83 -102 -103 -118 -119 0
-17 -31 -33 -59 -60 -71 -72 -82 -83 -102 -103 -118 -119 0
-17 -32 -33 -59 -61 -71 -72 -82 -83 -102 -103 -118 -119 0
-17 -32 -33 -60 -61 -71 -73 -82 -83 -102 -103 -118 -119 0
-17 -32 -33 -60 -61 -72 -73 -82 -84 -102 -103 -118 -119 0
-17 -32 -33 -60 -61 -72 -73 -83 -84 -102 -104 -118 -119 0
-17 -32 -33 -60 -61 -72 -73 -83 -84 -103 -104 -118 -120 0
-17 -32 -33 -60 -61 -72 -73 -83 -84 -103 -104 -119 -120 0
-17 -32 -33 -60 -61 -72 -73 -83 -84 -103 -104 -126 -127 0
-16 -31 -32 -59 -60 -71 -72 -82 -83 -111 -112 -118 -119 0
-17 -31 -33 -59 -60 -71 -72 -82 -83 -111 -112 -118 -119 0
-17 -32 -33 -59 -61 -71 -72 -82 -83 -111 -112 -118 -119 0
-17 -32 -33 -60 -61 -71 -73 -82 -83 -111 -112 -118 -119 0
-17 -32 -33 -60 -61 -72 -73 -82 -84 -111 -112 -118 -119 0
-17 -32 -33 -60 -61 -72 -73 -83 -84 -111 -113 -118 -119 0
-17 -32 -33 -60 -61 -72 -73 -83 -84 -112 -113 -118 -120 0
-17 -32 -33 -60 -61 -72 -73 -83 -84 -112 -113 -119 -120 0
-17 -32 -33 -60 -61 -72 -73 -83 -84 -112 -113 -126 -127 0
-17 -32 -33 -60 -61 -72 -73 -83 -84 -120 -121 -126 -127 0
-15 -30 -31 -58 -59 -70 -71 -92 -93 -101 -102 -109 -110 0
-16 -30 -32 -58 -59 -70 -71 -92 -93 -101 -102 -109 -110 0
-17 -30 -33 -58 -59 -70 -71 -92 -93 -101 -102 -109 -110 0
-16 -31 -32 -58 -60 -70 -71 -92 -93 -101 -102 -109 -110 0
-17 -31 -33 -58 -60 -70 -71 -92 -93 -101 -102 -109 -110 0
-17 -32 -33 -58 -61 -70 -71 -92 -93 -101 -102 -109 -110 0
-16 -31 -32 -59 -60 -70 -72 -92 -93 -101 -102 -109 -110 0
-17 -31 -33 -59 -60 -70 -72 -92 -93 -101 -102 -109 -110 0
-17 -32 -33 -59 -61 -70 -72 -92 -93 -101 -102 -109 -110 0
-17 -32 -33 -60 -61 -70 -73 -92 -93 -101 -102 -109 -110 0
-16 -31 -32 -59 -60 -71 -72 -92 -94 -101 -102 -109 -110 0
-17 -31 -33 -59 -60 -71 -72 -92 -94 -101 -102 -109 -110 0
-17 -32 -33 -59 -61 -71 -72 -92 -94 -101 -102 -109 -110 0
-17 -32 -33 -60 -61 -71 -73 -92 -94 -101 -102 -109 -110 0
-17 -32 -33 -60 -61 -72 -73 -92 -95 -101 -102 -109 -110 0
-16 -31 -32 -59 -60 -71 -72 -93 -94 -101 -103 -109 -110 0
-17 -31 -33 -59 -60 -71 -72 -93 -94 -101 -103 -109 -110 0
-17 -32 -33 -59 -61 -71 -72 -93 -94 -101 -103 -109 -110 0
-17 -32 -33 -60 -61 -71 -73 -93 -94 -101 -103 -109 -110 0
-17 -32 -33 -60 -61 -72 -73 -93 -95 -101 -103 -109 -110 0
-17 -32 -33 -60 -61 -72 -73 -94 -95 -101 -104 -109 -110 0
-16 -31 -32 -59 -60 -71 -72 -93 -94 -102 -103 -109 -111 0
-17 -31 -33 -59 -60 -71 -72 -93 -94 -102 -103 -109 -111 0
-17 -32 -33 -59 -61 -71 -72 -93 -94 -102 -103 -109 -111 0
-17 -32 -33 -60 -61 -71 -73 -93 -94 -102 -103 -109 -111 0
-17 -32 -33 -60 -61 -72 -73 -93 -95 -102 -103 -109 -111 0
-17 -32 -33 -60 -61 -72 -73 -94 -95 -102 -104 -109 -111 0
-17 -32 -33 -60 -61 -72 -73 -94 -95 -103 -104 -109 -112 0
-16 -31 -32 -59 -60 -71 -72 -93 -94 -102 -103 -110 -111 0
-17 -31 -33 -59 -60 -71 -72 -93 -94 -102 -103 -110 -111 0
-17 -32 -33 -59 -61 -71 -72 -93 -94 -102 -103 -110 -111 0
-17 -32 -33 -60 -61 -71 -73 -93 -94 -102 -103 -110 -111 0
-17 -32 -33 -60 -61 -72 -73 -93 -95 -102 -103 -110 -111 0
-17 -32 -33 -60 -61 -72 -73 -94 -95 -102 -104 -110 -111 0
-17 -32 -33 -60 -61 -72 -73 -94 -95 -103 -104 -110 -112 0
-17 -32 -33 -60 -61 -72 -73 -94 -95 -103 -104 -111 -112 0
-16 -31 -32 -59 -60 -71 -72 -93 -94 -102 -103 -118 -119 0
-17 -31 -33 -59 -60 -71 -72 -93 -94 -102 -103 -118 -119 0
-17 -32 -33 -59 -61 -71 -72 -93 -94 -102 -103 -118 -119 0
-17 -32 -33 -60 -61 -71 -73 -93 -94 -102 -103 -118 -119 0
-17 -32 -33 -60 -61 -72 -73 -93 -95 -102 -103 -118 -119 0
-17 -32 -33 -60 -61 -72 -73 -94 -95 -102 -104 -118 -119 0
-17 -32 -33 -60 -61 -72 -73 -94 -95 -103 -104 -118 -120 0
-17 -32 -33 -60 -61 -72 -73 -94 -95 -103 -104 -119 -120 0
-17 -32 -33 -60 -61 -72 -73 -94 -95 -103 -104 -126 -127 0
-16 -31 -32 -59 -60 -71 -72 -93 -94 -111 -112 -118 -119 0
-17 -31 -33 -59 -60 -71 -72 -93 -94 -111 -112 -118 -119 0
-17 -32 -33 -59 -61 -71 -72 -93 -94 -111 -112 -118 -119 0
-17 -32 -33 -60 -61 -71 -73 -93 -94 -111 -112 -118 -119 0
-17 -32 -33 -60 -61 -72 -73 -93 -95 -111 -112 -118 -119 0
-17 -32 -33 -60 -61 -72 -73 -94 -95 -111 -113 -118 -119 0
-17 -32 -33 -60 -61 -72 -73 -94 -95 -112 -113 -118 -120 0
-17 -32 -33 -60 -61 -72 -73 -94 -95 -112 -113 -119 -120 0
-17 -32 -33 -60 -61 -72 -73 -94 -95 -112 -113 -126 -127 0
-17 -32 -33 -60 -61 -72 -73 -94 -95 -120 -121 -126 -127 0
-16 -31 -32 -59 -60 -71 -72 -103 -104 -111 -112 -118 -119 0
-17 -31 -33 -59 -60 -71 -72 -103 -104 -111 -112 -118 -119 0
-17 -32 -33 -59 -61 -71 -72 -103 -104 -111 -112 -118 -119 0
-17 -32 -33 -60 -61 -71 -73 -103 -104 -111 -112 -118 -119 0
-17 -32 -33 -60 -61 -72 -73 -103 -105 -111 -112 -118 -119 0
-17 -32 -33 -60 -61 -72 -73 -104 -105 -111 -113 -118 -119 0
-17 -32 -33 -60 -61 -72 -73 -104 -105 -112 -113 -118 -120 0
-17 -32 -33 -60 -61 -72 -73 -104 -105 -112 -113 -119 -120 0
-17 -32 -33 -60 -61 -72 -73 -104 -105 -112 -113 -126 -127 0
-17 -32 -33 -60 -61 -72 -73 -104 -105 -120 -121 -126 -127 0
-17 -32 -33 -60 -61 -72 -73 -113 -114 -120 -121 -126 -127 0
-15 -30 -31 -58 -59 -82 -83 -92 -93 -101 -102 -109 -110 0
-16 -30 -32 -58 -59 -82 -83 -92 -93 -101 -102 -109 -110 0
-17 -30 -33 -58 -59 -82 -83 -92 -93 -101 -102 -109 -110 0
-16 -31 -32 -58 -60 -82 -83 -92 -93 -101 -102 -109 -110 0
-17 -31 -33 -58 -60 -82 -83 -92 -93 -101 -102 -109 -110 0
-17 -32 -33 -58 -61 -82 -83 -92 -93 -101 -102 -109 -110 0
-16 -31 -32 -59 -60 -82 -84 -92 -93 -101 -102 -109 -110 0
-17 -31 -33 -59 -60 -82 -84 -92 -93 -101 -102 -109 -110 0
-17 -32 -33 -59 -61 -82 -84 -92 -93 -101 -102 -109 -110 0
-17 -32 -33 -60 -61 -82 -85 -92 -93 -101 -102 -109 -110 0
-16 -31 -32 -59 -60 -83 -84 -92 -94 -101 -102 -109 -110 0
-17 -31 -33 -59 -60 -83 -84 -92 -94 -101 -102 -109 -110 0
-17 -32 -33 -59 -61 -83 -84 -92 -94 -101 -102 -109 -110 0
-17 -32 -33 -60 -61 -83 -85 -92 -94 -101 -102 -109 -110 0
-17 -32 -33 -60 -61 -84 -85 -92 -95 -101 -102 -109 -110 0
-16 -31 -32 -59 -60 -83 -84 -93 -94 -101 -103 -109 -110 0
-17 -31 -33 -59 -60 -83 -84 -93 -94 -101 -103 -109 -110 0
-17 -32 -33 -59 -61 -83 -84 -93 -94 -101 -103 -109 -110 0
-17 -32 -33 -60 -61 -83 -85 -93 -94 -101 -103 -109 -110 0
-17 -32 -33 -60 -61 -84 -85 -93 -95 -101 -103 -109 -110 0
-17 -32 -33 -60 -61 -84 -85 -94 -95 -101 -104 -109 -110 0
-16 -31 -32 -59 -60 -83 -84 -93 -94 -102 -103 -109 -111 0
-17 -31 -33 -59 -60 -83 -84 -93 -94 -102 -103 -109 -111 0
-17 -32 -33 -59 -61 -83 -84 -93 -94 -102 -103 -109 -111 0
-17 -32 -33 -60 -61 -83 -85 -93 -94 -102 -103 -109 -111 0
-17 -32 -33 -60 -61 -84 -85 -93 -95 -102 -103 -109 -111 0
-17 -32 -33 -60 -61 -84 -85 -94 -95 -102 -104 -109 -111 0
-17 -32 -33 -60 -61 -84 -85 -94 -95 -103 -104 -109 -112 0
-16 -31 -32 -59 -60 -83 -84 -93 -94 -102 -103 -110 -111 0
-17 -31 -33 -59 -60 -83 -84 -93 -94 -102 -103 -110 -111 0
-17 -32 -33 -59 -61 -83 -84 -93 -94 -102 -103 -110 -111 0
-17 -32 -33 -60 -61 -83 -85 -93 -94 -102 -103 -110 -111 0
-17 -32 -33 -60 -61 -84 -85 -93 -95 -102 -103 -110 -111 0
-17 -32 -33 -60 -61 -84 -85 -94 -95 -102 -104 -110 -111 0
-17 -32 -33 -60 -61 -84 -85 -94 -95 -103 -104 -110 -112 0
-17 -32 -33 -60 -61 -84 -85 -94 -95 -103 -104 -111 -112 0
-16 -31 -32 -59 -60 -83 -84 -93 -94 -102 -103 -118 -119 0
-17 -31 -33 -59 -60 -83 -84 -93 -94 -102 -103 -118 -119 0
-17 -32 -33 -59 -61 -83 -84 -93 -94 -102 -103 -118 -119 0
-17 -32 -33 -60 -61 -83 -85 -93 -94 -102 -103 -118 -119 0
-17 -32 -33 -60 -61 -84 -85 -93 -95 -102 -103 -118 -119 0
-17 -32 -33 -60 -61 -84 -85 -94 -95 -102 -104 -118 -119 0
-17 -32 -33 -60 -61 -84 -85 -94 -95 -103 -104 -118 -120 0
-17 -32 -33 -60 -61 -84 -85 -94 -95 -103 -104 -119 -120 0
-17 -32 -33 -60 -61 -84 -85 -94 -95 -103 -104 -126 -127 0
-16 -31 -32 -59 -60 -83 -84 -93 -94 -111 -112 -118 -119 0
-17 -31 -33 -59 -60 -83 -84 -93 -94 -111 -112 -118 -119 0
-17 -32 -33 -59 -61 -83 -84 -93 -94 -111 -112 -118 -119 0
-17 -32 -33 -60 -61 -83 -85 -93 -94 -111 -112 -118 -119 0
-17 -32 -33 -60 -61 -84 -85 -93 -95 -111 -112 -118 -119 0
-17 -32 -33 -60 -61 -84 -85 -94 -95 -111 -113 -118 -119 0
-17 -32 -33 -60 -61 -84 -85 -94 -95 -112 -113 -118 -120 0
-17 -32 -33 -60 -61 -84 -85 -94 -95 -112 -113 -119 -120 0
-17 -32 -33 -60 -61 -84 -85 -94 -95 -112 -113 -126 -127 0
-17 -32 -33 -60 -61 -84 -85 -94 -95 -120 -121 -126 -127 0
-16 -31 -32 -59 -60 -83 -84 -103 -104 -111 -112 -118 -119 0
-17 -31 -33 -59 -60 -83 -84 -103 -104 -111 -112 -118 -119 0
-17 -32 -33 -59 -61 -83 -84 -103 -104 -111 -112 -118 -119 0
-17 -32 -33 -60 -61 -83 -85 -103 -104 -111 -112 -118 -119 0
-17 -32 -33 -60 -61 -84 -85 -103 -105 -111 -112 -118 -119 0
-17 -32 -33 -60 -61 -84 -85 -104 -105 -111 -113 -118 -119 0
-17 -32 -33 -60 -61 -84 -85 -104 -105 -112 -113 -118 -120 0
-17 -32 -33 -60 -61 -84 -85 -104 -105 -112 -113 -119 -120 0
-17 -32 -33 -60 -61 -84 -85 -104 -105 -112 -113 -126 -127 0
-17 -32 -33 -60 -61 -84 -85 -104 -105 -120 -121 -126 -127 0
-17 -32 -33 -60 -61 -84 -85 -113 -114 -120 -121 -126 -127 0
-16 -31 -32 -59 -60 -94 -95 -103 -104 -111 -112 -118 -119 0
-17 -31 -33 -59 -60 -94 -95 -103 -104 -111 -112 -118 -119 0
-17 -32 -33 -59 -61 -94 -95 -103 -104 -111 -112 -118 -119 0
-17 -32 -33 -60 -61 -94 -96 -103 -104 -111 -112 -118 -119 0
-17 -32 -33 -60 -61 -95 -96 -103 -105 -111 -112 -118 -119 0
-17 -32 -33 -60 -61 -95 -96 -104 -105 -111 -113 -118 -119 0
-17 -32 -33 -60 -61 -95 -96 -104 -105 -112 -113 -118 -120 0
-17 -32 -33 -60 -61 -95 -96 -104 -105 -112 -113 -119 -120 0
-17 -32 -33 -60 -61 -95 -96 -104 -105 -112 -113 -126 -127 0
-17 -32 -33 -60 -61 -95 -96 -104 -105 -120 -121 -126 -127 0
-17 -32 -33 -60 -61 -95 -96 -113 -114 -120 -121 -126 -127 0
-17 -32 -33 -60 -61 -105 -106 -113 -114 -120 -121 -126 -127 0
-15 -30 -31 -71 -72 -82 -83 -92 -93 -101 -102 -109 -110 0
-16 -30 -32 -71 -72 -82 -83 -92 -93 -101 -102 -109 -110 0
-17 -30 -33 -71 -72 -82 -83 -92 -93 -101 -102 -109 -110 0
-16 -31 -32 -71 -73 -82 -83 -92 -93 -101 -102 -109 -110 0
-17 -31 -33 -71 -73 -82 -83 -92 -93 -101 -102 -109 -110 0
-17 -32 -33 -71 -74 -82 -83 -92 -93 -101 -102 -109 -110 0
-16 -31 -32 -72 -73 -82 -84 -92 -93 -101 -102 -109 -110 0
-17 -31 -33 -72 -73 -82 -84 -92 -93 -101 -102 -109 -110 0
-17 -32 -33 -72 -74 -82 -84 -92 -93 -101 -102 -109 -110 0
-17 -32 -33 -73 -74 -82 -85 -92 -93 -101 -102 -109 -110 0
-16 -31 -32 -72 -73 -83 -84 -92 -94 -101 -102 -109 -110 0
-17 -31 -33 -72 -73 -83 -84 -92 -94 -101 -102 -109 -110 0
-17 -32 -33 -72 -74 -83 -84 -92 -94 -101 -102 -109 -110 0
-17 -32 -33 -73 -74 -83 -85 -92 -94 -101 -102 -109 -110 0
-17 -32 -33 -73 -74 -84 -85 -92 -95 -101 -102 -109 -110 0
-16 -31 -32 -72 -73 -83 -84 -93 -94 -101 -103 -109 -110 0
-17 -31 -33 -72 -73 -83 -84 -93 -94 -101 -103 -109 -110 0
-17 -32 -33 -72 -74 -83 -84 -93 -94 -101 -103 -109 -110 0
-17 -32 -33 -73 -74 -83 -85 -93 -94 -101 -103 -109 -110 0
-17 -32 -33 -73 -74 -84 -85 -93 -95 -101 -103 -109 -110 0
-17 -32 -33 -73 -74 -84 -85 -94 -95 -101 -104 -109 -110 0
-16 -31 -32 -72 -73 -83 -84 -93 -94 -102 -103 -109 -111 0
-17 -31 -33 -72 -73 -83 -84 -93 -94 -102 -103 -109 -111 0
-17 -32 -33 -72 -74 -83 -84 -93 -94 -102 -103 -109 -111 0
-17 -32 -33 -73 -74 -83 -85 -93 -94 -102 -103 -109 -111 0
-17 -32 -33 -73 -74 -84 -85 -93 -95 -102 -103 -109 -111 0
-17 -32 -33 -73 -74 -84 -85 -94 -95 -102 -104 -109 -111 0
-17 -32 -33 -73 -74 -84 -85 -94 -95 -103 -104 -109 -112 0
-16 -31 -32 -72 -73 -83 -84 -93 -94 -102 -103 -110 -111 0
-17 -31 -33 -72 -73 -83 -84 -93 -94 -102 -103 -110 -111 0
-17 -32 -33 -72 -74 -83 -84 -93 -94 -102 -103 -110 -111 0
-17 -32 -33 -73 -74 -83 -85 -93 -94 -102 -103 -110 -111 0
-17 -32 -33 -73 -74 -84 -85 -93 -95 -102 -103 -110 -111 0
-17 -32 -33 -73 -74 -84 -85 -94 -95 -102 -104 -110 -111 0
-17 -32 -33 -73 -74 -84 -85 -94 -95 -103 -104 -110 -112 0
-17 -32 -33 -73 -74 -84 -85 -94 -95 -103 -104 -111 -112 0
-16 -31 -32 -72 -73 -83 -84 -93 -94 -102 -103 -118 -119 0
-17 -31 -33 -72 -73 -83 -84 -93 -94 -102 -103 -118 -119 0
-17 -32 -33 -72 -74 -83 -84 -93 -94 -102 -103 -118 -119 0
-17 -32 -33 -73 -74 -83 -85 -93 -94 -102 -103 -118 -119 0
-17 -32 -33 -73 -74 -84 -85 -93 -95 -102 -103 -118 -119 0
-17 -32 -33 -73 -74 -84 -85 -94 -95 -102 -104 -118 -119 0
-17 -32 -33 -73 -74 -84 -85 -94 -95 -103 -104 -118 -120 0
-17 -32 -33 -73 -74 -84 -85 -94 -95 -103 -104 -119 -120 0
-17 -32 -33 -73 -74 -84 -85 -94 -95 -103 -104 -126 -127 0
-16 -31 -32 -72 -73 -83 -84 -93 -94 -111 -112 -118 -119 0
-17 -31 -33 -72 -73 -83 -84 -93 -94 -111 -112 -118 -119 0
-17 -32 -33 -72 -74 -83 -84 -93 -94 -111 -112 -118 -119 0
-17 -32 -33 -73 -74 -83 -85 -93 -94 -111 -112 -118 -119 0
-17 -32 -33 -73 -74 -84 -85 -93 -95 -111 -112 -118 -119 0
-17 -32 -33 -73 -74 -84 -85 -94 -95 -111 -113 -118 -119 0
-17 -32 -33 -73 -74 -84 -85 -94 -95 -112 -113 -118 -120 0
-17 -32 -33 -73 -74 -84 -85 -94 -95 -112 -113 -119 -120 0
-17 -32 -33 -73 -74 -84 -85 -94 -95 -112 -113 -126 -127 0
-17 -32 -33 -73 -74 -84 -85 -94 -95 -120 -121 -126 -127 0
-16 -31 -32 -72 -73 -83 -84 -103 -104 -111 -112 -118 -119 0
-17 -31 -33 -72 -73 -83 -84 -103 -104 -111 -112 -118 -119 0
-17 -32 -33 -72 -74 -83 -84 -103 -104 -111 -112 -118 -119 0
-17 -32 -33 -73 -74 -83 -85 -103 -104 -111 -112 -118 -119 0
-17 -32 -33 -73 -74 -84 -85 -103 -105 -111 -112 -118 -119 0
-17 -32 -33 -73 -74 -84 -85 -104 -105 -111 -113 -118 -119 0
-17 -32 -33 -73 -74 -84 -85 -104 -105 -112 -113 -118 -120 0
-17 -32 -33 -73 -74 -84 -85 -104 -105 -112 -113 -119 -120 0
-17 -32 -33 -73 -74 -84 -85 -104 -105 -112 -113 -126 -127 0
-17 -32 -33 -73 -74 -84 -85 -104 -105 -120 -121 -126 -127 0
-17 -32 -33 -73 -74 -84 -85 -113 -114 -120 -121 -126 -127 0
-16 -31 -32 -72 -73 -94 -95 -103 -104 -111 -112 -118 -119 0
-17 -31 -33 -72 -73 -94 -95 -103 -104 -111 -112 -118 -119 0
-17 -32 -33 -72 -74 -94 -95 -103 -104 -111 -112 -118 -119 0
-17 -32 -33 -73 -74 -94 -96 -103 -104 -111 -112 -118 -119 0
-17 -32 -33 -73 -74 -95 -96 -103 -105 -111 -112 -118 -119 0
-17 -32 -33 -73 -74 -95 -96 -104 -105 -111 -113 -118 -119 0
-17 -32 -33 -73 -74 -95 -96 -104 -105 -112 -113 -118 -120 0
-17 -32 -33 -73 -74 -95 -96 -104 -105 -112 -113 -119 -120 0
-17 -32 -33 -73 -74 -95 -96 -104 -105 -112 -113 -126 -127 0
-17 -32 -33 -73 -74 -95 -96 -104 -105 -120 -121 -126 -127 0
-17 -32 -33 -73 -74 -95 -96 -113 -114 -120 -121 -126 -127 0
-17 -32 -33 -73 -74 -105 -106 -113 -114 -120 -121 -126 -127 0
-16 -31 -32 -84 -85 -94 -95 -103 -104 -111 -112 -118 -119 0
-17 -31 -33 -84 -85 -94 -95 -103 -104 -111 -112 -118 -119 0
-17 -32 -33 -84 -86 -94 -95 -103 -104 -111 -112 -118 -119 0
-17 -32 -33 -85 -86 -94 -96 -103 -104 -111 -112 -118 -119 0
-17 -32 -33 -85 -86 -95 -96 -103 -105 -111 -112 -118 -119 0
-17 -32 -33 -85 -86 -95 -96 -104 -105 -111 -113 -118 -119 0
-17 -32 -33 -85 -86 -95 -96 -104 -105 -112 -113 -118 -120 0
-17 -32 -33 -85 -86 -95 -96 -104 -105 -112 -113 -119 -120 0
-17 -32 -33 -85 -86 -95 -96 -104 -105 -112 -113 -126 -127 0
-17 -32 -33 -85 -86 -95 -96 -104 -105 -120 -121 -126 -127 0
-17 -32 -33 -85 -86 -95 -96 -113 -114 -120 -121 -126 -127 0
-17 -32 -33 -85 -86 -105 -106 -113 -114 -120 -121 -126 -127 0
-17 -32 -33 -96 -97 -105 -106 -113 -114 -120 -121 -126 -127 0
-14 -44 -45 -57 -58 -69 -70 -80 -81 -90 -91 -99 -100 0
-15 -44 -46 -57 -58 -69 -70 -80 -81 -90 -91 -99 -100 0
-16 -44 -47 -57 -58 -69 -70 -80 -81 -90 -91 -99 -100 0
-17 -44 -48 -57 -58 -69 -70 -80 -81 -90 -91 -99 -100 0
-15 -45 -46 -57 -59 -69 -70 -80 -81 -90 -91 -99 -100 0
-16 -45 -47 -57 -59 -69 -70 -80 -81 -90 -91 -99 -100 0
-17 -45 -48 -57 -59 -69 -70 -80 -81 -90 -91 -99 -100 0
-16 -46 -47 -57 -60 -69 -70 -80 -81 -90 -91 -99 -100 0
-17 -46 -48 -57 -60 -69 -70 -80 -81 -90 -91 -99 -100 0
-17 -47 -48 -57 -61 -69 -70 -80 -81 -90 -91 -99 -100 0
-15 -45 -46 -58 -59 -69 -71 -80 -81 -90 -91 -99 -100 0
-16 -45 -47 -58 -59 -69 -71 -80 -81 -90 -91 -99 -100 0
-17 -45 -48 -58 -59 -69 -71 -80 -81 -90 -91 -99 -100 0
-16 -46 -47 -58 -60 -69 -71 -80 -81 -90 -91 -99 -100 0
-17 -46 -48 -58 -60 -69 -71 -80 -81 -90 -91 -99 -100 0
-17 -47 -48 -58 -61 -69 -71 -80 -81 -90 -91 -99 -100 0
-16 -46 -47 -59 -60 -69 -72 -80 -81 -90 -91 -99 -100 0
-17 -46 -48 -59 -60 -69 -72 -80 -81 -90 -91 -99 -100 0
-17 -47 -48 -59 -61 -69 -72 -80 -81 -90 -91 -99 -100 0
-17 -47 -48 -60 -61 -69 -73 -80 -81 -90 -91 -99 -100 0
-15 -45 -46 -58 -59 -70 -71 -80 -82 -90 -91 -99 -100 0
-16 -45 -47 -58 -59 -70 -71 -80 -82 -90 -91 -99 -100 0
-17 -45 -48 -58 -59 -70 -71 -80 -82 -90 -91 -99 -100 0
-16 -46 -47 -58 -60 -70 -71 -80 -82 -90 -91 -99 -100 0
-17 -46 -48 -58 -60 -70 -71 -80 -82 -90 -91 -99 -100 0
-17 -47 -48 -58 -61 -70 -71 -80 -82 -90 -91 -99 -100 0
-16 -46 -47 -59 -60 -70 -72 -80 -82 -90 -91 -99 -100 0
-17 -46 -48 -59 -60 -70 -72 -80 -82 -90 -91 -99 -100 0
-17 -47 -48 -59 -61 -70 -72 -80 -82 -90 -91 -99 -100 0
-17 -47 -48 -60 -61 -70 -73 -80 -82 -90 -91 -99 -100 0
-16 -46 -47 -59 -60 -71 -72 -80 -83 -90 -91 -99 -100 0
-17 -46 -48 -59 -60 -71 -72 -80 -83 -90 -91 -99 -100 0
-17 -47 -48 -59 -61 -71 -72 -80 -83 -90 -91 -99 -100 0
-17 -47 -48 -60 -61 -71 -73 -80 -83 -90 -91 -99 -100 0
-17 -47 -48 -60 -61 -72 -73 -80 -84 -90 -91 -99 -100 0
-15 -45 -46 -58 -59 -70 -71 -81 -82 -90 -92 -99 -100 0
-16 -45 -47 -58 -59 -70 -71 -81 -82 -90 -92 -99 -100 0
-17 -45 -48 -58 -59 -70 -71 -81 -82 -90 -92 -99 -100 0
-16 -46 -47 -58 -60 -70 -71 -81 -82 -90 -92 -99 -100 0
-17 -46 -48 -58 -60 -70 -71 -81 -82 -90 -92 -99 -100 0
-17 -47 -48 -58 -61 -70 -71 -81 -82 -90 -92 -99 -100 0
-16 -46 -47 -59 -60 -70 -72 -81 -82 -90 -92 -99 -100 0
-17 -46 -48 -59 -60 -70 -72 -81 -82 -90 -92 -99 -100 0
-17 -47 -48 -59 -61 -70 -72 -81 -82 -90 -92 -99 -100 0
-17 -47 -48 -60 -61 -70 -73 -81 -82 -90 -92 -99 -100 0
-16 -46 -47 -59 -60 -71 -72 -81 -83 -90 -92 -99 -100 0
-17 -46 -48 -59 -60 -71 -72 -81 -83 -90 -92 -99 -100 0
-17 -47 -48 -59 -61 -71 -72 -81 -83 -90 -92 -99 -100 0
-17 -47 -48 -60 -61 -71 -73 -81 -83 -90 -92 -99 -100 0
-17 -47 -48 -60 -61 -72 -73 -81 -84 -90 -92 -99 -100 0
-16 -46 -47 -59 -60 -71 -72 -82 -83 -90 -93 -99 -100 0
-17 -46 -48 -59 -60 -71 -72 -82 -83 -90 -93 -99 -100 0
-17 -47 -48 -59 -61 -71 -72 -82 -83 -90 -93 -99 -100 0
-17 -47 -48 -60 -61 -71 -73 -82 -83 -90 -93 -99 -100 0
-17 -47 -48 -60 -61 -72 -73 -82 -84 -90 -93 -99 -100 0
-17 -47 -48 -60 -61 -72 -73 -83 -84 -90 -94 -99 -100 0
-15 -45 -46 -58 -59 -70 -71 -81 -82 -91 -92 -99 -101 0
-16 -45 -47 -58 -59 -70 -71 -81 -82 -91 -92 -99 -101 0
-17 -45 -48 -58 -59 -70 -71 -81 -82 -91 -92 -99 -101 0
-16 -46 -47 -58 -60 -70 -71 -81 -82 -91 -92 -99 -101 0
-17 -46 -48 -58 -60 -70 -71 -81 -82 -91 -92 -99 -101 0
-17 -47 -48 -58 -61 -70 -71 -81 -82 -91 -92 -99 -101 0
-16 -46 -47 -59 -60 -70 -72 -81 -82 -91 -92 -99 -101 0
-17 -46 -48 -59 -60 -70 -72 -81 -82 -91 -92 -99 -101 0
-17 -47 -48 -59 -61 -70 -72 -81 -82 -91 -92 -99 -101 0
-17 -47 -48 -60 -61 -70 -73 -81 -82 -91 -92 -99 -101 0
-16 -46 -47 -59 -60 -71 -72 -81 -83 -91 -92 -99 -101 0
-17 -46 -48 -59 -60 -71 -72 -81 -83 -91 -92 -99 -101 0
-17 -47 -48 -59 -61 -71 -72 -81 -83 -91 -92 -99 -101 0
-17 -47 -48 -60 -61 -71 -73 -81 -83 -91 -92 -99 -101 0
-17 -47 -48 -60 -61 -72 -73 -81 -84 -91 -92 -99 -101 0
-16 -46 -47 -59 -60 -71 -72 -82 -83 -91 -93 -99 -101 0
-17 -46 -48 -59 -60 -71 -72 -82 -83 -91 -93 -99 -101 0
-17 -47 -48 -59 -61 -71 -72 -82 -83 -91 -93 -99 -101 0
-17 -47 -48 -60 -61 -71 -73 -82 -83 -91 -93 -99 -101 0
-17 -47 -48 -60 -61 -72 -73 -82 -84 -91 -93 -99 -101 0
-17 -47 -48 -60 -61 -72 -73 -83 -84 -91 -94 -99 -101 0
-16 -46 -47 -59 -60 -71 -72 -82 -83 -92 -93 -99 -102 0
-17 -46 -48 -59 -60 -71 -72 -82 -83 -92 -93 -99 -102 0
-17 -47 -48 -59 -61 -71 -72 -82 -83 -92 -93 -99 -102 0
-17 -47 -48 -60 -61 -71 -73 -82 -83 -92 -93 -99 -102 0
-17 -47 -48 -60 -61 -72 -73 -82 -84 -92 -93 -99 -102 0
-17 -47 -48 -60 -61 -72 -73 -83 -84 -92 -94 -99 -102 0
-17 -47 -48 -60 -61 -72 -73 -83 -84 -93 -94 -99 -103 0
-15 -45 -46 -58 -59 -70 -71 -81 -82 -91 -92 -100 -101 0
-16 -45 -47 -58 -59 -70 -71 -81 -82 -91 -92 -100 -101 0
-17 -45 -48 -58 -59 -70 -71 -81 -82 -91 -92 -100 -101 0
-16 -46 -47 -58 -60 -70 -71 -81 -82 -91 -92 -100 -101 0
-17 -46 -48 -58 -60 -70 -71 -81 -82 -91 -92 -100 -101 0
-17 -47 -48 -58 -61 -70 -71 -81 -82 -91 -92 -100 -101 0
-16 -46 -47 -59 -60 -70 -72 -81 -82 -91 -92 -100 -101 0
-17 -46 -48 -59 -60 -70 -72 -81 -82 -91 -92 -100 -101 0
-17 -47 -48 -59 -61 -70 -72 -81 -82 -91 -92 -100 -101 0
-17 -47 -48 -60 -61 -70 -73 -81 -82 -91 -92 -100 -101 0
-16 -46 -47 -59 -60 -71 -72 -81 -83 -91 -92 -100 -101 0
-17 -46 -48 -59 -60 -71 -72 -81 -83 -91 -92 -100 -101 0
-17 -47 -48 -59 -61 -71 -72 -81 -83 -91 -92 -100 -101 0
-17 -47 -48 -60 -61 -71 -73 -81 -83 -91 -92 -100 -101 0
-17 -47 -48 -60 -61 -72 -73 -81 -84 -91 -92 -100 -101 0
-16 -46 -47 -59 -60 -71 -72 -82 -83 -91 -93 -100 -101 0
-17 -46 -48 -59 -60 -71 -72 -82 -83 -91 -93 -100 -101 0
-17 -47 -48 -59 -61 -71 -72 -82 -83 -91 -93 -100 -101 0
-17 -47 -48 -60 -61 -71 -73 -82 -83 -91 -93 -100 -101 0
-17 -47 -48 -60 -61 -72 -73 -82 -84 -91 -93 -100 -101 0
-17 -47 -48 -60 -61 -72 -73 -83 -84 -91 -94 -100 -101 0
-16 -46 -47 -59 -60 -71 -72 -82 -83 -92 -93 -100 -102 0
-17 -46 -48 -59 -60 -71 -72 -82 -83 -92 -93 -100 -102 0
-17 -47 -48 -59 -61 -71 -72 -82 -83 -92 -93 -100 -102 0
-17 -47 -48 -60 -61 -71 -73 -82 -83 -92 -93 -100 -102 0
-17 -47 -48 -60 -61 -72 -73 -82 -84 -92 -93 -100 -102 0
-17 -47 -48 -60 -61 -72 -73 -83 -84 -92 -94 -100 -102 0
-17 -47 -48 -60 -61 -72 -73 -83 -84 -93 -94 -100 -103 0
-16 -46 -47 -59 -60 -71 -72 -82 -83 -92 -93 -101 -102 0
-17 -46 -48 -59 -60 -71 -72 -82 -83 -92 -93 -101 -102 0
-17 -47 -48 -59 -61 -71 -72 -82 -83 -92 -93 -101 -102 0
-17 -47 -48 -60 -61 -71 -73 -82 -83 -92 -93 -101 -102 0
-17 -47 -48 -60 -61 -72 -73 -82 -84 -92 -93 -101 -102 0
-17 -47 -48 -60 -61 -72 -73 -83 -84 -92 -94 -101 -102 0
-17 -47 -48 -60 -61 -72 -73 -83 -84 -93 -94 -101 -103 0
-17 -47 -48 -60 -61 -72 -73 -83 -84 -93 -94 -102 -103 0
-15 -45 -46 -58 -59 -70 -71 -81 -82 -91 -92 -109 -110 0
-16 -45 -47 -58 -59 -70 -71 -81 -82 -91 -92 -109 -110 0
-17 -45 -48 -58 -59 -70 -71 -81 -82 -91 -92 -109 -110 0
-16 -46 -47 -58 -60 -70 -71 -81 -82 -91 -92 -109 -110 0
-17 -46 -48 -58 -60 -70 -71 -81 -82 -91 -92 -109 -110 0
-17 -47 -48 -58 -61 -70 -71 -81 -82 -91 -92 -109 -110 0
-16 -46 -47 -59 -60 -70 -72 -81 -82 -91 -92 -109 -110 0
-17 -46 -48 -59 -60 -70 -72 -81 -82 -91 -92 -109 -110 0
-17 -47 -48 -59 -61 -70 -72 -81 -82 -91 -92 -109 -110 0
-17 -47 -48 -60 -61 -70 -73 -81 -82 -91 -92 -109 -110 0
-16 -46 -47 -59 -60 -71 -72 -81 -83 -91 -92 -109 -110 0
-17 -46 -48 -59 -60 -71 -72 -81 -83 -91 -92 -109 -110 0
-17 -47 -48 -59 -61 -71 -72 -81 -83 -91 -92 -109 -110 0
-17 -47 -48 -60 -61 -71 -73 -81 -83 -91 -92 -109 -110 0
-17 -47 -48 -60 -61 -72 -73 -81 -84 -91 -92 -109 -110 0
-16 -46 -47 -59 -60 -71 -72 -82 -83 -91 -93 -109 -110 0
-17 -46 -48 -59 -60 -71 -72 -82 -83 -91 -93 -109 -110 0
-17 -47 -48 -59 -61 -71 -72 -82 -83 -91 -93 -109 -110 0
-17 -47 -48 -60 -61 -71 -73 -82 -83 -91 -93 -109 -110 0
-17 -47 -48 -60 -61 -72 -73 -82 -84 -91 -93 -109 -110 0
-17 -47 -48 -60 -61 -72 -73 -83 -84 -91 -94 -109 -110 0
-16 -46 -47 -59 -60 -71 -72 -82 -83 -92 -93 -109 -111 0
-17 -46 -48 -59 -60 -71 -72 -82 -83 -92 -93 -109 -111 0
-17 -47 -48 -59 -61 -71 -72 -82 -83 -92 -93 -109 -111 0
-17 -47 -48 -60 -61 -71 -73 -82 -83 -92 -93 -109 -111 0
-17 -47 -48 -60 -61 -72 -73 -82 -84 -92 -93 -109 -111 0
-17 -47 -48 -60 -61 -72 -73 -83 -84 -92 -94 -109 -111 0
-17 -47 -48 -60 -61 -72 -73 -83 -84 -93 -94 -109 -112 0
-16 -46 -47 -59 -60 -71 -72 -82 -83 -92 -93 -110 -111 0
-17 -46 -48 -59 -60 -71 -72 -82 -83 -92 -93 -110 -111 0
-17 -47 -48 -59 -61 -71 -72 -82 -83 -92 -93 -110 -111 0
-17 -47 -48 -60 -61 -71 -73 -82 -83 -92 -93 -110 -111 0
-17 -47 -48 -60 -61 -72 -73 -82 -84 -92 -93 -110 -111 0
-17 -47 -48 -60 -61 -72 -73 -83 -84 -92 -94 -110 -111 0
-17 -47 -48 -60 -61 -72 -73 -83 -84 -93 -94 -110 -112 0
-17 -47 -48 -60 -61 -72 -73 -83 -84 -93 -94 -111 -112 0
-16 -46 -47 -59 -60 -71 -72 -82 -83 -92 -93 -118 -119 0
-17 -46 -48 -59 -60 -71 -72 -82 -83 -92 -93 -118 -119 0
-17 -47 -48 -59 -61 -71 -72 -82 -83 -92 -93 -118 -119 0
-17 -47 -48 -60 -61 -71 -73 -82 -83 -92 -93 -118 -119 0
-17 -47 -48 -60 -61 -72 -73 -82 -84 -92 -93 -118 -119 0
-17 -47 -48 -60 -61 -72 -73 -83 -84 -92 -94 -118 -119 0
-17 -47 -48 -60 -61 -72 -73 -83 -84 -93 -94 -118 -120 0
-17 -47 -48 -60 -61 -72 -73 -83 -84 -93 -94 -119 -120 0
-17 -47 -48 -60 -61 -72 -73 -83 -84 -93 -94 -126 -127 0
-15 -45 -46 -58 -59 -70 -71 -81 -82 -101 -102 -109 -110 0
-16 -45 -47 -58 -59 -70 -71 -81 -82 -101 -102 -109 -110 0
-17 -45 -48 -58 -59 -70 -71 -81 -82 -101 -102 -109 -110 0
-16 -46 -47 -58 -60 -70 -71 -81 -82 -101 -102 -109 -110 0
-17 -46 -48 -58 -60 -70 -71 -81 -82 -101 -102 -109 -110 0
-17 -47 -48 -58 -61 -70 -71 -81 -82 -101 -102 -109 -110 0
-16 -46 -47 -59 -60 -70 -72 -81 -82 -101 -102 -109 -110 0
-17 -46 -48 -59 -60 -70 -72 -81 -82 -101 -102 -109 -110 0
-17 -47 -48 -59 -61 -70 -72 -81 -82 -101 -102 -109 -110 0
-17 -47 -48 -60 -61 -70 -73 -81 -82 -101 -102 -109 -110 0
-16 -46 -47 -59 -60 -71 -72 -81 -83 -101 -102 -109 -110 0
-17 -46 -48 -59 -60 -71 -72 -81 -83 -101 -102 -109 -110 0
-17 -47 -48 -59 -61 -71 -72 -81 -83 -101 -102 -109 -110 0
-17 -47 -48 -60 -61 -71 -73 -81 -83 -101 -102 -109 -110 0
-17 -47 -48 -60 -61 -72 -73 -81 -84 -101 -102 -109 -110 0
-16 -46 -47 -59 -60 -71 -72 -82 -83 -101 -103 -109 -110 0
-17 -46 -48 -59 -60 -71 -72 -82 -83 -101 -103 -109 -110 0
-17 -47 -48 -59 -61 -71 -72 -82 -83 -101 -103 -109 -110 0
-17 -47 -48 -60 -61 -71 -73 -82 -83 -101 -103 -109 -110 0
-17 -47 -48 -60 -61 -72 -73 -82 -84 -101 -103 -109 -110 0
-17 -47 -48 -60 -61 -72 -73 -83 -84 -101 -104 -109 -110 0
-16 -46 -47 -59 -60 -71 -72 -82 -83 -102 -103 -109 -111 0
-17 -46 -48 -59 -60 -71 -72 -82 -83 -102 -103 -109 -111 0
-17 -47 -48 -59 -61 -71 -72 -82 -83 -102 -103 -109 -111 0
-17 -47 -48 -60 -61 -71 -73 -82 -83 -102 -103 -109 -111 0
-17 -47 -48 -60 -61 -72 -73 -82 -84 -102 -103 -109 -111 0
-17 -47 -48 -60 -61 -72 -73 -83 -84 -102 -104 -109 -111 0
-17 -47 -48 -60 -61 -72 -73 -83 -84 -103 -104 -109 -112 0
-16 -46 -47 -59 -60 -71 -72 -82 -83 -102 -103 -110 -111 0
-17 -46 -48 -59 -60 -71 -72 -82 -83 -102 -103 -110 -111 0
-17 -47 -48 -59 -61 -71 -72 -82 -83 -102 -103 -110 -111 0
-17 -47 -48 -60 -61 -71 -73 -82 -83 -102 -103 -110 -111 0
-17 -47 -48 -60 -61 -72 -73 -82 -84 -102 -103 -110 -111 0
-17 -47 -48 -60 -61 -72 -73 -83 -84 -102 -104 -110 -111 0
-17 -47 -48 -60 -61 -72 -73 -83 -84 -103 -104 -110 -112 0
-17 -47 -48 -60 -61 -72 -73 -83 -84 -103 -104 -111 -112 0
-16 -46 -47 -59 -60 -71 -72 -82 -83 -102 -103 -118 -119 0
-17 -46 -48 -59 -60 -71 -72 -82 -83 -102 -103 -118 -119 0
-17 -47 -48 -59 -61 -71 -72 -82 -83 -102 -103 -118 -119 0
-17 -47 -48 -60 -61 -71 -73 -82 -83 -102 -103 -118 -119 0
-17 -47 -48 -60 -61 -72 -73 -82 -84 -102 -103 -118 -119 0
-17 -47 -48 -60 -61 -72 -73 -83 -84 -102 -104 -118 -119 0
-17 -47 -48 -60 -61 -72 -73 -83 -84 -103 -104 -118 -120 0
-17 -47 -48 -60 -61 -72 -73 -83 -84 -103 -104 -119 -120 0
-17 -47 -48 -60 -61 -72 -73 -83 -84 -103 -104 -126 -127 0
-16 -46 -47 -59 -60 -71 -72 -82 -83 -111 -112 -118 -119 0
-17 -46 -48 -59 -60 -71 -72 -82 -83 -111 -112 -118 -119 0
-17 -47 -48 -59 -61 -71 -72 -82 -83 -111 -112 -118 -119 0
-17 -47 -48 -60 -61 -71 -73 -82 -83 -111 -112 -118 -119 0
-17 -47 -48 -60 -61 -72 -73 -82 -84 -111 -112 -118 -119 0
-17 -47 -48 -60 -61 -72 -73 -83 -84 -111 -113 -118 -119 0
-17 -47 -48 -60 -61 -72 -73 -83 -84 -112 -113 -118 -120 0
-17 -47 -48 -60 -61 -72 -73 -83 -84 -112 -113 -119 -120 0
-17 -47 -48 -60 -61 -72 -73 -83 -84 -112 -113 -126 -127 0
-17 -47 -48 -60 -61 -72 -73 -83 -84 -120 -121 -126 -127 0
-15 -45 -46 -58 -59 -70 -71 -92 -93 -101 -102 -109 -110 0
-16 -45 -47 -58 -59 -70 -71 -92 -93 -101 -102 -109 -110 0
-17 -45 -48 -58 -59 -70 -71 -92 -93 -101 -102 -109 -110 0
-16 -46 -47 -58 -60 -70 -71 -92 -93 -101 -102 -109 -110 0
-17 -46 -48 -58 -60 -70 -71 -92 -93 -101 -102 -109 -110 0
-17 -47 -48 -58 -61 -70 -71 -92 -93 -101 -102 -109 -110 0
-16 -46 -47 -59 -60 -70 -72 -92 -93 -101 -102 -109 -110 0
-17 -46 -48 -59 -60 -70 -72 -92 -93 -101 -102 -109 -110 0
-17 -47 -48 -59 -61 -70 -72 -92 -93 -101 -102 -109 -110 0
-17 -47 -48 -60 -61 -70 -73 -92 -93 -101 -102 -109 -110 0
-16 -46 -47 -59 -60 -71 -72 -92 -94 -101 -102 -109 -110 0
-17 -46 -48 -59 -60 -71 -72 -92 -94 -101 -102 -109 -110 0
-17 -47 -48 -59 -61 -71 -72 -92 -94 -101 -102 -109 -110 0
-17 -47 -48 -60 -61 -71 -73 -92 -94 -101 -102 -109 -110 0
-17 -47 -48 -60 -61 -72 -73 -92 -95 -101 -102 -109 -110 0
-16 -46 -47 -59 -60 -71 -72 -93 -94 -101 -103 -109 -110 0
-17 -46 -48 -59 -60 -71 -72 -93 -94 -101 -103 -109 -110 0
-17 -47 -48 -59 -61 -71 -72 -93 -94 -101 -103 -109 -110 0
-17 -47 -48 -60 -61 -71 -73 -93 -94 -101 -103 -109 -110 0
-17 -47 -48 -60 -61 -72 -73 -93 -95 -101 -103 -109 -110 0
-17 -47 -48 -60 -61 -72 -73 -94 -95 -101 -104 -109 -110 0
-16 -46 -47 -59 -60 -71 -72 -93 -94 -102 -103 -109 -111 0
-17 -46 -48 -59 -60 -71 -72 -93 -94 -102 -103 -109 -111 0
-17 -47 -48 -59 -61 -71 -72 -93 -94 -102 -103 -109 -111 0
-17 -47 -48 -60 -61 -71 -73 -93 -94 -102 -103 -109 -111 0
-17 -47 -48 -60 -61 -72 -73 -93 -95 -102 -103 -109 -111 0
-17 -47 -48 -60 -61 -72 -73 -94 -95 -102 -104 -109 -111 0
-17 -47 -48 -60 -61 -72 -73 -94 -95 -103 -104 -109 -112 0
-16 -46 -47 -59 -60 -71 -72 -93 -94 -102 -103 -110 -111 0
-17 -46 -48 -59 -60 -71 -72 -93 -94 -102 -103 -110 -111 0
-17 -47 -48 -59 -61 -71 -72 -93 -94 -102 -103 -110 -111 0
-17 -47 -48 -60 -61 -71 -73 -93 -94 -102 -103 -110 -111 0
-17 -47 -48 -60 -61 -72 -73 -93 -95 -102 -103 -110 -111 0
-17 -47 -48 -60 -61 -72 -73 -94 -95 -102 -104 -110 -111 0
-17 -47 -48 -60 -61 -72 -73 -94 -95 -103 -104 -110 -112 0
-17 -47 -48 -60 -61 -72 -73 -94 -95 -103 -104 -111 -112 0
-16 -46 -47 -59 -60 -71 -72 -93 -94 -102 -103 -118 -119 0
-17 -46 -48 -59 -60 -71 -72 -93 -94 -102 -103 -118 -119 0
-17 -47 -48 -59 -61 -71 -72 -93 -94 -102 -103 -118 -119 0
-17 -47 -48 -60 -61 -71 -73 -93 -94 -102 -103 -118 -119 0
-17 -47 -48 -60 -61 -72 -73 -93 -95 -102 -103 -118 -119 0
-17 -47 -48 -60 -61 -72 -73 -94 -95 -102 -104 -118 -119 0
-17 -47 -48 -60 -61 -72 -73 -94 -95 -103 -104 -118 -120 0
-17 -47 -48 -60 -61 -72 -73 -94 -95 -103 -104 -119 -120 0
-17 -47 -48 -60 -61 -72 -73 -94 -95 -103 -104 -126 -127 0
-16 -46 -47 -59 -60 -71 -72 -93 -94 -111 -112 -118 -119 0
-17 -46 -48 -59 -60 -71 -72 -93 -94 -111 -112 -118 -119 0
-17 -47 -48 -59 -61 -71 -72 -93 -94 -111 -112 -118 -119 0
-17 -47 -48 -60 -61 -71 -73 -93 -94 -111 -112 -118 -119 0
-17 -47 -48 -60 -61 -72 -73 -93 -95 -111 -112 -118 -119 0
-17 -47 -48 -60 -61 -72 -73 -94 -95 -111 -113 -118 -119 0
-17 -47 -48 -60 -61 -72 -73 -94 -95 -112 -113 -118 -120 0
-17 -47 -48 -60 -61 -72 -73 -94 -95 -112 -113 -119 -120 0
-17 -47 -48 -60 -61 -72 -73 -94 -95 -112 -113 -126 -127 0
-17 -47 -48 -60 -61 -72 -73 -94 -95 -120 -121 -126 -127 0
-16 -46 -47 -59 -60 -71 -72 -103 -104 -111 -112 -118 -119 0
-17 -46 -48 -59 -60 -71 -72 -103 -104 -111 -112 -118 -119 0
-17 -47 -48 -59 -61 -71 -72 -103 -104 -111 -112 -118 -119 0
-17 -47 -48 -60 -61 -71 -73 -103 -104 -111 -112 -118 -119 0
-17 -47 -48 -60 -61 -72 -73 -103 -105 -111 -112 -118 -119 0
-17 -47 -48 -60 -61 -72 -73 -104 -105 -111 -113 -118 -119 0
-17 -47 -48 -60 -61 -72 -73 -104 -105 -112 -113 -118 -120 0
-17 -47 -48 -60 -61 -72 -73 -104 -105 -112 -113 -119 -120 0
-17 -47 -48 -60 -61 -72 -73 -104 -105 -112 -113 -126 -127 0
-17 -47 -48 -60 -61 -72 -73 -104 -105 -120 -121 -126 -127 0
-17 -47 -48 -60 -61 -72 -73 -113 -114 -120 -121 -126 -127 0
-15 -45 -46 -58 -59 -82 -83 -92 -93 -101 -102 -109 -110 0
-16 -45 -47 -58 -59 -82 -83 -92 -93 -101 -102 -109 -110 0
-17 -45 -48 -58 -59 -82 -83 -92 -93 -101 -102 -109 -110 0
-16 -46 -47 -58 -60 -82 -83 -92 -93 -101 -102 -109 -110 0
-17 -46 -48 -58 -60 -82 -83 -92 -93 -101 -102 -109 -110 0
-17 -47 -48 -58 -61 -82 -83 -92 -93 -101 -102 -109 -110 0
-16 -46 -47 -59 -60 -82 -84 -92 -93 -101 -102 -109 -110 0
-17 -46 -48 -59 -60 -82 -84 -92 -93 -101 -102 -109 -110 0
-17 -47 -48 -59 -61 -82 -84 -92 -93 -101 -102 -109 -110 0
-17 -47 -48 -60 -61 -82 -85 -92 -93 -101 -102 -109 -110 0
-16 -46 -47 -59 -60 -83 -84 -92 -94 -101 -102 -109 -110 0
-17 -46 -48 -59 -60 -83 -84 -92 -94 -101 -102 -109 -110 0
-17 -47 -48 -59 -61 -83 -84 -92 -94 -101 -102 -109 -110 0
-17 -47 -48 -60 -61 -83 -85 -92 -94 -101 -102 -109 -110 0
-17 -47 -48 -60 -61 -84 -85 -92 -95 -101 -102 -109 -110 0
-16 -46 -47 -59 -60 -83 -84 -93 -94 -101 -103 -109 -110 0
-17 -46 -48 -59 -60 -83 -84 -93 -94 -101 -103 -109 -110 0
-17 -47 -48 -59 -61 -83 -84 -93 -94 -101 -103 -109 -110 0
-17 -47 -48 -60 -61 -83 -85 -93 -94 -101 -103 -109 -110 0
-17 -47 -48 -60 -61 -84 -85 -93 -95 -101 -103 -109 -110 0
-17 -47 -48 -60 -61 -84 -85 -94 -95 -101 -104 -109 -110 0
-16 -46 -47 -59 -60 -83 -84 -93 -94 -102 -103 -109 -111 0
-17 -46 -48 -59 -60 -83 -84 -93 -94 -102 -103 -109 -111 0
-17 -47 -48 -59 -61 -83 -84 -93 -94 -102 -103 -109 -111 0
-17 -47 -48 -60 -61 -83 -85 -93 -94 -102 -103 -109 -111 0
-17 -47 -48 -60 -61 -84 -85 -93 -95 -102 -103 -109 -111 0
-17 -47 -48 -60 -61 -84 -85 -94 -95 -102 -104 -109 -111 0
-17 -47 -48 -60 -61 -84 -85 -94 -95 -103 -104 -109 -112 0
-16 -46 -47 -59 -60 -83 -84 -93 -94 -102 -103 -110 -111 0
-17 -46 -48 -59 -60 -83 -84 -93 -94 -102 -103 -110 -111 0
-17 -47 -48 -59 -61 -83 -84 -93 -94 -102 -103 -110 -111 0
-17 -47 -48 -60 -61 -83 -85 -93 -94 -102 -103 -110 -111 0
-17 -47 -48 -60 -61 -84 -85 -93 -95 -102 -103 -110 -111 0
-17 -47 -48 -60 -61 -84 -85 -94 -95 -102 -104 -110 -111 0
-17 -47 -48 -60 -61 -84 -85 -94 -95 -103 -104 -110 -112 0
-17 -47 -48 -60 -61 -84 -85 -94 -95 -103 -104 -111 -112 0
-16 -46 -47 -59 -60 -83 -84 -93 -94 -102 -103 -118 -119 0
-17 -46 -48 -59 -60 -83 -84 -93 -94 -102 -103 -118 -119 0
-17 -47 -48 -59 -61 -83 -84 -93 -94 -102 -103 -118 -119 0
-17 -47 -48 -60 -61 -83 -85 -93 -94 -102 -103 -118 -119 0
-17 -47 -48 -60 -61 -84 -85 -93 -95 -102 -103 -118 -119 0
-17 -47 -48 -60 -61 -84 -85 -94 -95 -102 -104 -118 -119 0
-17 -47 -48 -60 -61 -84 -85 -94 -95 -103 -104 -118 -120 0
-17 -47 -48 -60 -61 -84 -85 -94 -95 -103 -104 -119 -120 0
-17 -47 -48 -60 -61 -84 -85 -94 -95 -103 -104 -126 -127 0
-16 -46 -47 -59 -60 -83 -84 -93 -94 -111 -112 -118 -119 0
-17 -46 -48 -59 -60 -83 -84 -93 -94 -111 -112 -118 -119 0
-17 -47 -48 -59 -61 -83 -84 -93 -94 -111 -112 -118 -119 0
-17 -47 -48 -60 -61 -83 -85 -93 -94 -111 -112 -118 -119 0
-17 -47 -48 -60 -61 -84 -85 -93 -95 -111 -112 -118 -119 0
-17 -47 -48 -60 -61 -84 -85 -94 -95 -111 -113 -118 -119 0
-17 -47 -48 -60 -61 -84 -85 -94 -95 -112 -113 -118 -120 0
-17 -47 -48 -60 -61 -84 -85 -94 -95 -112 -113 -119 -120 0
-17 -47 -48 -60 -61 -84 -85 -94 -95 -112 -113 -126 -127 0
-17 -47 -48 -60 -61 -84 -85 -94 -95 -120 -121 -126 -127 0
-16 -46 -47 -59 -60 -83 -84 -103 -104 -111 -112 -118 -119 0
-17 -46 -48 -59 -60 -83 -84 -103 -104 -111 -112 -118 -119 0
-17 -47 -48 -59 -61 -83 -84 -103 -104 -111 -112 -118 -119 0
-17 -47 -48 -60 -61 -83 -85 -103 -104 -111 -112 -118 -119 0
-17 -47 -48 -60 -61 -84 -85 -103 -105 -111 -112 -118 -119 0
-17 -47 -48 -60 -61 -84 -85 -104 -105 -111 -113 -118 -119 0
-17 -47 -48 -60 -61 -84 -85 -104 -105 -112 -113 -118 -120 0
-17 -47 -48 -60 -61 -84 -85 -104 -105 -112 -113 -119 -120 0
-17 -47 -48 -60 -61 -84 -85 -104 -105 -112 -113 -126 -127 0
-17 -47 -48 -60 -61 -84 -85 -104 -105 -120 -121 -126 -127 0
-17 -47 -48 -60 -61 -84 -85 -113 -114 -120 -121 -126 -127 0
-16 -46 -47 -59 -60 -94 -95 -103 -104 -111 -112 -118 -119 0
-17 -46 -48 -59 -60 -94 -95 -103 -104 -111 -112 -118 -119 0
-17 -47 -48 -59 -61 -94 -95 -103 -104 -111 -112 -118 -119 0
-17 -47 -48 -60 -61 -94 -96 -103 -104 -111 -112 -118 -119 0
-17 -47 -48 -60 -61 -95 -96 -103 -105 -111 -112 -118 -119 0
-17 -47 -48 -60 -61 -95 -96 -104 -105 -111 -113 -118 -119 0
-17 -47 -48 -60 -61 -95 -96 -104 -105 -112 -113 -118 -120 0
-17 -47 -48 -60 -61 -95 -96 -104 -105 -112 -113 -119 -120 0
-17 -47 -48 -60 -61 -95 -96 -104 -105 -112 -113 -126 -127 0
-17 -47 -48 -60 -61 -95 -96 -104 -105 -120 -121 -126 -127 0
-17 -47 -48 -60 -61 -95 -96 -113 -114 -120 -121 -126 -127 0
-17 -47 -48 -60 -61 -105 -106 -113 -114 -120 -121 -126 -127 0
-15 -45 -46 -71 -72 -82 -83 -92 -93 -101 -102 -109 -110 0
-16 -45 -47 -71 -72 -82 -83 -92 -93 -101 -102 -109 -110 0
-17 -45 -48 -71 -72 -82 -83 -92 -93 -101 -102 -109 -110 0
-16 -46 -47 -71 -73 -82 -83 -92 -93 -101 -102 -109 -110 0
-17 -46 -48 -71 -73 -82 -83 -92 -93 -101 -102 -109 -110 0
-17 -47 -48 -71 -74 -82 -83 -92 -93 -101 -102 -109 -110 0
-16 -46 -47 -72 -73 -82 -84 -92 -93 -101 -102 -109 -110 0
-17 -46 -48 -72 -73 -82 -84 -92 -93 -101 -102 -109 -110 0
-17 -47 -48 -72 -74 -82 -84 -92 -93 -101 -102 -109 -110 0
-17 -47 -48 -73 -74 -82 -85 -92 -93 -101 -102 -109 -110 0
-16 -46 -47 -72 -73 -83 -84 -92 -94 -101 -102 -109 -110 0
-17 -46 -48 -72 -73 -83 -84 -92 -94 -101 -102 -109 -110 0
-17 -47 -48 -72 -74 -83 -84 -92 -94 -101 -102 -109 -110 0
-17 -47 -48 -73 -74 -83 -85 -92 -94 -101 -102 -109 -110 0
-17 -47 -48 -73 -74 -84 -85 -92 -95 -101 -102 -109 -110 0
-16 -46 -47 -72 -73 -83 -84 -93 -94 -101 -103 -109 -110 0
-17 -46 -48 -72 -73 -83 -84 -93 -94 -101 -103 -109 -110 0
-17 -47 -48 -72 -74 -83 -84 -93 -94 -101 -103 -109 -110 0
-17 -47 -48 -73 -74 -83 -85 -93 -94 -101 -103 -109 -110 0
-17 -47 -48 -73 -74 -84 -85 -93 -95 -101 -103 -109 -110 0
-17 -47 -48 -73 -74 -84 -85 -94 -95 -101 -104 -109 -110 0
-16 -46 -47 -72 -73 -83 -84 -93 -94 -102 -103 -109 -111 0
-17 -46 -48 -72 -73 -83 -84 -93 -94 -102 -103 -109 -111 0
-17 -47 -48 -72 -74 -83 -84 -93 -94 -102 -103 -109 -111 0
-17 -47 -48 -73 -74 -83 -85 -93 -94 -102 -103 -109 -111 0
-17 -47 -48 -73 -74 -84 -85 -93 -95 -102 -103 -109 -111 0
-17 -47 -48 -73 -74 -84 -85 -94 -95 -102 -104 -109 -111 0
-17 -47 -48 -73 -74 -84 -85 -94 -95 -103 -104 -109 -112 0
-16 -46 -47 -72 -73 -83 -84 -93 -94 -102 -103 -110 -111 0
-17 -46 -48 -72 -73 -83 -84 -93 -94 -102 -103 -110 -111 0
-17 -47 -48 -72 -74 -83 -84 -93 -94 -102 -103 -110 -111 0
-17 -47 -48 -73 -74 -83 -85 -93 -94 -102 -103 -110 -111 0
-17 -47 -48 -73 -74 -84 -85 -93 -95 -102 -103 -110 -111 0
-17 -47 -48 -73 -74 -84 -85 -94 -95 -102 -104 -110 -111 0
-17 -47 -48 -73 -74 -84 -85 -94 -95 -103 -104 -110 -112 0
-17 -47 -48 -73 -74 -84 -85 -94 -95 -103 -104 -111 -112 0
-16 -46 -47 -72 -73 -83 -84 -93 -94 -102 -103 -118 -119 0
-17 -46 -48 -72 -73 -83 -84 -93 -94 -102 -103 -118 -119 0
-17 -47 -48 -72 -74 -83 -84 -93 -94 -102 -103 -118 -119 0
-17 -47 -48 -73 -74 -83 -85 -93 -94 -102 -103 -118 -119 0
-17 -47 -48 -73 -74 -84 -85 -93 -95 -102 -103 -118 -119 0
-17 -47 -48 -73 -74 -84 -85 -94 -95 -102 -104 -118 -119 0
-17 -47 -48 -73 -74 -84 -85 -94 -95 -103 -104 -118 -120 0
-17 -47 -48 -73 -74 -84 -85 -94 -95 -103 -104 -119 -120 0
-17 -47 -48 -73 -74 -84 -85 -94 -95 -103 -104 -126 -127 0
-16 -46 -47 -72 -73 -83 -84 -93 -94 -111 -112 -118 -119 0
-17 -46 -48 -72 -73 -83 -84 -93 -94 -111 -112 -118 -119 0
-17 -47 -48 -72 -74 -83 -84 -93 -94 -111 -112 -118 -119 0
-17 -47 -48 -73 -74 -83 -85 -93 -94 -111 -112 -118 -119 0
-17 -47 -48 -73 -74 -84 -85 -93 -95 -111 -112 -118 -119 0
-17 -47 -48 -73 -74 -84 -85 -94 -95 -111 -113 -118 -119 0
-17 -47 -48 -73 -74 -84 -85 -94 -95 -112 -113 -118 -120 0
-17 -47 -48 -73 -74 -84 -85 -94 -95 -112 -113 -119 -120 0
-17 -47 -48 -73 -74 -84 -85 -94 -95 -112 -113 -126 -127 0
-17 -47 -48 -73 -74 -84 -85 -94 -95 -120 -121 -126 -127 0
-16 -46 -47 -72 -73 -83 -84 -103 -104 -111 -112 -118 -119 0
-17 -46 -48 -72 -73 -83 -84 -103 -104 -111 -112 -118 -119 0
-17 -47 -48 -72 -74 -83 -84 -103 -104 -111 -112 -118 -119 0
-17 -47 -48 -73 -74 -83 -85 -103 -104 -111 -112 -118 -119 0
-17 -47 -48 -73 -74 -84 -85 -103 -105 -111 -112 -118 -119 0
-17 -47 -48 -73 -74 -84 -85 -104 -105 -111 -113 -118 -119 0
-17 -47 -48 -73 -74 -84 -85 -104 -105 -112 -113 -118 -120 0
-17 -47 -48 -73 -74 -84 -85 -104 -105 -112 -113 -119 -120 0
-17 -47 -48 -73 -74 -84 -85 -104 -105 -112 -113 -126 -127 0
-17 -47 -48 -73 -74 -84 -85 -104 -105 -120 -121 -126 -127 0
-17 -47 -48 -73 -74 -84 -85 -113 -114 -120 -121 -126 -127 0
-16 -46 -47 -72 -73 -94 -95 -103 -104 -111 -112 -118 -119 0
-17 -46 -48 -72 -73 -94 -95 -103 -104 -111 -112 -118 -119 0
-17 -47 -48 -72 -74 -94 -95 -103 -104 -111 -112 -118 -119 0
-17 -47 -48 -73 -74 -94 -96 -103 -104 -111 -112 -118 -119 0
-17 -47 -48 -73 -74 -95 -96 -103 -105 -111 -112 -118 -119 0
-17 -47 -48 -73 -74 -95 -96 -104 -105 -111 -113 -118 -119 0
-17 -47 -48 -73 -74 -95 -96 -104 -105 -112 -113 -118 -120 0
-17 -47 -48 -73 -74 -95 -96 -104 -105 -112 -113 -119 -120 0
-17 -47 -48 -73 -74 -95 -96 -104 -105 -112 -113 -126 -127 0
-17 -47 -48 -73 -74 -95 -96 -104 -105 -120 -121 -126 -127 0
-17 -47 -48 -73 -74 -95 -96 -113 -114 -120 -121 -126 -127 0
-17 -47 -48 -73 -74 -105 -106 -113 -114 -120 -121 -126 -127 0
-16 -46 -47 -84 -85 -94 -95 -103 -104 -111 -112 -118 -119 0
-17 -46 -48 -84 -85 -94 -95 -103 -104 -111 -112 -118 -119 0
-17 -47 -48 -84 -86 -94 -95 -103 -104 -111 -112 -118 -119 0
-17 -47 -48 -85 -86 -94 -96 -103 -104 -111 -112 -118 -119 0
-17 -47 -48 -85 -86 -95 -96 -103 -105 -111 -112 -118 -119 0
-17 -47 -48 -85 -86 -95 -96 -104 -105 -111 -113 -118 -119 0
-17 -47 -48 -85 -86 -95 -96 -104 -105 -112 -113 -118 -120 0
-17 -47 -48 -85 -86 -95 -96 -104 -105 -112 -113 -119 -120 0
-17 -47 -48 -85 -86 -95 -96 -104 -105 -112 -113 -126 -127 0
-17 -47 -48 -85 -86 -95 -96 -104 -105 -120 -121 -126 -127 0
-17 -47 -48 -85 -86 -95 -96 -113 -114 -120 -121 -126 -127 0
-17 -47 -48 -85 -86 -105 -106 -113 -114 -120 -121 -126 -127 0
-17 -47 -48 -96 -97 -105 -106 -113 -114 -120 -121 -126 -127 0
-15 -59 -60 -71 -72 -82 -83 -92 -93 -101 -102 -109 -110 0
-16 -59 -61 -71 -72 -82 -83 -92 -93 -101 -102 -109 -110 0
-17 -59 -62 -71 -72 -82 -83 -92 -93 -101 -102 -109 -110 0
-16 -60 -61 -71 -73 -82 -83 -92 -93 -101 -102 -109 -110 0
-17 -60 -62 -71 -73 -82 -83 -92 -93 -101 -102 -109 -110 0
-17 -61 -62 -71 -74 -82 -83 -92 -93 -101 -102 -109 -110 0
-16 -60 -61 -72 -73 -82 -84 -92 -93 -101 -102 -109 -110 0
-17 -60 -62 -72 -73 -82 -84 -92 -93 -101 -102 -109 -110 0
-17 -61 -62 -72 -74 -82 -84 -92 -93 -101 -102 -109 -110 0
-17 -61 -62 -73 -74 -82 -85 -92 -93 -101 -102 -109 -110 0
-16 -60 -61 -72 -73 -83 -84 -92 -94 -101 -102 -109 -110 0
-17 -60 -62 -72 -73 -83 -84 -92 -94 -101 -102 -109 -110 0
-17 -61 -62 -72 -74 -83 -84 -92 -94 -101 -102 -109 -110 0
-17 -61 -62 -73 -74 -83 -85 -92 -94 -101 -102 -109 -110 0
-17 -61 -62 -73 -74 -84 -85 -92 -95 -101 -102 -109 -110 0
-16 -60 -61 -72 -73 -83 -84 -93 -94 -101 -103 -109 -110 0
-17 -60 -62 -72 -73 -83 -84 -93 -94 -101 -103 -109 -110 0
-17 -61 -62 -72 -74 -83 -84 -93 -94 -101 -103 -109 -110 0
-17 -61 -62 -73 -74 -83 -85 -93 -94 -101 -103 -109 -110 0
-17 -61 -62 -73 -74 -84 -85 -93 -95 -101 -103 -109 -110 0
-17 -61 -62 -73 -74 -84 -85 -94 -95 -101 -104 -109 -110 0
-16 -60 -61 -72 -73 -83 -84 -93 -94 -102 -103 -109 -111 0
-17 -60 -62 -72 -73 -83 -84 -93 -94 -102 -103 -109 -111 0
-17 -61 -62 -72 -74 -83 -84 -93 -94 -102 -103 -109 -111 0
-17 -61 -62 -73 -74 -83 -85 -93 -94 -102 -103 -109 -111 0
-17 -61 -62 -73 -74 -84 -85 -93 -95 -102 -103 -109 -111 0
-17 -61 -62 -73 -74 -84 -85 -94 -95 -102 -104 -109 -111 0
-17 -61 -62 -73 -74 -84 -85 -94 -95 -103 -104 -109 -112 0
-16 -60 -61 -72 -73 -83 -84 -93 -94 -102 -103 -110 -111 0
-17 -60 -62 -72 -73 -83 -84 -93 -94 -102 -103 -110 -111 0
-17 -61 -62 -72 -74 -83 -84 -93 -94 -102 -103 -110 -111 0
-17 -61 -62 -73 -74 -83 -85 -93 -94 -102 -103 -110 -111 0
-17 -61 -62 -73 -74 -84 -85 -93 -95 -102 -103 -110 -111 0
-17 -61 -62 -73 -74 -84 -85 -94 -95 -102 -104 -110 -111 0
-17 -61 -62 -73 -74 -84 -85 -94 -95 -103 -104 -110 -112 0
-17 -61 -62 -73 -74 -84 -85 -94 -95 -103 -104 -111 -112 0
-16 -60 -61 -72 -73 -83 -84 -93 -94 -102 -103 -118 -119 0
-17 -60 -62 -72 -73 -83 -84 -93 -94 -102 -103 -118 -119 0
-17 -61 -62 -72 -74 -83 -84 -93 -94 -102 -103 -118 -119 0
-17 -61 -62 -73 -74 -83 -85 -93 -94 -102 -103 -118 -119 0
-17 -61 -62 -73 -74 -84 -85 -93 -95 -102 -103 -118 -119 0
-17 -61 -62 -73 -74 -84 -85 -94 -95 -102 -104 -118 -119 0
-17 -61 -62 -73 -74 -84 -85 -94 -95 -103 -104 -118 -120 0
-17 -61 -62 -73 -74 -84 -85 -94 -95 -103 -104 -119 -120 0
-17 -61 -62 -73 -74 -84 -85 -94 -95 -103 -104 -126 -127 0
-16 -60 -61 -72 -73 -83 -84 -93 -94 -111 -112 -118 -119 0
-17 -60 -62 -72 -73 -83 -84 -93 -94 -111 -112 -118 -119 0
-17 -61 -62 -72 -74 -83 -84 -93 -94 -111 -112 -118 -119 0
-17 -61 -62 -73 -74 -83 -85 -93 -94 -111 -112 -118 -119 0
-17 -61 -62 -73 -74 -84 -85 -93 -95 -111 -112 -118 -119 0
-17 -61 -62 -73 -74 -84 -85 -94 -95 -111 -113 -118 -119 0
-17 -61 -62 -73 -74 -84 -85 -94 -95 -112 -113 -118 -120 0
-17 -61 -62 -73 -74 -84 -85 -94 -95 -112 -113 -119 -120 0
-17 -61 -62 -73 -74 -84 -85 -94 -95 -112 -113 -126 -127 0
-17 -61 -62 -73 -74 -84 -85 -94 -95 -120 -121 -126 -127 0
-16 -60 -61 -72 -73 -83 -84 -103 -104 -111 -112 -118 -119 0
-17 -60 -62 -72 -73 -83 -84 -103 -104 -111 -112 -118 -119 0
-17 -61 -62 -72 -74 -83 -84 -103 -104 -111 -112 -118 -119 0
-17 -61 -62 -73 -74 -83 -85 -103 -104 -111 -112 -118 -119 0
-17 -61 -62 -73 -74 -84 -85 -103 -105 -111 -112 -118 -119 0
-17 -61 -62 -73 -74 -84 -85 -104 -105 -111 -113 -118 -119 0
-17 -61 -62 -73 -74 -84 -85 -104 -105 -112 -113 -118 -120 0
-17 -61 -62 -73 -74 -84 -85 -104 -105 -112 -113 -119 -120 0
-17 -61 -62 -73 -74 -84 -85 -104 -105 -112 -113 -126 -127 0
-17 -61 -62 -73 -74 -84 -85 -104 -105 -120 -121 -126 -127 0
-17 -61 -62 -73 -74 -84 -85 -113 -114 -120 -121 -126 -127 0
-16 -60 -61 -72 -73 -94 -95 -103 -104 -111 -112 -118 -119 0
-17 -60 -62 -72 -73 -94 -95 -103 -104 -111 -112 -118 -119 0
-17 -61 -62 -72 -74 -94 -95 -103 -104 -111 -112 -118 -119 0
-17 -61 -62 -73 -74 -94 -96 -103 -104 -111 -112 -118 -119 0
-17 -61 -62 -73 -74 -95 -96 -103 -105 -111 -112 -118 -119 0
-17 -61 -62 -73 -74 -95 -96 -104 -105 -111 -113 -118 -119 0
-17 -61 -62 -73 -74 -95 -96 -104 -105 -112 -113 -118 -120 0
-17 -61 -62 -73 -74 -95 -96 -104 -105 -112 -113 -119 -120 0
-17 -61 -62 -73 -74 -95 -96 -104 -105 -112 -113 -126 -127 0
-17 -61 -62 -73 -74 -95 -96 -104 -105 -120 -121 -126 -127 0
-17 -61 -62 -73 -74 -95 -96 -113 -114 -120 -121 -126 -127 0
-17 -61 -62 -73 -74 -105 -106 -113 -114 -120 -121 -126 -127 0
-16 -60 -61 -84 -85 -94 -95 -103 -104 -111 -112 -118 -119 0
-17 -60 -62 -84 -85 -94 -95 -103 -104 -111 -112 -118 -119 0
-17 -61 -62 -84 -86 -94 -95 -103 -104 -111 -112 -118 -119 0
-17 -61 -62 -85 -86 -94 -96 -103 -104 -111 -112 -118 -119 0
-17 -61 -62 -85 -86 -95 -96 -103 -105 -111 -112 -118 -119 0
-17 -61 -62 -85 -86 -95 -96 -104 -105 -111 -113 -118 -119 0
-17 -61 -62 -85 -86 -95 -96 -104 -105 -112 -113 -118 -120 0
-17 -61 -62 -85 -86 -95 -96 -104 -105 -112 -113 -119 -120 0
-17 -61 -62 -85 -86 -95 -96 -104 -105 -112 -113 -126 -127 0
-17 -61 -62 -85 -86 -95 -96 -104 -105 -120 -121 -126 -127 0
-17 -61 -62 -85 -86 -95 -96 -113 -114 -120 -121 -126 -127 0
-17 -61 -62 -85 -86 -105 -106 -113 -114 -120 -121 -126 -127 0
-17 -61 -62 -96 -97 -105 -106 -113 -114 -120 -121 -126 -127 0
-16 -73 -74 -84 -85 -94 -95 -103 -104 -111 -112 -118 -119 0
-17 -73 -75 -84 -85 -94 -95 -103 -104 -111 -112 -118 -119 0
-17 -74 -75 -84 -86 -94 -95 -103 -104 -111 -112 -118 -119 0
-17 -74 -75 -85 -86 -94 -96 -103 -104 -111 -112 -118 -119 0
-17 -74 -75 -85 -86 -95 -96 -103 -105 -111 -112 -118 -119 0
-17 -74 -75 -85 -86 -95 -96 -104 -105 -111 -113 -118 -119 0
-17 -74 -75 -85 -86 -95 -96 -104 -105 -112 -113 -118 -120 0
-17 -74 -75 -85 -86 -95 -96 -104 -105 -112 -113 -119 -120 0
-17 -74 -75 -85 -86 -95 -96 -104 -105 -112 -113 -126 -127 0
-17 -74 -75 -85 -86 -95 -96 -104 -105 -120 -121 -126 -127 0
-17 -74 -75 -85 -86 -95 -96 -113 -114 -120 -121 -126 -127 0
-17 -74 -75 -85 -86 -105 -106 -113 -114 -120 -121 -126 -127 0
-17 -74 -75 -96 -97 -105 -106 -113 -114 -120 -121 -126 -127 0
-17 -86 -87 -96 -97 -105 -106 -113 -114 -120 -121 -126 -127 0
-30 -44 -45 -57 -58 -69 -70 -80 -81 -90 -91 -99 -100 0
-31 -44 -46 -57 -58 -69 -70 -80 -81 -90 -91 -99 -100 0
-32 -44 -47 -57 -58 -69 -70 -80 -81 -90 -91 -99 -100 0
-33 -44 -48 -57 -58 -69 -70 -80 -81 -90 -91 -99 -100 0
-31 -45 -46 -57 -59 -69 -70 -80 -81 -90 -91 -99 -100 0
-32 -45 -47 -57 -59 -69 -70 -80 -81 -90 -91 -99 -100 0
-33 -45 -48 -57 -59 -69 -70 -80 -81 -90 -91 -99 -100 0
-32 -46 -47 -57 -60 -69 -70 -80 -81 -90 -91 -99 -100 0
-33 -46 -48 -57 -60 -69 -70 -80 -81 -90 -91 -99 -100 0
-33 -47 -48 -57 -61 -69 -70 -80 -81 -90 -91 -99 -100 0
-31 -45 -46 -58 -59 -69 -71 -80 -81 -90 -91 -99 -100 0
-32 -45 -47 -58 -59 -69 -71 -80 -81 -90 -91 -99 -100 0
-33 -45 -48 -58 -59 -69 -71 -80 -81 -90 -91 -99 -100 0
-32 -46 -47 -58 -60 -69 -71 -80 -81 -90 -91 -99 -100 0
-33 -46 -48 -58 -60 -69 -71 -80 -81 -90 -91 -99 -100 0
-33 -47 -48 -58 -61 -69 -71 -80 -81 -90 -91 -99 -100 0
-32 -46 -47 -59 -60 -69 -72 -80 -81 -90 -91 -99 -100 0
-33 -46 -48 -59 -60 -69 -72 -80 -81 -90 -91 -99 -100 0
-33 -47 -48 -59 -61 -69 -72 -80 -81 -90 -91 -99 -100 0
-33 -47 -48 -60 -61 -69 -73 -80 -81 -90 -91 -99 -100 0
-31 -45 -46 -58 -59 -70 -71 -80 -82 -90 -91 -99 -100 0
-32 -45 -47 -58 -59 -70 -71 -80 -82 -90 -91 -99 -100 0
-33 -45 -48 -58 -59 -70 -71 -80 -82 -90 -91 -99 -100 0
-32 -46 -47 -58 -60 -70 -71 -80 -82 -90 -91 -99 -100 0
-33 -46 -48 -58 -60 -70 -71 -80 -82 -90 -91 -99 -100 0
-33 -47 -48 -58 -61 -70 -71 -80 -82 -90 -91 -99 -100 0
-32 -46 -47 -59 -60 -70 -72 -80 -82 -90 -91 -99 -100 0
-33 -46 -48 -59 -60 -70 -72 -80 -82 -90 -91 -99 -100 0
-33 -47 -48 -59 -61 -70 -72 -80 -82 -90 -91 -99 -100 0
-33 -47 -48 -60 -61 -70 -73 -80 -82 -90 -91 -99 -100 0
-32 -46 -47 -59 -60 -71 -72 -80 -83 -90 -91 -99 -100 0
-33 -46 -48 -59 -60 -71 -72 -80 -83 -90 -91 -99 -100 0
-33 -47 -48 -59 -61 -71 -72 -80 -83 -90 -91 -99 -100 0
-33 -47 -48 -60 -61 -71 -73 -80 -83 -90 -91 -99 -100 0
-33 -47 -48 -60 -61 -72 -73 -80 -84 -90 -91 -99 -100 0
-31 -45 -46 -58 -59 -70 -71 -81 -82 -90 -92 -99 -100 0
-32 -45 -47 -58 -59 -70 -71 -81 -82 -90 -92 -99 -100 0
-33 -45 -48 -58 -59 -70 -71 -81 -82 -90 -92 -99 -100 0
-32 -46 -47 -58 -60 -70 -71 -81 -82 -90 -92 -99 -100 0
-33 -46 -48 -58 -60 -70 -71 -81 -82 -90 -92 -99 -100 0
-33 -47 -48 -58 -61 -70 -71 -81 -82 -90 -92 -99 -100 0
-32 -46 -47 -59 -60 -70 -72 -81 -82 -90 -92 -99 -100 0
-33 -46 -48 -59 -60 -70 -72 -81 -82 -90 -92 -99 -100 0
-33 -47 -48 -59 -61 -70 -72 -81 -82 -90 -92 -99 -100 0
-33 -47 -48 -60 -61 -70 -73 -81 -82 -90 -92 -99 -100 0
-32 -46 -47 -59 -60 -71 -72 -81 -83 -90 -92 -99 -100 0
-33 -46 -48 -59 -60 -71 -72 -81 -83 -90 -92 -99 -100 0
-33 -47 -48 -59 -61 -71 -72 -81 -83 -90 -92 -99 -100 0
-33 -47 -48 -60 -61 -71 -73 -81 -83 -90 -92 -99 -100 0
-33 -47 -48 -60 -61 -72 -73 -81 -84 -90 -92 -99 -100 0
-32 -46 -47 -59 -60 -71 -72 -82 -83 -90 -93 -99 -100 0
-33 -46 -48 -59 -60 -71 -72 -82 -83 -90 -93 -99 -100 0
-33 -47 -48 -59 -61 -71 -72 -82 -83 -90 -93 -99 -100 0
-33 -47 -48 -60 -61 -71 -73 -82 -83 -90 -93 -99 -100 0
-33 -47 -48 -60 -61 -72 -73 -82 -84 -90 -93 -99 -100 0
-33 -47 -48 -60 -61 -72 -73 -83 -84 -90 -94 -99 -100 0
-31 -45 -46 -58 -59 -70 -71 -81 -82 -91 -92 -99 -101 0
-32 -45 -47 -58 -59 -70 -71 -81 -82 -91 -92 -99 -101 0
-33 -45 -48 -58 -59 -70 -71 -81 -82 -91 -92 -99 -101 0
-32 -46 -47 -58 -60 -70 -71 -81 -82 -91 -92 -99 -101 0
-33 -46 -48 -58 -60 -70 -71 -81 -82 -91 -92 -99 -101 0
-33 -47 -48 -58 -61 -70 -71 -81 -82 -91 -92 -99 -101 0
-32 -46 -47 -59 -60 -70 -72 -81 -82 -91 -92 -99 -101 0
-33 -46 -48 -59 -60 -70 -72 -81 -82 -91 -92 -99 -101 0
-33 -47 -48 -59 -61 -70 -72 -81 -82 -91 -92 -99 -101 0
-33 -47 -48 -60 -61 -70 -73 -81 -82 -91 -92 -99 -101 0
-32 -46 -47 -59 -60 -71 -72 -81 -83 -91 -92 -99 -101 0
-33 -46 -48 -59 -60 -71 -72 -81 -83 -91 -92 -99 -101 0
-33 -47 -48 -59 -61 -71 -72 -81 -83 -91 -92 -99 -101 0
-33 -47 -48 -60 -61 -71 -73 -81 -83 -91 -92 -99 -101 0
-33 -47 -48 -60 -61 -72 -73 -81 -84 -91 -92 -99 -101 0
-32 -46 -47 -59 -60 -71 -72 -82 -83 -91 -93 -99 -101 0
-33 -46 -48 -59 -60 -71 -72 -82 -83 -91 -93 -99 -101 0
-33 -47 -48 -59 -61 -71 -72 -82 -83 -91 -93 -99 -101 0
-33 -47 -48 -60 -61 -71 -73 -82 -83 -91 -93 -99 -101 0
-33 -47 -48 -60 -61 -72 -73 -82 -84 -91 -93 -99 -101 0
-33 -47 -48 -60 -61 -72 -73 -83 -84 -91 -94 -99 -101 0
-32 -46 -47 -59 -60 -71 -72 -82 -83 -92 -93 -99 -102 0
-33 -46 -48 -59 -60 -71 -72 -82 -83 -92 -93 -99 -102 0
-33 -47 -48 -59 -61 -71 -72 -82 -83 -92 -93 -99 -102 0
-33 -47 -48 -60 -61 -71 -73 -82 -83 -92 -93 -99 -102 0
-33 -47 -48 -60 -61 -72 -73 -82 -84 -92 -93 -99 -102 0
-33 -47 -48 -60 -61 -72 -73 -83 -84 -92 -94 -99 -102 0
-33 -47 -48 -60 -61 -72 -73 -83 -84 -93 -94 -99 -103 0
-31 -45 -46 -58 -59 -70 -71 -81 -82 -91 -92 -100 -101 0
-32 -45 -47 -58 -59 -70 -71 -81 -82 -91 -92 -100 -101 0
-33 -45 -48 -58 -59 -70 -71 -81 -82 -91 -92 -100 -101 0
-32 -46 -47 -58 -60 -70 -71 -81 -82 -91 -92 -100 -101 0
-33 -46 -48 -58 -60 -70 -71 -81 -82 -91 -92 -100 -101 0
-33 -47 -48 -58 -61 -70 -71 -81 -82 -91 -92 -100 -101 0
-32 -46 -47 -59 -60 -70 -72 -81 -82 -91 -92 -100 -101 0
-33 -46 -48 -59 -60 -70 -72 -81 -82 -91 -92 -100 -101 0
-33 -47 -48 -59 -61 -70 -72 -81 -82 -91 -92 -100 -101 0
-33 -47 -48 -60 -61 -70 -73 -81 -82 -91 -92 -100 -101 0
-32 -46 -47 -59 -60 -71 -72 -81 -83 -91 -92 -100 -101 0
-33 -46 -48 -59 -60 -71 -72 -81 -83 -91 -92 -100 -101 0
-33 -47 -48 -59 -61 -71 -72 -81 -83 -91 -92 -100 -101 0
-33 -47 -48 -60 -61 -71 -73 -81 -83 -91 -92 -100 -101 0
-33 -47 -48 -60 -61 -72 -73 -81 -84 -91 -92 -100 -101 0
-32 -46 -47 -59 -60 -71 -72 -82 -83 -91 -93 -100 -101 0
-33 -46 -48 -59 -60 -71 -72 -82 -83 -91 -93 -100 -101 0
-33 -47 -48 -59 -61 -71 -72 -82 -83 -91 -93 -100 -101 0
-33 -47 -48 -60 -61 -71 -73 -82 -83 -91 -93 -100 -101 0
-33 -47 -48 -60 -61 -72 -73 -82 -84 -91 -93 -100 -101 0
-33 -47 -48 -60 -61 -72 -73 -83 -84 -91 -94 -100 -101 0
-32 -46 -47 -59 -60 -71 -72 -82 -83 -92 -93 -100 -102 0
-33 -46 -48 -59 -60 -71 -72 -82 -83 -92 -93 -100 -102 0
-33 -47 -48 -59 -61 -71 -72 -82 -83 -92 -93 -100 -102 0
-33 -47 -48 -60 -61 -71 -73 -82 -83 -92 -93 -100 -102 0
-33 -47 -48 -60 -61 -72 -73 -82 -84 -92 -93 -100 -102 0
-33 -47 -48 -60 -61 -72 -73 -83 -84 -92 -94 -100 -102 0
-33 -47 -48 -60 -61 -72 -73 -83 -84 -93 -94 -100 -103 0
-32 -46 -47 -59 -60 -71 -72 -82 -83 -92 -93 -101 -102 0
-33 -46 -48 -59 -60 -71 -72 -82 -83 -92 -93 -101 -102 0
-33 -47 -48 -59 -61 -71 -72 -82 -83 -92 -93 -101 -102 0
-33 -47 -48 -60 -61 -71 -73 -82 -83 -92 -93 -101 -102 0
-33 -47 -48 -60 -61 -72 -73 -82 -84 -92 -93 -101 -102 0
-33 -47 -48 -60 -61 -72 -73 -83 -84 -92 -94 -101 -102 0
-33 -47 -48 -60 -61 -72 -73 -83 -84 -93 -94 -101 -103 0
-33 -47 -48 -60 -61 -72 -73 -83 -84 -93 -94 -102 -103 0
-31 -45 -46 -58 -59 -70 -71 -81 -82 -91 -92 -109 -110 0
-32 -45 -47 -58 -59 -70 -71 -81 -82 -91 -92 -109 -110 0
-33 -45 -48 -58 -59 -70 -71 -81 -82 -91 -92 -109 -110 0
-32 -46 -47 -58 -60 -70 -71 -81 -82 -91 -92 -109 -110 0
-33 -46 -48 -58 -60 -70 -71 -81 -82 -91 -92 -109 -110 0
-33 -47 -48 -58 -61 -70 -71 -81 -82 -91 -92 -109 -110 0
-32 -46 -47 -59 -60 -70 -72 -81 -82 -91 -92 -109 -110 0
-33 -46 -48 -59 -60 -70 -72 -81 -82 -91 -92 -109 -110 0
-33 -47 -48 -59 -61 -70 -72 -81 -82 -91 -92 -109 -110 0
-33 -47 -48 -60 -61 -70 -73 -81 -82 -91 -92 -109 -110 0
-32 -46 -47 -59 -60 -71 -72 -81 -83 -91 -92 -109 -110 0
-33 -46 -48 -59 -60 -71 -72 -81 -83 -91 -92 -109 -110 0
-33 -47 -48 -59 -61 -71 -72 -81 -83 -91 -92 -109 -110 0
-33 -47 -48 -60 -61 -71 -73 -81 -83 -91 -92 -109 -110 0
-33 -47 -48 -60 -61 -72 -73 -81 -84 -91 -92 -109 -110 0
-32 -46 -47 -59 -60 -71 -72 -82 -83 -91 -93 -109 -110 0
-33 -46 -48 -59 -60 -71 -72 -82 -83 -91 -93 -109 -110 0
-33 -47 -48 -59 -61 -71 -72 -82 -83 -91 -93 -109 -110 0
-33 -47 -48 -60 -61 -71 -73 -82 -83 -91 -93 -109 -110 0
-33 -47 -48 -60 -61 -72 -73 -82 -84 -91 -93 -109 -110 0
-33 -47 -48 -60 -61 -72 -73 -83 -84 -91 -94 -109 -110 0
-32 -46 -47 -59 -60 -71 -72 -82 -83 -92 -93 -109 -111 0
-33 -46 -48 -59 -60 -71 -72 -82 -83 -92 -93 -109 -111 0
-33 -47 -48 -59 -61 -71 -72 -82 -83 -92 -93 -109 -111 0
-33 -47 -48 -60 -61 -71 -73 -82 -83 -92 -93 -109 -111 0
-33 -47 -48 -60 -61 -72 -73 -82 -84 -92 -93 -109 -111 0
-33 -47 -48 -60 -61 -72 -73 -83 -84 -92 -94 -109 -111 0
-33 -47 -48 -60 -61 -72 -73 -83 -84 -93 -94 -109 -112 0
-32 -46 -47 -59 -60 -71 -72 -82 -83 -92 -93 -110 -111 0
-33 -46 -48 -59 -60 -71 -72 -82 -83 -92 -93 -110 -111 0
-33 -47 -48 -59 -61 -71 -72 -82 -83 -92 -93 -110 -111 0
-33 -47 -48 -60 -61 -71 -73 -82 -83 -92 -93 -110 -111 0
-33 -47 -48 -60 -61 -72 -73 -82 -84 -92 -93 -110 -111 0
-33 -47 -48 -60 -61 -72 -73 -83 -84 -92 -94 -110 -111 0
-33 -47 -48 -60 -61 -72 -73 -83 -84 -93 -94 -110 -112 0
-33 -47 -48 -60 -61 -72 -73 -83 -84 -93 -94 -111 -112 0
-32 -46 -47 -59 -60 -71 -72 -82 -83 -92 -93 -118 -119 0
-33 -46 -48 -59 -60 -71 -72 -82 -83 -92 -93 -118 -119 0
-33 -47 -48 -59 -61 -71 -72 -82 -83 -92 -93 -118 -119 0
-33 -47 -48 -60 -61 -71 -73 -82 -83 -92 -93 -118 -119 0
-33 -47 -48 -60 -61 -72 -73 -82 -84 -92 -93 -118 -119 0
-33 -47 -48 -60 -61 -72 -73 -83 -84 -92 -94 -118 -119 0
-33 -47 -48 -60 -61 -72 -73 -83 -84 -93 -94 -118 -120 0
-33 -47 -48 -60 -61 -72 -73 -83 -84 -93 -94 -119 -120 0
-33 -47 -48 -60 -61 -72 -73 -83 -84 -93 -94 -126 -127 0
-31 -45 -46 -58 -59 -70 -71 -81 -82 -101 -102 -109 -110 0
-32 -45 -47 -58 -59 -70 -71 -81 -82 -101 -102 -109 -110 0
-33 -45 -48 -58 -59 -70 -71 -81 -82 -101 -102 -109 -110 0
-32 -46 -47 -58 -60 -70 -71 -81 -82 -101 -102 -109 -110 0
-33 -46 -48 -58 -60 -70 -71 -81 -82 -101 -102 -109 -110 0
-33 -47 -48 -58 -61 -70 -71 -81 -82 -101 -102 -109 -110 0
-32 -46 -47 -59 -60 -70 -72 -81 -82 -101 -102 -109 -110 0
-33 -46 -48 -59 -60 -70 -72 -81 -82 -101 -102 -109 -110 0
-33 -47 -48 -59 -61 -70 -72 -81 -82 -101 -102 -109 -110 0
-33 -47 -48 -60 -61 -70 -73 -81 -82 -101 -102 -109 -110 0
-32 -46 -47 -59 -60 -71 -72 -81 -83 -101 -102 -109 -110 0
-33 -46 -48 -59 -60 -71 -72 -81 -83 -101 -102 -109 -110 0
-33 -47 -48 -59 -61 -71 -72 -81 -83 -101 -102 -109 -110 0
-33 -47 -48 -60 -61 -71 -73 -81 -83 -101 -102 -109 -110 0
-33 -47 -48 -60 -61 -72 -73 -81 -84 -101 -102 -109 -110 0
-32 -46 -47 -59 -60 -71 -72 -82 -83 -101 -103 -109 -110 0
-33 -46 -48 -59 -60 -71 -72 -82 -83 -101 -103 -109 -110 0
-33 -47 -48 -59 -61 -71 -72 -82 -83 -101 -103 -109 -110 0
-33 -47 -48 -60 -61 -71 -73 -82 -83 -101 -103 -109 -110 0
-33 -47 -48 -60 -61 -72 -73 -82 -84 -101 -103 -109 -110 0
-33 -47 -48 -60 -61 -72 -73 -83 -84 -101 -104 -109 -110 0
-32 -46 -47 -59 -60 -71 -72 -82 -83 -102 -103 -109 -111 0
-33 -46 -48 -59 -60 -71 -72 -82 -83 -102 -103 -109 -111 0
-33 -47 -48 -59 -61 -71 -72 -82 -83 -102 -103 -109 -111 0
-33 -47 -48 -60 -61 -71 -73 -82 -83 -102 -103 -109 -111 0
-33 -47 -48 -60 -61 -72 -73 -82 -84 -102 -103 -109 -111 0
-33 -47 -48 -60 -61 -72 -73 -83 -84 -102 -104 -109 -111 0
-33 -47 -48 -60 -61 -72 -73 -83 -84 -103 -104 -109 -112 0
-32 -46 -47 -59 -60 -71 -72 -82 -83 -102 -103 -110 -111 0
-33 -46 -48 -59 -60 -71 -72 -82 -83 -102 -103 -110 -111 0
-33 -47 -48 -59 -61 -71 -72 -82 -83 -102 -103 -110 -111 0
-33 -47 -48 -60 -61 -71 -73 -82 -83 -102 -103 -110 -111 0
-33 -47 -48 -60 -61 -72 -73 -82 -84 -102 -103 -110 -111 0
-33 -47 -48 -60 -61 -72 -73 -83 -84 -102 -104 -110 -111 0
-33 -47 -48 -60 -61 -72 -73 -83 -84 -103 -104 -110 -112 0
-33 -47 -48 -60 -61 -72 -73 -83 -84 -103 -104 -111 -112 0
-32 -46 -47 -59 -60 -71 -72 -82 -83 -102 -103 -118 -119 0
-33 -46 -48 -59 -60 -71 -72 -82 -83 -102 -103 -118 -119 0
-33 -47 -48 -59 -61 -71 -72 -82 -83 -102 -103 -118 -119 0
-33 -47 -48 -60 -61 -71 -73 -82 -83 -102 -103 -118 -119 0
-33 -47 -48 -60 -61 -72 -73 -82 -84 -102 -103 -118 -119 0
-33 -47 -48 -60 -61 -72 -73 -83 -84 -102 -104 -118 -119 0
-33 -47 -48 -60 -61 -72 -73 -83 -84 -103 -104 -118 -120 0
-33 -47 -48 -60 -61 -72 -73 -83 -84 -103 -104 -119 -120 0
-33 -47 -48 -60 -61 -72 -73 -83 -84 -103 -104 -126 -127 0
-32 -46 -47 -59 -60 -71 -72 -82 -83 -111 -112 -118 -119 0
-33 -46 -48 -59 -60 -71 -72 -82 -83 -111 -112 -118 -119 0
-33 -47 -48 -59 -61 -71 -72 -82 -83 -111 -112 -118 -119 0
-33 -47 -48 -60 -61 -71 -73 -82 -83 -111 -112 -118 -119 0
-33 -47 -48 -60 -61 -72 -73 -82 -84 -111 -112 -118 -119 0
-33 -47 -48 -60 -61 -72 -73 -83 -84 -111 -113 -118 -119 0
-33 -47 -48 -60 -61 -72 -73 -83 -84 -112 -113 -118 -120 0
-33 -47 -48 -60 -61 -72 -73 -83 -84 -112 -113 -119 -120 0
-33 -47 -48 -60 -61 -72 -73 -83 -84 -112 -113 -126 -127 0
-33 -47 -48 -60 -61 -72 -73 -83 -84 -120 -121 -126 -127 0
-31 -45 -46 -58 -59 -70 -71 -92 -93 -101 -102 -109 -110 0
-32 -45 -47 -58 -59 -70 -71 -92 -93 -101 -102 -109 -110 0
-33 -45 -48 -58 -59 -70 -71 -92 -93 -101 -102 -109 -110 0
-32 -46 -47 -58 -60 -70 -71 -92 -93 -101 -102 -109 -110 0
-33 -46 -48 -58 -60 -70 -71 -92 -93 -101 -102 -109 -110 0
-33 -47 -48 -58 -61 -70 -71 -92 -93 -101 -102 -109 -110 0
-32 -46 -47 -59 -60 -70 -72 -92 -93 -101 -102 -109 -110 0
-33 -46 -48 -59 -60 -70 -72 -92 -93 -101 -102 -109 -110 0
-33 -47 -48 -59 -61 -70 -72 -92 -93 -101 -102 -109 -110 0
-33 -47 -48 -60 -61 -70 -73 -92 -93 -101 -102 -109 -110 0
-32 -46 -47 -59 -60 -71 -72 -92 -94 -101 -102 -109 -110 0
-33 -46 -48 -59 -60 -71 -72 -92 -94 -101 -102 -109 -110 0
-33 -47 -48 -59 -61 -71 -72 -92 -94 -101 -102 -109 -110 0
-33 -47 -48 -60 -61 -71 -73 -92 -94 -101 -102 -109 -110 0
-33 -47 -48 -60 -61 -72 -73 -92 -95 -101 -102 -109 -110 0
-32 -46 -47 -59 -60 -71 -72 -93 -94 -101 -103 -109 -110 0
-33 -46 -48 -59 -60 -71 -72 -93 -94 -101 -103 -109 -110 0
-33 -47 -48 -59 -61 -71 -72 -93 -94 -101 -103 -109 -110 0
-33 -47 -48 -60 -61 -71 -73 -93 -94 -101 -103 -109 -110 0
-33 -47 -48 -60 -61 -72 -73 -93 -95 -101 -103 -109 -110 0
-33 -47 -48 -60 -61 -72 -73 -94 -95 -101 -104 -109 -110 0
-32 -46 -47 -59 -60 -71 -72 -93 -94 -102 -103 -109 -111 0
-33 -46 -48 -59 -60 -71 -72 -93 -94 -102 -103 -109 -111 0
-33 -47 -48 -59 -61 -71 -72 -93 -94 -102 -103 -109 -111 0
-33 -47 -48 -60 -61 -71 -73 -93 -94 -102 -103 -109 -111 0
-33 -47 -48 -60 -61 -72 -73 -93 -95 -102 -103 -109 -111 0
-33 -47 -48 -60 -61 -72 -73 -94 -95 -102 -104 -109 -111 0
-33 -47 -48 -60 -61 -72 -73 -94 -95 -103 -104 -109 -112 0
-32 -46 -47 -59 -60 -71 -72 -93 -94 -102 -103 -110 -111 0
-33 -46 -48 -59 -60 -71 -72 -93 -94 -102 -103 -110 -111 0
-33 -47 -48 -59 -61 -71 -72 -93 -94 -102 -103 -110 -111 0
-33 -47 -48 -60 -61 -71 -73 -93 -94 -102 -103 -110 -111 0
-33 -47 -48 -60 -61 -72 -73 -93 -95 -102 -103 -110 -111 0
-33 -47 -48 -60 -61 -72 -73 -94 -95 -102 -104 -110 -111 0
-33 -47 -48 -60 -61 -72 -73 -94 -95 -103 -104 -110 -112 0
-33 -47 -48 -60 -61 -72 -73 -94 -95 -103 -104 -111 -112 0
-32 -46 -47 -59 -60 -71 -72 -93 -94 -102 -103 -118 -119 0
-33 -46 -48 -59 -60 -71 -72 -93 -94 -102 -103 -118 -119 0
-33 -47 -48 -59 -61 -71 -72 -93 -94 -102 -103 -118 -119 0
-33 -47 -48 -60 -61 -71 -73 -93 -94 -102 -103 -118 -119 0
-33 -47 -48 -60 -61 -72 -73 -93 -95 -102 -103 -118 -119 0
-33 -47 -48 -60 -61 -72 -73 -94 -95 -102 -104 -118 -119 0
-33 -47 -48 -60 -61 -72 -73 -94 -95 -103 -104 -118 -120 0
-33 -47 -48 -60 -61 -72 -73 -94 -95 -103 -104 -119 -120 0
-33 -47 -48 -60 -61 -72 -73 -94 -95 -103 -104 -126 -127 0
-32 -46 -47 -59 -60 -71 -72 -93 -94 -111 -112 -118 -119 0
-33 -46 -48 -59 -60 -71 -72 -93 -94 -111 -112 -118 -119 0
-33 -47 -48 -59 -61 -71 -72 -93 -94 -111 -112 -118 -119 0
-33 -47 -48 -60 -61 -71 -73 -93 -94 -111 -112 -118 -119 0
-33 -47 -48 -60 -61 -72 -73 -93 -95 -111 -112 -118 -119 0
-33 -47 -48 -60 -61 -72 -73 -94 -95 -111 -113 -118 -119 0
-33 -47 -48 -60 -61 -72 -73 -94 -95 -112 -113 -118 -120 0
-33 -47 -48 -60 -61 -72 -73 -94 -95 -112 -113 -119 -120 0
-33 -47 -48 -60 -61 -72 -73 -94 -95 -112 -113 -126 -127 0
-33 -47 -48 -60 -61 -72 -73 -94 -95 -120 -121 -126 -127 0
-32 -46 -47 -59 -60 -71 -72 -103 -104 -111 -112 -118 -119 0
-33 -46 -48 -59 -60 -71 -72 -103 -104 -111 -112 -118 -119 0
-33 -47 -48 -59 -61 -71 -72 -103 -104 -111 -112 -118 -119 0
-33 -47 -48 -60 -61 -71 -73 -103 -104 -111 -112 -118 -119 0
-33 -47 -48 -60 -61 -72 -73 -103 -105 -111 -112 -118 -119 0
-33 -47 -48 -60 -61 -72 -73 -104 -105 -111 -113 -118 -119 0
-33 -47 -48 -60 -61 -72 -73 -104 -105 -112 -113 -118 -120 0
-33 -47 -48 -60 -61 -72 -73 -104 -105 -112 -113 -119 -120 0
-33 -47 -48 -60 -61 -72 -73 -104 -105 -112 -113 -126 -127 0
-33 -47 -48 -60 -61 -72 -73 -104 -105 -120 -121 -126 -127 0
-33 -47 -48 -60 -61 -72 -73 -113 -114 -120 -121 -126 -127 0
-31 -45 -46 -58 -59 -82 -83 -92 -93 -101 -102 -109 -110 0
-32 -45 -47 -58 -59 -82 -83 -92 -93 -101 -102 -109 -110 0
-33 -45 -48 -58 -59 -82 -83 -92 -93 -101 -102 -109 -110 0
-32 -46 -47 -58 -60 -82 -83 -92 -93 -101 -102 -109 -110 0
-33 -46 -48 -58 -60 -82 -83 -92 -93 -101 -102 -109 -110 0
-33 -47 -48 -58 -61 -82 -83 -92 -93 -101 -102 -109 -110 0
-32 -46 -47 -59 -60 -82 -84 -92 -93 -101 -102 -109 -110 0
-33 -46 -48 -59 -60 -82 -84 -92 -93 -101 -102 -109 -110 0
-33 -47 -48 -59 -61 -82 -84 -92 -93 -101 -102 -109 -110 0
-33 -47 -48 -60 -61 -82 -85 -92 -93 -101 -102 -109 -110 0
-32 -46 -47 -59 -60 -83 -84 -92 -94 -101 -102 -109 -110 0
-33 -46 -48 -59 -60 -83 -84 -92 -94 -101 -102 -109 -110 0
-33 -47 -48 -59 -61 -83 -84 -92 -94 -101 -102 -109 -110 0
-33 -47 -48 -60 -61 -83 -85 -92 -94 -101 -102 -109 -110 0
-33 -47 -48 -60 -61 -84 -85 -92 -95 -101 -102 -109 -110 0
-32 -46 -47 -59 -60 -83 -84 -93 -94 -101 -103 -109 -110 0
-33 -46 -48 -59 -60 -83 -84 -93 -94 -101 -103 -109 -110 0
-33 -47 -48 -59 -61 -83 -84 -93 -94 -101 -103 -109 -110 0
-33 -47 -48 -60 -61 -83 -85 -93 -94 -101 -103 -109 -110 0
-33 -47 -48 -60 -61 -84 -85 -93 -95 -101 -103 -109 -110 0
-33 -47 -48 -60 -61 -84 -85 -94 -95 -101 -104 -109 -110 0
-32 -46 -47 -59 -60 -83 -84 -93 -94 -102 -103 -109 -111 0
-33 -46 -48 -59 -60 -83 -84 -93 -94 -102 -103 -109 -111 0
-33 -47 -48 -59 -61 -83 -84 -93 -94 -102 -103 -109 -111 0
-33 -47 -48 -60 -61 -83 -85 -93 -94 -102 -103 -109 -111 0
-33 -47 -48 -60 -61 -84 -85 -93 -95 -102 -103 -109 -111 0
-33 -47 -48 -60 -61 -84 -85 -94 -95 -102 -104 -109 -111 0
-33 -47 -48 -60 -61 -84 -85 -94 -95 -103 -104 -109 -112 0
-32 -46 -47 -59 -60 -83 -84 -93 -94 -102 -103 -110 -111 0
-33 -46 -48 -59 -60 -83 -84 -93 -94 -102 -103 -110 -111 0
-33 -47 -48 -59 -61 -83 -84 -93 -94 -102 -103 -110 -111 0
-33 -47 -48 -60 -61 -83 -85 -93 -94 -102 -103 -110 -111 0
-33 -47 -48 -60 -61 -84 -85 -93 -95 -102 -103 -110 -111 0
-33 -47 -48 -60 -61 -84 -85 -94 -95 -102 -104 -110 -111 0
-33 -47 -48 -60 -61 -84 -85 -94 -95 -103 -104 -110 -112 0
-33 -47 -48 -60 -61 -84 -85 -94 -95 -103 -104 -111 -112 0
-32 -46 -47 -59 -60 -83 -84 -93 -94 -102 -103 -118 -119 0
-33 -46 -48 -59 -60 -83 -84 -93 -94 -102 -103 -118 -119 0
-33 -47 -48 -59 -61 -83 -84 -93 -94 -102 -103 -118 -119 0
-33 -47 -48 -60 -61 -83 -85 -93 -94 -102 -103 -118 -119 0
-33 -47 -48 -60 -61 -84 -85 -93 -95 -102 -103 -118 -119 0
-33 -47 -48 -60 -61 -84 -85 -94 -95 -102 -104 -118 -119 0
-33 -47 -48 -60 -61 -84 -85 -94 -95 -103 -104 -118 -120 0
-33 -47 -48 -60 -61 -84 -85 -94 -95 -103 -104 -119 -120 0
-33 -47 -48 -60 -61 -84 -85 -94 -95 -103 -104 -126 -127 0
-32 -46 -47 -59 -60 -83 -84 -93 -94 -111 -112 -118 -119 0
-33 -46 -48 -59 -60 -83 -84 -93 -94 -111 -112 -118 -119 0
-33 -47 -48 -59 -61 -83 -84 -93 -94 -111 -112 -118 -119 0
-33 -47 -48 -60 -61 -83 -85 -93 -94 -111 -112 -118 -119 0
-33 -47 -48 -60 -61 -84 -85 -93 -95 -111 -112 -118 -119 0
-33 -47 -48 -60 -61 -84 -85 -94 -95 -111 -113 -118 -119 0
-33 -47 -48 -60 -61 -84 -85 -94 -95 -112 -113 -118 -120 0
-33 -47 -48 -60 -61 -84 -85 -94 -95 -112 -113 -119 -120 0
-33 -47 -48 -60 -61 -84 -85 -94 -95 -112 -113 -126 -127 0
-33 -47 -48 -60 -61 -84 -85 -94 -95 -120 -121 -126 -127 0
-32 -46 -47 -59 -60 -83 -84 -103 -104 -111 -112 -118 -119 0
-33 -46 -48 -59 -60 -83 -84 -103 -104 -111 -112 -118 -119 0
-33 -47 -48 -59 -61 -83 -84 -103 -104 -111 -112 -118 -119 0
-33 -47 -48 -60 -61 -83 -85 -103 -104 -111 -112 -118 -119 0
-33 -47 -48 -60 -61 -84 -85 -103 -105 -111 -112 -118 -119 0
-33 -47 -48 -60 -61 -84 -85 -104 -105 -111 -113 -118 -119 0
-33 -47 -48 -60 -61 -84 -85 -104 -105 -112 -113 -118 -120 0
-33 -47 -48 -60 -61 -84 -85 -104 -105 -112 -113 -119 -120 0
-33 -47 -48 -60 -61 -84 -85 -104 -105 -112 -113 -126 -127 0
-33 -47 -48 -60 -61 -84 -85 -104 -105 -120 -121 -126 -127 0
-33 -47 -48 -60 -61 -84 -85 -113 -114 -120 -121 -126 -127 0
-32 -46 -47 -59 -60 -94 -95 -103 -104 -111 -112 -118 -119 0
-33 -46 -48 -59 -60 -94 -95 -103 -104 -111 -112 -118 -119 0
-33 -47 -48 -59 -61 -94 -95 -103 -104 -111 -112 -118 -119 0
-33 -47 -48 -60 -61 -94 -96 -103 -104 -111 -112 -118 -119 0
-33 -47 -48 -60 -61 -95 -96 -103 -105 -111 -112 -118 -119 0
-33 -47 -48 -60 -61 -95 -96 -104 -105 -111 -113 -118 -119 0
-33 -47 -48 -60 -61 -95 -96 -104 -105 -112 -113 -118 -120 0
-33 -47 -48 -60 -61 -95 -96 -104 -105 -112 -113 -119 -120 0
-33 -47 -48 -60 -61 -95 -96 -104 -105 -112 -113 -126 -127 0
-33 -47 -48 -60 -61 -95 -96 -104 -105 -120 -121 -126 -127 0
-33 -47 -48 -60 -61 -95 -96 -113 -114 -120 -121 -126 -127 0
-33 -47 -48 -60 -61 -105 -106 -113 -114 -120 -121 -126 -127 0
-31 -45 -46 -71 -72 -82 -83 -92 -93 -101 -102 -109 -110 0
-32 -45 -47 -71 -72 -82 -83 -92 -93 -101 -102 -109 -110 0
-33 -45 -48 -71 -72 -82 -83 -92 -93 -101 -102 -109 -110 0
-32 -46 -47 -71 -73 -82 -83 -92 -93 -101 -102 -109 -110 0
-33 -46 -48 -71 -73 -82 -83 -92 -93 -101 -102 -109 -110 0
-33 -47 -48 -71 -74 -82 -83 -92 -93 -101 -102 -109 -110 0
-32 -46 -47 -72 -73 -82 -84 -92 -93 -101 -102 -109 -110 0
-33 -46 -48 -72 -73 -82 -84 -92 -93 -101 -102 -109 -110 0
-33 -47 -48 -72 -74 -82 -84 -92 -93 -101 -102 -109 -110 0
-33 -47 -48 -73 -74 -82 -85 -92 -93 -101 -102 -109 -110 0
-32 -46 -47 -72 -73 -83 -84 -92 -94 -101 -102 -109 -110 0
-33 -46 -48 -72 -73 -83 -84 -92 -94 -101 -102 -109 -110 0
-33 -47 -48 -72 -74 -83 -84 -92 -94 -101 -102 -109 -110 0
-33 -47 -48 -73 -74 -83 -85 -92 -94 -101 -102 -109 -110 0
-33 -47 -48 -73 -74 -84 -85 -92 -95 -101 -102 -109 -110 0
-32 -46 -47 -72 -73 -83 -84 -93 -94 -101 -103 -109 -110 0
-33 -46 -48 -72 -73 -83 -84 -93 -94 -101 -103 -109 -110 0
-33 -47 -48 -72 -74 -83 -84 -93 -94 -101 -103 -109 -110 0
-33 -47 -48 -73 -74 -83 -85 -93 -94 -101 -103 -109 -110 0
-33 -47 -48 -73 -74 -84 -85 -93 -95 -101 -103 -109 -110 0
-33 -47 -48 -73 -74 -84 -85 -94 -95 -101 -104 -109 -110 0
-32 -46 -47 -72 -73 -83 -84 -93 -94 -102 -103 -109 -111 0
-33 -46 -48 -72 -73 -83 -84 -93 -94 -102 -103 -109 -111 0
-33 -47 -48 -72 -74 -83 -84 -93 -94 -102 -103 -109 -111 0
-33 -47 -48 -73 -74 -83 -85 -93 -94 -102 -103 -109 -111 0
-33 -47 -48 -73 -74 -84 -85 -93 -95 -102 -103 -109 -111 0
-33 -47 -48 -73 -74 -84 -85 -94 -95 -102 -104 -109 -111 0
-33 -47 -48 -73 -74 -84 -85 -94 -95 -103 -104 -109 -112 0
-32 -46 -47 -72 -73 -83 -84 -93 -94 -102 -103 -110 -111 0
-33 -46 -48 -72 -73 -83 -84 -93 -94 -102 -103 -110 -111 0
-33 -47 -48 -72 -74 -83 -84 -93 -94 -102 -103 -110 -111 0
-33 -47 -48 -73 -74 -83 -85 -93 -94 -102 -103 -110 -111 0
-33 -47 -48 -73 -74 -84 -85 -93 -95 -102 -103 -110 -111 0
-33 -47 -48 -73 -74 -84 -85 -94 -95 -102 -104 -110 -111 0
-33 -47 -48 -73 -74 -84 -85 -94 -95 -103 -104 -110 -112 0
-33 -47 -48 -73 -74 -84 -85 -94 -95 -103 -104 -111 -112 0
-32 -46 -47 -72 -73 -83 -84 -93 -94 -102 -103 -118 -119 0
-33 -46 -48 -72 -73 -83 -84 -93 -94 -102 -103 -118 -119 0
-33 -47 -48 -72 -74 -83 -84 -93 -94 -102 -103 -118 -119 0
-33 -47 -48 -73 -74 -83 -85 -93 -94 -102 -103 -118 -119 0
-33 -47 -48 -73 -74 -84 -85 -93 -95 -102 -103 -118 -119 0
-33 -47 -48 -73 -74 -84 -85 -94 -95 -102 -104 -118 -119 0
-33 -47 -48 -73 -74 -84 -85 -94 -95 -103 -104 -118 -120 0
-33 -47 -48 -73 -74 -84 -85 -94 -95 -103 -104 -119 -120 0
-33 -47 -48 -73 -74 -84 -85 -94 -95 -103 -104 -126 -127 0
-32 -46 -47 -72 -73 -83 -84 -93 -94 -111 -112 -118 -119 0
-33 -46 -48 -72 -73 -83 -84 -93 -94 -111 -112 -118 -119 0
-33 -47 -48 -72 -74 -83 -84 -93 -94 -111 -112 -118 -119 0
-33 -47 -48 -73 -74 -83 -85 -93 -94 -111 -112 -118 -119 0
-33 -47 -48 -73 -74 -84 -85 -93 -95 -111 -112 -118 -119 0
-33 -47 -48 -73 -74 -84 -85 -94 -95 -111 -113 -118 -119 0
-33 -47 -48 -73 -74 -84 -85 -94 -95 -112 -113 -118 -120 0
-33 -47 -48 -73 -74 -84 -85 -94 -95 -112 -113 -119 -120 0
-33 -47 -48 -73 -74 -84 -85 -94 -95 -112 -113 -126 -127 0
-33 -47 -48 -73 -74 -84 -85 -94 -95 -120 -121 -126 -127 0
-32 -46 -47 -72 -73 -83 -84 -103 -104 -111 -112 -118 -119 0
-33 -46 -48 -72 -73 -83 -84 -103 -104 -111 -112 -118 -119 0
-33 -47 -48 -72 -74 -83 -84 -103 -104 -111 -112 -118 -119 0
-33 -47 -48 -73 -74 -83 -85 -103 -104 -111 -112 -118 -119 0
-33 -47 -48 -73 -74 -84 -85 -103 -105 -111 -112 -118 -119 0
-33 -47 -48 -73 -74 -84 -85 -104 -105 -111 -113 -118 -119 0
-33 -47 -48 -73 -74 -84 -85 -104 -105 -112 -113 -118 -120 0
-33 -47 -48 -73 -74 -84 -85 -104 -105 -112 -113 -119 -120 0
-33 -47 -48 -73 -74 -84 -85 -104 -105 -112 -113 -126 -127 0
-33 -47 -48 -73 -74 -84 -85 -104 -105 -120 -121 -126 -127 0
-33 -47 -48 -73 -74 -84 -85 -113 -114 -120 -121 -126 -127 0
-32 -46 -47 -72 -73 -94 -95 -103 -104 -111 -112 -118 -119 0
-33 -46 -48 -72 -73 -94 -95 -103 -104 -111 -112 -118 -119 0
-33 -47 -48 -72 -74 -94 -95 -103 -104 -111 -112 -118 -119 0
-33 -47 -48 -73 -74 -94 -96 -103 -104 -111 -112 -118 -119 0
-33 -47 -48 -73 -74 -95 -96 -103 -105 -111 -112 -118 -119 0
-33 -47 -48 -73 -74 -95 -96 -104 -105 -111 -113 -118 -119 0
-33 -47 -48 -73 -74 -95 -96 -104 -105 -112 -113 -118 -120 0
-33 -47 -48 -73 -74 -95 -96 -104 -105 -112 -113 -119 -120 0
-33 -47 -48 -73 -74 -95 -96 -104 -105 -112 -113 -126 -127 0
-33 -47 -48 -73 -74 -95 -96 -104 -105 -120 -121 -126 -127 0
-33 -47 -48 -73 -74 -95 -96 -113 -114 -120 -121 -126 -127 0
-33 -47 -48 -73 -74 -105 -106 -113 -114 -120 -121 -126 -127 0
-32 -46 -47 -84 -85 -94 -95 -103 -104 -111 -112 -118 -119 0
-33 -46 -48 -84 -85 -94 -95 -103 -104 -111 -112 -118 -119 0
-33 -47 -48 -84 -86 -94 -95 -103 -104 -111 -112 -118 -119 0
-33 -47 -48 -85 -86 -94 -96 -103 -104 -111 -112 -118 -119 0
-33 -47 -48 -85 -86 -95 -96 -103 -105 -111 -112 -118 -119 0
-33 -47 -48 -85 -86 -95 -96 -104 -105 -111 -113 -118 -119 0
-33 -47 -48 -85 -86 -95 -96 -104 -105 -112 -113 -118 -120 0
-33 -47 -48 -85 -86 -95 -96 -104 -105 -112 -113 -119 -120 0
-33 -47 -48 -85 -86 -95 -96 -104 -105 -112 -113 -126 -127 0
-33 -47 -48 -85 -86 -95 -96 -104 -105 -120 -121 -126 -127 0
-33 -47 -48 -85 -86 -95 -96 -113 -114 -120 -121 -126 -127 0
-33 -47 -48 -85 -86 -105 -106 -113 -114 -120 -121 -126 -127 0
-33 -47 -48 -96 -97 -105 -106 -113 -114 -120 -121 -126 -127 0
-31 -59 -60 -71 -72 -82 -83 -92 -93 -101 -102 -109 -110 0
-32 -59 -61 -71 -72 -82 -83 -92 -93 -101 -102 -109 -110 0
-33 -59 -62 -71 -72 -82 -83 -92 -93 -101 -102 -109 -110 0
-32 -60 -61 -71 -73 -82 -83 -92 -93 -101 -102 -109 -110 0
-33 -60 -62 -71 -73 -82 -83 -92 -93 -101 -102 -109 -110 0
-33 -61 -62 -71 -74 -82 -83 -92 -93 -101 -102 -109 -110 0
-32 -60 -61 -72 -73 -82 -84 -92 -93 -101 -102 -109 -110 0
-33 -60 -62 -72 -73 -82 -84 -92 -93 -101 -102 -109 -110 0
-33 -61 -62 -72 -74 -82 -84 -92 -93 -101 -102 -109 -110 0
-33 -61 -62 -73 -74 -82 -85 -92 -93 -101 -102 -109 -110 0
-32 -60 -61 -72 -73 -83 -84 -92 -94 -101 -102 -109 -110 0
-33 -60 -62 -72 -73 -83 -84 -92 -94 -101 -102 -109 -110 0
-33 -61 -62 -72 -74 -83 -84 -92 -94 -101 -102 -109 -110 0
-33 -61 -62 -73 -74 -83 -85 -92 -94 -101 -102 -109 -110 0
-33 -61 -62 -73 -74 -84 -85 -92 -95 -101 -102 -109 -110 0
-32 -60 -61 -72 -73 -83 -84 -93 -94 -101 -103 -109 -110 0
-33 -60 -62 -72 -73 -83 -84 -93 -94 -101 -103 -109 -110 0
-33 -61 -62 -72 -74 -83 -84 -93 -94 -101 -103 -109 -110 0
-33 -61 -62 -73 -74 -83 -85 -93 -94 -101 -103 -109 -110 0
-33 -61 -62 -73 -74 -84 -85 -93 -95 -101 -103 -109 -110 0
-33 -61 -62 -73 -74 -84 -85 -94 -95 -101 -104 -109 -110 0
-32 -60 -61 -72 -73 -83 -84 -93 -94 -102 -103 -109 -111 0
-33 -60 -62 -72 -73 -83 -84 -93 -94 -102 -103 -109 -111 0
-33 -61 -62 -72 -74 -83 -84 -93 -94 -102 -103 -109 -111 0
-33 -61 -62 -73 -74 -83 -85 -93 -94 -102 -103 -109 -111 0
-33 -61 -62 -73 -74 -84 -85 -93 -95 -102 -103 -109 -111 0
-33 -61 -62 -73 -74 -84 -85 -94 -95 -102 -104 -109 -111 0
-33 -61 -62 -73 -74 -84 -85 -94 -95 -103 -104 -109 -112 0
-32 -60 -61 -72 -73 -83 -84 -93 -94 -102 -103 -110 -111 0
-33 -60 -62 -72 -73 -83 -84 -93 -94 -102 -103 -110 -111 0
-33 -61 -62 -72 -74 -83 -84 -93 -94 -102 -103 -110 -111 0
-33 -61 -62 -73 -74 -83 -85 -93 -94 -102 -103 -110 -111 0
-33 -61 -62 -73 -74 -84 -85 -93 -95 -102 -103 -110 -111 0
-33 -61 -62 -73 -74 -84 -85 -94 -95 -102 -104 -110 -111 0
-33 -61 -62 -73 -74 -84 -85 -94 -95 -103 -104 -110 -112 0
-33 -61 -62 -73 -74 -84 -85 -94 -95 -103 -104 -111 -112 0
-32 -60 -61 -72 -73 -83 -84 -93 -94 -102 -103 -118 -119 0
-33 -60 -62 -72 -73 -83 -84 -93 -94 -102 -103 -118 -119 0
-33 -61 -62 -72 -74 -83 -84 -93 -94 -102 -103 -118 -119 0
-33 -61 -62 -73 -74 -83 -85 -93 -94 -102 -103 -118 -119 0
-33 -61 -62 -73 -74 -84 -85 -93 -95 -102 -103 -118 -119 0
-33 -61 -62 -73 -74 -84 -85 -94 -95 -102 -104 -118 -119 0
-33 -61 -62 -73 -74 -84 -85 -94 -95 -103 -104 -118 -120 0
-33 -61 -62 -73 -74 -84 -85 -94 -95 -103 -104 -119 -120 0
-33 -61 -62 -73 -74 -84 -85 -94 -95 -103 -104 -126 -127 0
-32 -60 -61 -72 -73 -83 -84 -93 -94 -111 -112 -118 -119 0
-33 -60 -62 -72 -73 -83 -84 -93 -94 -111 -112 -118 -119 0
-33 -61 -62 -72 -74 -83 -84 -93 -94 -111 -112 -118 -119 0
-33 -61 -62 -73 -74 -83 -85 -93 -94 -111 -112 -118 -119 0
-33 -61 -62 -73 -74 -84 -85 -93 -95 -111 -112 -118 -119 0
-33 -61 -62 -73 -74 -84 -85 -94 -95 -111 -113 -118 -119 0
-33 -61 -62 -73 -74 -84 -85 -94 -95 -112 -113 -118 -120 0
-33 -61 -62 -73 -74 -84 -85 -94 -95 -112 -113 -119 -120 0
-33 -61 -62 -73 -74 -84 -85 -94 -95 -112 -113 -126 -127 0
-33 -61 -62 -73 -74 -84 -85 -94 -95 -120 -121 -126 -127 0
-32 -60 -61 -72 -73 -83 -84 -103 -104 -111 -112 -118 -119 0
-33 -60 -62 -72 -73 -83 -84 -103 -104 -111 -112 -118 -119 0
-33 -61 -62 -72 -74 -83 -84 -103 -104 -111 -112 -118 -119 0
-33 -61 -62 -73 -74 -83 -85 -103 -104 -111 -112 -118 -119 0
-33 -61 -62 -73 -74 -84 -85 -103 -105 -111 -112 -118 -119 0
-33 -61 -62 -73 -74 -84 -85 -104 -105 -111 -113 -118 -119 0
-33 -61 -62 -73 -74 -84 -85 -104 -105 -112 -113 -118 -120 0
-33 -61 -62 -73 -74 -84 -85 -104 -105 -112 -113 -119 -120 0
-33 -61 -62 -73 -74 -84 -85 -104 -105 -112 -113 -126 -127 0
-33 -61 -62 -73 -74 -84 -85 -104 -105 -120 -121 -126 -127 0
-33 -61 -62 -73 -74 -84 -85 -113 -114 -120 -121 -126 -127 0
-32 -60 -61 -72 -73 -94 -95 -103 -104 -111 -112 -118 -119 0
-33 -60 -62 -72 -73 -94 -95 -103 -104 -111 -112 -118 -119 0
-33 -61 -62 -72 -74 -94 -95 -103 -104 -111 -112 -118 -119 0
-33 -61 -62 -73 -74 -94 -96 -103 -104 -111 -112 -118 -119 0
-33 -61 -62 -73 -74 -95 -96 -103 -105 -111 -112 -118 -119 0
-33 -61 -62 -73 -74 -95 -96 -104 -105 -111 -113 -118 -119 0
-33 -61 -62 -73 -74 -95 -96 -104 -105 -112 -113 -118 -120 0
-33 -61 -62 -73 -74 -95 -96 -104 -105 -112 -113 -119 -120 0
-33 -61 -62 -73 -74 -95 -96 -104 -105 -112 -113 -126 -127 0
-33 -61 -62 -73 -74 -95 -96 -104 -105 -120 -121 -126 -127 0
-33 -61 -62 -73 -74 -95 -96 -113 -114 -120 -121 -126 -127 0
-33 -61 -62 -73 -74 -105 -106 -113 -114 -120 -121 -126 -127 0
-32 -60 -61 -84 -85 -94 -95 -103 -104 -111 -112 -118 -119 0
-33 -60 -62 -84 -85 -94 -95 -103 -104 -111 -112 -118 -119 0
-33 -61 -62 -84 -86 -94 -95 -103 -104 -111 -112 -118 -119 0
-33 -61 -62 -85 -86 -94 -96 -103 -104 -111 -112 -118 -119 0
-33 -61 -62 -85 -86 -95 -96 -103 -105 -111 -112 -118 -119 0
-33 -61 -62 -85 -86 -95 -96 -104 -105 -111 -113 -118 -119 0
-33 -61 -62 -85 -86 -95 -96 -104 -105 -112 -113 -118 -120 0
-33 -61 -62 -85 -86 -95 -96 -104 -105 -112 -113 -119 -120 0
-33 -61 -62 -85 -86 -95 -96 -104 -105 -112 -113 -126 -127 0
-33 -61 -62 -85 -86 -95 -96 -104 -105 -120 -121 -126 -127 0
-33 -61 -62 -85 -86 -95 -96 -113 -114 -120 -121 -126 -127 0
-33 -61 -62 -85 -86 -105 -106 -113 -114 -120 -121 -126 -127 0
-33 -61 -62 -96 -97 -105 -106 -113 -114 -120 -121 -126 -127 0
-32 -73 -74 -84 -85 -94 -95 -103 -104 -111 -112 -118 -119 0
-33 -73 -75 -84 -85 -94 -95 -103 -104 -111 -112 -118 -119 0
-33 -74 -75 -84 -86 -94 -95 -103 -104 -111 -112 -118 -119 0
-33 -74 -75 -85 -86 -94 -96 -103 -104 -111 -112 -118 -119 0
-33 -74 -75 -85 -86 -95 -96 -103 -105 -111 -112 -118 -119 0
-33 -74 -75 -85 -86 -95 -96 -104 -105 -111 -113 -118 -119 0
-33 -74 -75 -85 -86 -95 -96 -104 -105 -112 -113 -118 -120 0
-33 -74 -75 -85 -86 -95 -96 -104 -105 -112 -113 -119 -120 0
-33 -74 -75 -85 -86 -95 -96 -104 -105 -112 -113 -126 -127 0
-33 -74 -75 -85 -86 -95 -96 -104 -105 -120 -121 -126 -127 0
-33 -74 -75 -85 -86 -95 -96 -113 -114 -120 -121 -126 -127 0
-33 -74 -75 -85 -86 -105 -106 -113 -114 -120 -121 -126 -127 0
-33 -74 -75 -96 -97 -105 -106 -113 -114 -120 -121 -126 -127 0
-33 -86 -87 -96 -97 -105 -106 -113 -114 -120 -121 -126 -127 0
-46 -59 -60 -71 -72 -82 -83 -92 -93 -101 -102 -109 -110 0
-47 -59 -61 -71 -72 -82 -83 -92 -93 -101 -102 -109 -110 0
-48 -59 -62 -71 -72 -82 -83 -92 -93 -101 -102 -109 -110 0
-47 -60 -61 -71 -73 -82 -83 -92 -93 -101 -102 -109 -110 0
-48 -60 -62 -71 -73 -82 -83 -92 -93 -101 -102 -109 -110 0
-48 -61 -62 -71 -74 -82 -83 -92 -93 -101 -102 -109 -110 0
-47 -60 -61 -72 -73 -82 -84 -92 -93 -101 -102 -109 -110 0
-48 -60 -62 -72 -73 -82 -84 -92 -93 -101 -102 -109 -110 0
-48 -61 -62 -72 -74 -82 -84 -92 -93 -101 -102 -109 -110 0
-48 -61 -62 -73 -74 -82 -85 -92 -93 -101 -102 -109 -110 0
-47 -60 -61 -72 -73 -83 -84 -92 -94 -101 -102 -109 -110 0
-48 -60 -62 -72 -73 -83 -84 -92 -94 -101 -102 -109 -110 0
-48 -61 -62 -72 -74 -83 -84 -92 -94 -101 -102 -109 -110 0
-48 -61 -62 -73 -74 -83 -85 -92 -94 -101 -102 -109 -110 0
-48 -61 -62 -73 -74 -84 -85 -92 -95 -101 -102 -109 -110 0
-47 -60 -61 -72 -73 -83 -84 -93 -94 -101 -103 -109 -110 0
-48 -60 -62 -72 -73 -83 -84 -93 -94 -101 -103 -109 -110 0
-48 -61 -62 -72 -74 -83 -84 -93 -94 -101 -103 -109 -110 0
-48 -61 -62 -73 -74 -83 -85 -93 -94 -101 -103 -109 -110 0
-48 -61 -62 -73 -74 -84 -85 -93 -95 -101 -103 -109 -110 0
-48 -61 -62 -73 -74 -84 -85 -94 -95 -101 -104 -109 -110 0
-47 -60 -61 -72 -73 -83 -84 -93 -94 -102 -103 -109 -111 0
-48 -60 -62 -72 -73 -83 -84 -93 -94 -102 -103 -109 -111 0
-48 -61 -62 -72 -74 -83 -84 -93 -94 -102 -103 -109 -111 0
-48 -61 -62 -73 -74 -83 -85 -93 -94 -102 -103 -109 -111 0
-48 -61 -62 -73 -74 -84 -85 -93 -95 -102 -103 -109 -111 0
-48 -61 -62 -73 -74 -84 -85 -94 -95 -102 -104 -109 -111 0
-48 -61 -62 -73 -74 -84 -85 -94 -95 -103 -104 -109 -112 0
-47 -60 -61 -72 -73 -83 -84 -93 -94 -102 -103 -110 -111 0
-48 -60 -62 -72 -73 -83 -84 -93 -94 -102 -103 -110 -111 0
-48 -61 -62 -72 -74 -83 -84 -93 -94 -102 -103 -110 -111 0
-48 -61 -62 -73 -74 -83 -85 -93 -94 -102 -103 -110 -111 0
-48 -61 -62 -73 -74 -84 -85 -93 -95 -102 -103 -110 -111 0
-48 -61 -62 -73 -74 -84 -85 -94 -95 -102 -104 -110 -111 0
-48 -61 -62 -73 -74 -84 -85 -94 -95 -103 -104 -110 -112 0
-48 -61 -62 -73 -74 -84 -85 -94 -95 -103 -104 -111 -112 0
-47 -60 -61 -72 -73 -83 -84 -93 -94 -102 -103 -118 -119 0
-48 -60 -62 -72 -73 -83 -84 -93 -94 -102 -103 -118 -119 0
-48 -61 -62 -72 -74 -83 -84 -93 -94 -102 -103 -118 -119 0
-48 -61 -62 -73 -74 -83 -85 -93 -94 -102 -103 -118 -119 0
-48 -61 -62 -73 -74 -84 -85 -93 -95 -102 -103 -118 -119 0
-48 -61 -62 -73 -74 -84 -85 -94 -95 -102 -104 -118 -119 0
-48 -61 -62 -73 -74 -84 -85 -94 -95 -103 -104 -118 -120 0
-48 -61 -62 -73 -74 -84 -85 -94 -95 -103 -104 -119 -120 0
-48 -61 -62 -73 -74 -84 -85 -94 -95 -103 -104 -126 -127 0
-47 -60 -61 -72 -73 -83 -84 -93 -94 -111 -112 -118 -119 0
-48 -60 -62 -72 -73 -83 -84 -93 -94 -111 -112 -118 -119 0
-48 -61 -62 -72 -74 -83 -84 -93 -94 -111 -112 -118 -119 0
-48 -61 -62 -73 -74 -83 -85 -93 -94 -111 -112 -118 -119 0
-48 -61 -62 -73 -74 -84 -85 -93 -95 -111 -112 -118 -119 0
-48 -61 -62 -73 -74 -84 -85 -94 -95 -111 -113 -118 -119 0
-48 -61 -62 -73 -74 -84 -85 -94 -95 -112 -113 -118 -120 0
-48 -61 -62 -73 -74 -84 -85 -94 -95 -112 -113 -119 -120 0
-48 -61 -62 -73 -74 -84 -85 -94 -95 -112 -113 -126 -127 0
-48 -61 -62 -73 -74 -84 -85 -94 -95 -120 -121 -126 -127 0
-47 -60 -61 -72 -73 -83 -84 -103 -104 -111 -112 -118 -119 0
-48 -60 -62 -72 -73 -83 -84 -103 -104 -111 -112 -118 -119 0
-48 -61 -62 -72 -74 -83 -84 -103 -104 -111 -112 -118 -119 0
-48 -61 -62 -73 -74 -83 -85 -103 -104 -111 -112 -118 -119 0
-48 -61 -62 -73 -74 -84 -85 -103 -105 -111 -112 -118 -119 0
-48 -61 -62 -73 -74 -84 -85 -104 -105 -111 -113 -118 -119 0
-48 -61 -62 -73 -74 -84 -85 -104 -105 -112 -113 -118 -120 0
-48 -61 -62 -73 -74 -84 -85 -104 -105 -112 -113 -119 -120 0
-48 -61 -62 -73 -74 -84 -85 -104 -105 -112 -113 -126 -127 0
-48 -61 -62 -73 -74 -84 -85 -104 -105 -120 -121 -126 -127 0
-48 -61 -62 -73 -74 -84 -85 -113 -114 -120 -121 -126 -127 0
-47 -60 -61 -72 -73 -94 -95 -103 -104 -111 -112 -118 -119 0
-48 -60 -62 -72 -73 -94 -95 -103 -104 -111 -112 -118 -119 0
-48 -61 -62 -72 -74 -94 -95 -103 -104 -111 -112 -118 -119 0
-48 -61 -62 -73 -74 -94 -96 -103 -104 -111 -112 -118 -119 0
-48 -61 -62 -73 -74 -95 -96 -103 -105 -111 -112 -118 -119 0
-48 -61 -62 -73 -74 -95 -96 -104 -105 -111 -113 -118 -119 0
-48 -61 -62 -73 -74 -95 -96 -104 -105 -112 -113 -118 -120 0
-48 -61 -62 -73 -74 -95 -96 -104 -105 -112 -113 -119 -120 0
-48 -61 -62 -73 -74 -95 -96 -104 -105 -112 -113 -126 -127 0
-48 -61 -62 -73 -74 -95 -96 -104 -105 -120 -121 -126 -127 0
-48 -61 -62 -73 -74 -95 -96 -113 -114 -120 -121 -126 -127 0
-48 -61 -62 -73 -74 -105 -106 -113 -114 -120 -121 -126 -127 0
-47 -60 -61 -84 -85 -94 -95 -103 -104 -111 -112 -118 -119 0
-48 -60 -62 -84 -85 -94 -95 -103 -104 -111 -112 -118 -119 0
-48 -61 -62 -84 -86 -94 -95 -103 -104 -111 -112 -118 -119 0
-48 -61 -62 -85 -86 -94 -96 -103 -104 -111 -112 -118 -119 0
-48 -61 -62 -85 -86 -95 -96 -103 -105 -111 -112 -118 -119 0
-48 -61 -62 -85 -86 -95 -96 -104 -105 -111 -113 -118 -119 0
-48 -61 -62 -85 -86 -95 -96 -104 -105 -112 -113 -118 -120 0
-48 -61 -62 -85 -86 -95 -96 -104 -105 -112 -113 -119 -120 0
-48 -61 -62 -85 -86 -95 -96 -104 -105 -112 -113 -126 -127 0
-48 -61 -62 -85 -86 -95 -96 -104 -105 -120 -121 -126 -127 0
-48 -61 -62 -85 -86 -95 -96 -113 -114 -120 -121 -126 -127 0
-48 -61 -62 -85 -86 -105 -106 -113 -114 -120 -121 -126 -127 0
-48 -61 -62 -96 -97 -105 -106 -113 -114 -120 -121 -126 -127 0
-47 -73 -74 -84 -85 -94 -95 -103 -104 -111 -112 -118 -119 0
-48 -73 -75 -84 -85 -94 -95 -103 -104 -111 -112 -118 -119 0
-48 -74 -75 -84 -86 -94 -95 -103 -104 -111 -112 -118 -119 0
-48 -74 -75 -85 -86 -94 -96 -103 -104 -111 -112 -118 -119 0
-48 -74 -75 -85 -86 -95 -96 -103 -105 -111 -112 -118 -119 0
-48 -74 -75 -85 -86 -95 -96 -104 -105 -111 -113 -118 -119 0
-48 -74 -75 -85 -86 -95 -96 -104 -105 -112 -113 -118 -120 0
-48 -74 -75 -85 -86 -95 -96 -104 -105 -112 -113 -119 -120 0
-48 -74 -75 -85 -86 -95 -96 -104 -105 -112 -113 -126 -127 0
-48 -74 -75 -85 -86 -95 -96 -104 -105 -120 -121 -126 -127 0
-48 -74 -75 -85 -86 -95 -96 -113 -114 -120 -121 -126 -127 0
-48 -74 -75 -85 -86 -105 -106 -113 -114 -120 -121 -126 -127 0
-48 -74 -75 -96 -97 -105 -106 -113 -114 -120 -121 -126 -127 0
-48 -86 -87 -96 -97 -105 -106 -113 -114 -120 -121 -126 -127 0
-61 -73 -74 -84 -85 -94 -95 -103 -104 -111 -112 -118 -119 0
-62 -73 -75 -84 -85 -94 -95 -103 -104 -111 -112 -118 -119 0
-62 -74 -75 -84 -86 -94 -95 -103 -104 -111 -112 -118 -119 0
-62 -74 -75 -85 -86 -94 -96 -103 -104 -111 -112 -118 -119 0
-62 -74 -75 -85 -86 -95 -96 -103 -105 -111 -112 -118 -119 0
-62 -74 -75 -85 -86 -95 -96 -104 -105 -111 -113 -118 -119 0
-62 -74 -75 -85 -86 -95 -96 -104 -105 -112 -113 -118 -120 0
-62 -74 -75 -85 -86 -95 -96 -104 -105 -112 -113 -119 -120 0
-62 -74 -75 -85 -86 -95 -96 -104 -105 -112 -113 -126 -127 0
-62 -74 -75 -85 -86 -95 -96 -104 -105 -120 -121 -126 -127 0
-62 -74 -75 -85 -86 -95 -96 -113 -114 -120 -121 -126 -127 0
-62 -74 -75 -85 -86 -105 -106 -113 -114 -120 -121 -126 -127 0
-62 -74 -75 -96 -97 -105 -106 -113 -114 -120 -121 -126 -127 0
-62 -86 -87 -96 -97 -105 -106 -113 -114 -120 -121 -126 -127 0
-75 -86 -87 -96 -97 -105 -106 -113 -114 -120 -121 -126 -127 0
