c Ordered Ramsey CNF instance
c n = 15, N = 19
c Positive literal = blue edge
c Negative literal = red edge
p cnf 171 4845
1 2 0
1 3 0
1 4 0
1 5 0
1 6 0
1 7 0
1 8 0
1 9 0
1 10 0
1 11 0
1 12 0
1 13 0
1 14 0
1 15 0
1 16 0
1 17 0
1 18 0
2 3 0
2 4 0
2 5 0
2 6 0
2 7 0
2 8 0
2 9 0
2 10 0
2 11 0
2 12 0
2 13 0
2 14 0
2 15 0
2 16 0
2 17 0
2 18 0
3 4 0
3 5 0
3 6 0
3 7 0
3 8 0
3 9 0
3 10 0
3 11 0
3 12 0
3 13 0
3 14 0
3 15 0
3 16 0
3 17 0
3 18 0
4 5 0
4 6 0
4 7 0
4 8 0
4 9 0
4 10 0
4 11 0
4 12 0
4 13 0
4 14 0
4 15 0
4 16 0
4 17 0
4 18 0
5 6 0
5 7 0
5 8 0
5 9 0
5 10 0
5 11 0
5 12 0
5 13 0
5 14 0
5 15 0
5 16 0
5 17 0
5 18 0
6 7 0
6 8 0
6 9 0
6 10 0
6 11 0
6 12 0
6 13 0
6 14 0
6 15 0
6 16 0
6 17 0
6 18 0
7 8 0
7 9 0
7 10 0
7 11 0
7 12 0
7 13 0
7 14 0
7 15 0
7 16 0
7 17 0
7 18 0
8 9 0
8 10 0
8 11 0
8 12 0
8 13 0
8 14 0
8 15 0
8 16 0
8 17 0
8 18 0
9 10 0
9 11 0
9 12 0
9 13 0
9 14 0
9 15 0
9 16 0
9 17 0
9 18 0
10 11 0
10 12 0
10 13 0
10 14 0
10 15 0
10 16 0
10 17 0
10 18 0
11 12 0
11 13 0
11 14 0
11 15 0
11 16 0
11 17 0
11 18 0
12 13 0
12 14 0
12 15 0
12 16 0
12 17 0
12 18 0
13 14 0
13 15 0
13 16 0
13 17 0
13 18 0
14 15 0
14 16 0
14 17 0
14 18 0
15 16 0
15 17 0
15 18 0
16 17 0
16 18 0
17 18 0
19 20 0
19 21 0
19 22 0
19 23 0
19 24 0
19 25 0
19 26 0
19 27 0
19 28 0
19 29 0
19 30 0
19 31 0
19 32 0
19 33 0
19 34 0
19 35 0
20 21 0
20 22 0
20 23 0
20 24 0
20 25 0
20 26 0
20 27 0
20 28 0
20 29 0
20 30 0
20 31 0
20 32 0
20 33 0
20 34 0
20 35 0
21 22 0
21 23 0
21 24 0
21 25 0
21 26 0
21 27 0
21 28 0
21 29 0
21 30 0
21 31 0
21 32 0
21 33 0
21 34 0
21 35 0
22 23 0
22 24 0
22 25 0
22 26 0
22 27 0
22 28 0
22 29 0
22 30 0
22 31 0
22 32 0
22 33 0
22 34 0
22 35 0
23 24 0
23 25 0
23 26 0
23 27 0
23 28 0
23 29 0
23 30 0
23 31 0
23 32 0
23 33 0
23 34 0
23 35 0
24 25 0
24 26 0
24 27 0
24 28 0
24 29 0
24 30 0
24 31 0
24 32 0
24 33 0
24 34 0
24 35 0
25 26 0
25 27 0
25 28 0
25 29 0
25 30 0
25 31 0
25 32 0
25 33 0
25 34 0
25 35 0
26 27 0
26 28 0
26 29 0
26 30 0
26 31 0
26 32 0
26 33 0
26 34 0
26 35 0
27 28 0
27 29 0
27 30 0
27 31 0
27 32 0
27 33 0
27 34 0
27 35 0
28 29 0
28 30 0
28 31 0
28 32 0
28 33 0
28 34 0
28 35 0
29 30 0
29 31 0
29 32 0
29 33 0
29 34 0
29 35 0
30 31 0
30 32 0
30 33 0
30 34 0
30 35 0
31 32 0
31 33 0
31 34 0
31 35 0
32 33 0
32 34 0
32 35 0
33 34 0
33 35 0
34 35 0
36 37 0
36 38 0
36 39 0
36 40 0
36 41 0
36 42 0
36 43 0
36 44 0
36 45 0
36 46 0
36 47 0
36 48 0
36 49 0
36 50 0
36 51 0
37 38 0
37 39 0
37 40 0
37 41 0
37 42 0
37 43 0
37 44 0
37 45 0
37 46 0
37 47 0
37 48 0
37 49 0
37 50 0
37 51 0
38 39 0
38 40 0
38 41 0
38 42 0
38 43 0
38 44 0
38 45 0
38 46 0
38 47 0
38 48 0
38 49 0
38 50 0
38 51 0
39 40 0
39 41 0
39 42 0
39 43 0
39 44 0
39 45 0
39 46 0
39 47 0
39 48 0
39 49 0
39 50 0
39 51 0
40 41 0
40 42 0
40 43 0
40 44 0
40 45 0
40 46 0
40 47 0
40 48 0
40 49 0
40 50 0
40 51 0
41 42 0
41 43 0
41 44 0
41 45 0
41 46 0
41 47 0
41 48 0
41 49 0
41 50 0
41 51 0
42 43 0
42 44 0
42 45 0
42 46 0
42 47 0
42 48 0
42 49 0
42 50 0
42 51 0
43 44 0
43 45 0
43 46 0
43 47 0
43 48 0
43 49 0
43 50 0
43 51 0
44 45 0
44 46 0
44 47 0
44 48 0
44 49 0
44 50 0
44 51 0
45 46 0
45 47 0
45 48 0
45 49 0
45 50 0
45 51 0
46 47 0
46 48 0
46 49 0
46 50 0
46 51 0
47 48 0
47 49 0
47 50 0
47 51 0
48 49 0
48 50 0
48 51 0
49 50 0
49 51 0
50 51 0
52 53 0
52 54 0
52 55 0
52 56 0
52 57 0
52 58 0
52 59 0
52 60 0
52 61 0
52 62 0
52 63 0
52 64 0
52 65 0
52 66 0
53 54 0
53 55 0
53 56 0
53 57 0
53 58 0
53 59 0
53 60 0
53 61 0
53 62 0
53 63 0
53 64 0
53 65 0
53 66 0
54 55 0
54 56 0
54 57 0
54 58 0
54 59 0
54 60 0
54 61 0
54 62 0
54 63 0
54 64 0
54 65 0
54 66 0
55 56 0
55 57 0
55 58 0
55 59 0
55 60 0
55 61 0
55 62 0
55 63 0
55 64 0
55 65 0
55 66 0
56 57 0
56 58 0
56 59 0
56 60 0
56 61 0
56 62 0
56 63 0
56 64 0
56 65 0
56 66 0
57 58 0
57 59 0
57 60 0
57 61 0
57 62 0
57 63 0
57 64 0
57 65 0
57 66 0
58 59 0
58 60 0
58 61 0
58 62 0
58 63 0
58 64 0
58 65 0
58 66 0
59 60 0
59 61 0
59 62 0
59 63 0
59 64 0
59 65 0
59 66 0
60 61 0
60 62 0
60 63 0
60 64 0
60 65 0
60 66 0
61 62 0
61 63 0
61 64 0
61 65 0
61 66 0
62 63 0
62 64 0
62 65 0
62 66 0
63 64 0
63 65 0
63 66 0
64 65 0
64 66 0
65 66 0
67 68 0
67 69 0
67 70 0
67 71 0
67 72 0
67 73 0
67 74 0
67 75 0
67 76 0
67 77 0
67 78 0
67 79 0
67 80 0
68 69 0
68 70 0
68 71 0
68 72 0
68 73 0
68 74 0
68 75 0
68 76 0
68 77 0
68 78 0
68 79 0
68 80 0
69 70 0
69 71 0
69 72 0
69 73 0
69 74 0
69 75 0
69 76 0
69 77 0
69 78 0
69 79 0
69 80 0
70 71 0
70 72 0
70 73 0
70 74 0
70 75 0
70 76 0
70 77 0
70 78 0
70 79 0
70 80 0
71 72 0
71 73 0
71 74 0
71 75 0
71 76 0
71 77 0
71 78 0
71 79 0
71 80 0
72 73 0
72 74 0
72 75 0
72 76 0
72 77 0
72 78 0
72 79 0
72 80 0
73 74 0
73 75 0
73 76 0
73 77 0
73 78 0
73 79 0
73 80 0
74 75 0
74 76 0
74 77 0
74 78 0
74 79 0
74 80 0
75 76 0
75 77 0
75 78 0
75 79 0
75 80 0
76 77 0
76 78 0
76 79 0
76 80 0
77 78 0
77 79 0
77 80 0
78 79 0
78 80 0
79 80 0
81 82 0
81 83 0
81 84 0
81 85 0
81 86 0
81 87 0
81 88 0
81 89 0
81 90 0
81 91 0
81 92 0
81 93 0
82 83 0
82 84 0
82 85 0
82 86 0
82 87 0
82 88 0
82 89 0
82 90 0
82 91 0
82 92 0
82 93 0
83 84 0
83 85 0
83 86 0
83 87 0
83 88 0
83 89 0
83 90 0
83 91 0
83 92 0
83 93 0
84 85 0
84 86 0
84 87 0
84 88 0
84 89 0
84 90 0
84 91 0
84 92 0
84 93 0
85 86 0
85 87 0
85 88 0
85 89 0
85 90 0
85 91 0
85 92 0
85 93 0
86 87 0
86 88 0
86 89 0
86 90 0
86 91 0
86 92 0
86 93 0
87 88 0
87 89 0
87 90 0
87 91 0
87 92 0
87 93 0
88 89 0
88 90 0
88 91 0
88 92 0
88 93 0
89 90 0
89 91 0
89 92 0
89 93 0
90 91 0
90 92 0
90 93 0
91 92 0
91 93 0
92 93 0
94 95 0
94 96 0
94 97 0
94 98 0
94 99 0
94 100 0
94 101 0
94 102 0
94 103 0
94 104 0
94 105 0
95 96 0
95 97 0
95 98 0
95 99 0
95 100 0
95 101 0
95 102 0
95 103 0
95 104 0
95 105 0
96 97 0
96 98 0
96 99 0
96 100 0
96 101 0
96 102 0
96 103 0
96 104 0
96 105 0
97 98 0
97 99 0
97 100 0
97 101 0
97 102 0
97 103 0
97 104 0
97 105 0
98 99 0
98 100 0
98 101 0
98 102 0
98 103 0
98 104 0
98 105 0
99 100 0
99 101 0
99 102 0
99 103 0
99 104 0
99 105 0
100 101 0
100 102 0
100 103 0
100 104 0
100 105 0
101 102 0
101 103 0
101 104 0
101 105 0
102 103 0
102 104 0
102 105 0
103 104 0
103 105 0
104 105 0
106 107 0
106 108 0
106 109 0
106 110 0
106 111 0
106 112 0
106 113 0
106 114 0
106 115 0
106 116 0
107 108 0
107 109 0
107 110 0
107 111 0
107 112 0
107 113 0
107 114 0
107 115 0
107 116 0
108 109 0
108 110 0
108 111 0
108 112 0
108 113 0
108 114 0
108 115 0
108 116 0
109 110 0
109 111 0
109 112 0
109 113 0
109 114 0
109 115 0
109 116 0
110 111 0
110 112 0
110 113 0
110 114 0
110 115 0
110 116 0
111 112 0
111 113 0
111 114 0
111 115 0
111 116 0
112 113 0
112 114 0
112 115 0
112 116 0
113 114 0
113 115 0
113 116 0
114 115 0
114 116 0
115 116 0
117 118 0
117 119 0
117 120 0
117 121 0
117 122 0
117 123 0
117 124 0
117 125 0
117 126 0
118 119 0
118 120 0
118 121 0
118 122 0
118 123 0
118 124 0
118 125 0
118 126 0
119 120 0
119 121 0
119 122 0
119 123 0
119 124 0
119 125 0
119 126 0
120 121 0
120 122 0
120 123 0
120 124 0
120 125 0
120 126 0
121 122 0
121 123 0
121 124 0
121 125 0
121 126 0
122 123 0
122 124 0
122 125 0
122 126 0
123 124 0
123 125 0
123 126 0
124 125 0
124 126 0
125 126 0
127 128 0
127 129 0
127 130 0
127 131 0
127 132 0
127 133 0
127 134 0
127 135 0
128 129 0
128 130 0
128 131 0
128 132 0
128 133 0
128 134 0
128 135 0
129 130 0
129 131 0
129 132 0
129 133 0
129 134 0
129 135 0
130 131 0
130 132 0
130 133 0
130 134 0
130 135 0
131 132 0
131 133 0
131 134 0
131 135 0
132 133 0
132 134 0
132 135 0
133 134 0
133 135 0
134 135 0
136 137 0
136 138 0
136 139 0
136 140 0
136 141 0
136 142 0
136 143 0
137 138 0
137 139 0
137 140 0
137 141 0
137 142 0
137 143 0
138 139 0
138 140 0
138 141 0
138 142 0
138 143 0
139 140 0
139 141 0
139 142 0
139 143 0
140 141 0
140 142 0
140 143 0
141 142 0
141 143 0
142 143 0
144 145 0
144 146 0
144 147 0
144 148 0
144 149 0
144 150 0
145 146 0
145 147 0
145 148 0
145 149 0
145 150 0
146 147 0
146 148 0
146 149 0
146 150 0
147 148 0
147 149 0
147 150 0
148 149 0
148 150 0
149 150 0
151 152 0
151 153 0
151 154 0
151 155 0
151 156 0
152 153 0
152 154 0
152 155 0
152 156 0
153 154 0
153 155 0
153 156 0
154 155 0
154 156 0
155 156 0
157 158 0
157 159 0
157 160 0
157 161 0
158 159 0
158 160 0
158 161 0
159 160 0
159 161 0
160 161 0
162 163 0
162 164 0
162 165 0
163 164 0
163 165 0
164 165 0
166 167 0
166 168 0
167 168 0
169 170 0
-14 -30 -31 -45 -46 -59 -60 -72 -73 -84 -85 -95 -96 -106 0
-15 -30 -32 -45 -46 -59 -60 -72 -73 -84 -85 -95 -96 -106 0
-16 -30 -33 -45 -46 -59 -60 -72 -73 -84 -85 -95 -96 -106 0
-17 -30 -34 -45 -46 -59 -60 -72 -73 -84 -85 -95 -96 -106 0
-18 -30 -35 -45 -46 -59 -60 -72 -73 -84 -85 -95 -96 -106 0
-15 -31 -32 -45 -47 -59 -60 -72 -73 -84 -85 -95 -96 -106 0
-16 -31 -33 -45 -47 -59 -60 -72 -73 -84 -85 -95 -96 -106 0
-17 -31 -34 -45 -47 -59 -60 -72 -73 -84 -85 -95 -96 -106 0
-18 -31 -35 -45 -47 -59 -60 -72 -73 -84 -85 -95 -96 -106 0
-16 -32 -33 -45 -48 -59 -60 -72 -73 -84 -85 -95 -96 -106 0
-17 -32 -34 -45 -48 -59 -60 -72 -73 -84 -85 -95 -96 -106 0
-18 -32 -35 -45 -48 -59 -60 -72 -73 -84 -85 -95 -96 -106 0
-17 -33 -34 -45 -49 -59 -60 -72 -73 -84 -85 -95 -96 -106 0
-18 -33 -35 -45 -49 -59 -60 -72 -73 -84 -85 -95 -96 -106 0
-18 -34 -35 -45 -50 -59 -60 -72 -73 -84 -85 -95 -96 -106 0
-15 -31 -32 -46 -47 -59 -61 -72 -73 -84 -85 -95 -96 -106 0
-16 -31 -33 -46 -47 -59 -61 -72 -73 -84 -85 -95 -96 -106 0
-17 -31 -34 -46 -47 -59 -61 -72 -73 -84 -85 -95 -96 -106 0
-18 -31 -35 -46 -47 -59 -61 -72 -73 -84 -85 -95 -96 -106 0
-16 -32 -33 -46 -48 -59 -61 -72 -73 -84 -85 -95 -96 -106 0
-17 -32 -34 -46 -48 -59 -61 -72 -73 -84 -85 -95 -96 -106 0
-18 -32 -35 -46 -48 -59 -61 -72 -73 -84 -85 -95 -96 -106 0
-17 -33 -34 -46 -49 -59 -61 -72 -73 -84 -85 -95 -96 -106 0
-18 -33 -35 -46 -49 -59 -61 -72 -73 -84 -85 -95 -96 -106 0
-18 -34 -35 -46 -50 -59 -61 -72 -73 -84 -85 -95 -96 -106 0
-16 -32 -33 -47 -48 -59 -62 -72 -73 -84 -85 -95 -96 -106 0
-17 -32 -34 -47 -48 -59 -62 -72 -73 -84 -85 -95 -96 -106 0
-18 -32 -35 -47 -48 -59 -62 -72 -73 -84 -85 -95 -96 -106 0
-17 -33 -34 -47 -49 -59 -62 -72 -73 -84 -85 -95 -96 -106 0
-18 -33 -35 -47 -49 -59 -62 -72 -73 -84 -85 -95 -96 -106 0
-18 -34 -35 -47 -50 -59 -62 -72 -73 -84 -85 -95 -96 -106 0
-17 -33 -34 -48 -49 -59 -63 -72 -73 -84 -85 -95 -96 -106 0
-18 -33 -35 -48 -49 -59 -63 -72 -73 -84 -85 -95 -96 -106 0
-18 -34 -35 -48 -50 -59 -63 -72 -73 -84 -85 -95 -96 -106 0
-18 -34 -35 -49 -50 -59 -64 -72 -73 -84 -85 -95 -96 -106 0
-15 -31 -32 -46 -47 -60 -61 -72 -74 -84 -85 -95 -96 -106 0
-16 -31 -33 -46 -47 -60 -61 -72 -74 -84 -85 -95 -96 -106 0
-17 -31 -34 -46 -47 -60 -61 -72 -74 -84 -85 -95 -96 -106 0
-18 -31 -35 -46 -47 -60 -61 -72 -74 -84 -85 -95 -96 -106 0
-16 -32 -33 -46 -48 -60 -61 -72 -74 -84 -85 -95 -96 -106 0
-17 -32 -34 -46 -48 -60 -61 -72 -74 -84 -85 -95 -96 -106 0
-18 -32 -35 -46 -48 -60 -61 -72 -74 -84 -85 -95 -96 -106 0
-17 -33 -34 -46 -49 -60 -61 -72 -74 -84 -85 -95 -96 -106 0
-18 -33 -35 -46 -49 -60 -61 -72 -74 -84 -85 -95 -96 -106 0
-18 -34 -35 -46 -50 -60 -61 -72 -74 -84 -85 -95 -96 -106 0
-16 -32 -33 -47 -48 -60 -62 -72 -74 -84 -85 -95 -96 -106 0
-17 -32 -34 -47 -48 -60 -62 -72 -74 -84 -85 -95 -96 -106 0
-18 -32 -35 -47 -48 -60 -62 -72 -74 -84 -85 -95 -96 -106 0
-17 -33 -34 -47 -49 -60 -62 -72 -74 -84 -85 -95 -96 -106 0
-18 -33 -35 -47 -49 -60 -62 -72 -74 -84 -85 -95 -96 -106 0
-18 -34 -35 -47 -50 -60 -62 -72 -74 -84 -85 -95 -96 -106 0
-17 -33 -34 -48 -49 -60 -63 -72 -74 -84 -85 -95 -96 -106 0
-18 -33 -35 -48 -49 -60 -63 -72 -74 -84 -85 -95 -96 -106 0
-18 -34 -35 -48 -50 -60 -63 -72 -74 -84 -85 -95 -96 -106 0
-18 -34 -35 -49 -50 -60 -64 -72 -74 -84 -85 -95 -96 -106 0
-16 -32 -33 -47 -48 -61 -62 -72 -75 -84 -85 -95 -96 -106 0
-17 -32 -34 -47 -48 -61 -62 -72 -75 -84 -85 -95 -96 -106 0
-18 -32 -35 -47 -48 -61 -62 -72 -75 -84 -85 -95 -96 -106 0
-17 -33 -34 -47 -49 -61 -62 -72 -75 -84 -85 -95 -96 -106 0
-18 -33 -35 -47 -49 -61 -62 -72 -75 -84 -85 -95 -96 -106 0
-18 -34 -35 -47 -50 -61 -62 -72 -75 -84 -85 -95 -96 -106 0
-17 -33 -34 -48 -49 -61 -63 -72 -75 -84 -85 -95 -96 -106 0
-18 -33 -35 -48 -49 -61 -63 -72 -75 -84 -85 -95 -96 -106 0
-18 -34 -35 -48 -50 -61 -63 -72 -75 -84 -85 -95 -96 -106 0
-18 -34 -35 -49 -50 -61 -64 -72 -75 -84 -85 -95 -96 -106 0
-17 -33 -34 -48 -49 -62 -63 -72 -76 -84 -85 -95 -96 -106 0
-18 -33 -35 -48 -49 -62 -63 -72 -76 -84 -85 -95 -96 -106 0
-18 -34 -35 -48 -50 -62 -63 -72 -76 -84 -85 -95 -96 -106 0
-18 -34 -35 -49 -50 -62 -64 -72 -76 -84 -85 -95 -96 -106 0
-18 -34 -35 -49 -50 -63 -64 -72 -77 -84 -85 -95 -96 -106 0
-15 -31 -32 -46 -47 -60 -61 -73 -74 -84 -86 -95 -96 -106 0
-16 -31 -33 -46 -47 -60 -61 -73 -74 -84 -86 -95 -96 -106 0
-17 -31 -34 -46 -47 -60 -61 -73 -74 -84 -86 -95 -96 -106 0
-18 -31 -35 -46 -47 -60 -61 -73 -74 -84 -86 -95 -96 -106 0
-16 -32 -33 -46 -48 -60 -61 -73 -74 -84 -86 -95 -96 -106 0
-17 -32 -34 -46 -48 -60 -61 -73 -74 -84 -86 -95 -96 -106 0
-18 -32 -35 -46 -48 -60 -61 -73 -74 -84 -86 -95 -96 -106 0
-17 -33 -34 -46 -49 -60 -61 -73 -74 -84 -86 -95 -96 -106 0
-18 -33 -35 -46 -49 -60 -61 -73 -74 -84 -86 -95 -96 -106 0
-18 -34 -35 -46 -50 -60 -61 -73 -74 -84 -86 -95 -96 -106 0
-16 -32 -33 -47 -48 -60 -62 -73 -74 -84 -86 -95 -96 -106 0
-17 -32 -34 -47 -48 -60 -62 -73 -74 -84 -86 -95 -96 -106 0
-18 -32 -35 -47 -48 -60 -62 -73 -74 -84 -86 -95 -96 -106 0
-17 -33 -34 -47 -49 -60 -62 -73 -74 -84 -86 -95 -96 -106 0
-18 -33 -35 -47 -49 -60 -62 -73 -74 -84 -86 -95 -96 -106 0
-18 -34 -35 -47 -50 -60 -62 -73 -74 -84 -86 -95 -96 -106 0
-17 -33 -34 -48 -49 -60 -63 -73 -74 -84 -86 -95 -96 -106 0
-18 -33 -35 -48 -49 -60 -63 -73 -74 -84 -86 -95 -96 -106 0
-18 -34 -35 -48 -50 -60 -63 -73 -74 -84 -86 -95 -96 -106 0
-18 -34 -35 -49 -50 -60 -64 -73 -74 -84 -86 -95 -96 -106 0
-16 -32 -33 -47 -48 -61 -62 -73 -75 -84 -86 -95 -96 -106 0
-17 -32 -34 -47 -48 -61 -62 -73 -75 -84 -86 -95 -96 -106 0
-18 -32 -35 -47 -48 -61 -62 -73 -75 -84 -86 -95 -96 -106 0
-17 -33 -34 -47 -49 -61 -62 -73 -75 -84 -86 -95 -96 -106 0
-18 -33 -35 -47 -49 -61 -62 -73 -75 -84 -86 -95 -96 -106 0
-18 -34 -35 -47 -50 -61 -62 -73 -75 -84 -86 -95 -96 -106 0
-17 -33 -34 -48 -49 -61 -63 -73 -75 -84 -86 -95 -96 -106 0
-18 -33 -35 -48 -49 -61 -63 -73 -75 -84 -86 -95 -96 -106 0
-18 -34 -35 -48 -50 -61 -63 -73 -75 -84 -86 -95 -96 -106 0
-18 -34 -35 -49 -50 -61 -64 -73 -75 -84 -86 -95 -96 -106 0
-17 -33 -34 -48 -49 -62 -63 -73 -76 -84 -86 -95 -96 -106 0
-18 -33 -35 -48 -49 -62 -63 -73 -76 -84 -86 -95 -96 -106 0
-18 -34 -35 -48 -50 -62 -63 -73 -76 -84 -86 -95 -96 -106 0
-18 -34 -35 -49 -50 -62 -64 -73 -76 -84 -86 -95 -96 -106 0
-18 -34 -35 -49 -50 -63 -64 -73 -77 -84 -86 -95 -96 -106 0
-16 -32 -33 -47 -48 -61 -62 -74 -75 -84 -87 -95 -96 -106 0
-17 -32 -34 -47 -48 -61 -62 -74 -75 -84 -87 -95 -96 -106 0
-18 -32 -35 -47 -48 -61 -62 -74 -75 -84 -87 -95 -96 -106 0
-17 -33 -34 -47 -49 -61 -62 -74 -75 -84 -87 -95 -96 -106 0
-18 -33 -35 -47 -49 -61 -62 -74 -75 -84 -87 -95 -96 -106 0
-18 -34 -35 -47 -50 -61 -62 -74 -75 -84 -87 -95 -96 -106 0
-17 -33 -34 -48 -49 -61 -63 -74 -75 -84 -87 -95 -96 -106 0
-18 -33 -35 -48 -49 -61 -63 -74 -75 -84 -87 -95 -96 -106 0
-18 -34 -35 -48 -50 -61 -63 -74 -75 -84 -87 -95 -96 -106 0
-18 -34 -35 -49 -50 -61 -64 -74 -75 -84 -87 -95 -96 -106 0
-17 -33 -34 -48 -49 -62 -63 -74 -76 -84 -87 -95 -96 -106 0
-18 -33 -35 -48 -49 -62 -63 -74 -76 -84 -87 -95 -96 -106 0
-18 -34 -35 -48 -50 -62 -63 -74 -76 -84 -87 -95 -96 -106 0
-18 -34 -35 -49 -50 -62 -64 -74 -76 -84 -87 -95 -96 -106 0
-18 -34 -35 -49 -50 -63 -64 -74 -77 -84 -87 -95 -96 -106 0
-17 -33 -34 -48 -49 -62 -63 -75 -76 -84 -88 -95 -96 -106 0
-18 -33 -35 -48 -49 -62 -63 -75 -76 -84 -88 -95 -96 -106 0
-18 -34 -35 -48 -50 -62 -63 -75 -76 -84 -88 -95 -96 -106 0
-18 -34 -35 -49 -50 -62 -64 -75 -76 -84 -88 -95 -96 -106 0
-18 -34 -35 -49 -50 -63 -64 -75 -77 -84 -88 -95 -96 -106 0
-18 -34 -35 -49 -50 -63 -64 -76 -77 -84 -89 -95 -96 -106 0
-15 -31 -32 -46 -47 -60 -61 -73 -74 -85 -86 -95 -97 -106 0
-16 -31 -33 -46 -47 -60 -61 -73 -74 -85 -86 -95 -97 -106 0
-17 -31 -34 -46 -47 -60 -61 -73 -74 -85 -86 -95 -97 -106 0
-18 -31 -35 -46 -47 -60 -61 -73 -74 -85 -86 -95 -97 -106 0
-16 -32 -33 -46 -48 -60 -61 -73 -74 -85 -86 -95 -97 -106 0
-17 -32 -34 -46 -48 -60 -61 -73 -74 -85 -86 -95 -97 -106 0
-18 -32 -35 -46 -48 -60 -61 -73 -74 -85 -86 -95 -97 -106 0
-17 -33 -34 -46 -49 -60 -61 -73 -74 -85 -86 -95 -97 -106 0
-18 -33 -35 -46 -49 -60 -61 -73 -74 -85 -86 -95 -97 -106 0
-18 -34 -35 -46 -50 -60 -61 -73 -74 -85 -86 -95 -97 -106 0
-16 -32 -33 -47 -48 -60 -62 -73 -74 -85 -86 -95 -97 -106 0
-17 -32 -34 -47 -48 -60 -62 -73 -74 -85 -86 -95 -97 -106 0
-18 -32 -35 -47 -48 -60 -62 -73 -74 -85 -86 -95 -97 -106 0
-17 -33 -34 -47 -49 -60 -62 -73 -74 -85 -86 -95 -97 -106 0
-18 -33 -35 -47 -49 -60 -62 -73 -74 -85 -86 -95 -97 -106 0
-18 -34 -35 -47 -50 -60 -62 -73 -74 -85 -86 -95 -97 -106 0
-17 -33 -34 -48 -49 -60 -63 -73 -74 -85 -86 -95 -97 -106 0
-18 -33 -35 -48 -49 -60 -63 -73 -74 -85 -86 -95 -97 -106 0
-18 -34 -35 -48 -50 -60 -63 -73 -74 -85 -86 -95 -97 -106 0
-18 -34 -35 -49 -50 -60 -64 -73 -74 -85 -86 -95 -97 -106 0
-16 -32 -33 -47 -48 -61 -62 -73 -75 -85 -86 -95 -97 -106 0
-17 -32 -34 -47 -48 -61 -62 -73 -75 -85 -86 -95 -97 -106 0
-18 -32 -35 -47 -48 -61 -62 -73 -75 -85 -86 -95 -97 -106 0
-17 -33 -34 -47 -49 -61 -62 -73 -75 -85 -86 -95 -97 -106 0
-18 -33 -35 -47 -49 -61 -62 -73 -75 -85 -86 -95 -97 -106 0
-18 -34 -35 -47 -50 -61 -62 -73 -75 -85 -86 -95 -97 -106 0
-17 -33 -34 -48 -49 -61 -63 -73 -75 -85 -86 -95 -97 -106 0
-18 -33 -35 -48 -49 -61 -63 -73 -75 -85 -86 -95 -97 -106 0
-18 -34 -35 -48 -50 -61 -63 -73 -75 -85 -86 -95 -97 -106 0
-18 -34 -35 -49 -50 -61 -64 -73 -75 -85 -86 -95 -97 -106 0
-17 -33 -34 -48 -49 -62 -63 -73 -76 -85 -86 -95 -97 -106 0
-18 -33 -35 -48 -49 -62 -63 -73 -76 -85 -86 -95 -97 -106 0
-18 -34 -35 -48 -50 -62 -63 -73 -76 -85 -86 -95 -97 -106 0
-18 -34 -35 -49 -50 -62 -64 -73 -76 -85 -86 -95 -97 -106 0
-18 -34 -35 -49 -50 -63 -64 -73 -77 -85 -86 -95 -97 -106 0
-16 -32 -33 -47 -48 -61 -62 -74 -75 -85 -87 -95 -97 -106 0
-17 -32 -34 -47 -48 -61 -62 -74 -75 -85 -87 -95 -97 -106 0
-18 -32 -35 -47 -48 -61 -62 -74 -75 -85 -87 -95 -97 -106 0
-17 -33 -34 -47 -49 -61 -62 -74 -75 -85 -87 -95 -97 -106 0
-18 -33 -35 -47 -49 -61 -62 -74 -75 -85 -87 -95 -97 -106 0
-18 -34 -35 -47 -50 -61 -62 -74 -75 -85 -87 -95 -97 -106 0
-17 -33 -34 -48 -49 -61 -63 -74 -75 -85 -87 -95 -97 -106 0
-18 -33 -35 -48 -49 -61 -63 -74 -75 -85 -87 -95 -97 -106 0
-18 -34 -35 -48 -50 -61 -63 -74 -75 -85 -87 -95 -97 -106 0
-18 -34 -35 -49 -50 -61 -64 -74 -75 -85 -87 -95 -97 -106 0
-17 -33 -34 -48 -49 -62 -63 -74 -76 -85 -87 -95 -97 -106 0
-18 -33 -35 -48 -49 -62 -63 -74 -76 -85 -87 -95 -97 -106 0
-18 -34 -35 -48 -50 -62 -63 -74 -76 -85 -87 -95 -97 -106 0
-18 -34 -35 -49 -50 -62 -64 -74 -76 -85 -87 -95 -97 -106 0
-18 -34 -35 -49 -50 -63 -64 -74 -77 -85 -87 -95 -97 -106 0
-17 -33 -34 -48 -49 -62 -63 -75 -76 -85 -88 -95 -97 -106 0
-18 -33 -35 -48 -49 -62 -63 -75 -76 -85 -88 -95 -97 -106 0
-18 -34 -35 -48 -50 -62 -63 -75 -76 -85 -88 -95 -97 -106 0
-18 -34 -35 -49 -50 -62 -64 -75 -76 -85 -88 -95 -97 -106 0
-18 -34 -35 -49 -50 -63 -64 -75 -77 -85 -88 -95 -97 -106 0
-18 -34 -35 -49 -50 -63 -64 -76 -77 -85 -89 -95 -97 -106 0
-16 -32 -33 -47 -48 -61 -62 -74 -75 -86 -87 -95 -98 -106 0
-17 -32 -34 -47 -48 -61 -62 -74 -75 -86 -87 -95 -98 -106 0
-18 -32 -35 -47 -48 -61 -62 -74 -75 -86 -87 -95 -98 -106 0
-17 -33 -34 -47 -49 -61 -62 -74 -75 -86 -87 -95 -98 -106 0
-18 -33 -35 -47 -49 -61 -62 -74 -75 -86 -87 -95 -98 -106 0
-18 -34 -35 -47 -50 -61 -62 -74 -75 -86 -87 -95 -98 -106 0
-17 -33 -34 -48 -49 -61 -63 -74 -75 -86 -87 -95 -98 -106 0
-18 -33 -35 -48 -49 -61 -63 -74 -75 -86 -87 -95 -98 -106 0
-18 -34 -35 -48 -50 -61 -63 -74 -75 -86 -87 -95 -98 -106 0
-18 -34 -35 -49 -50 -61 -64 -74 -75 -86 -87 -95 -98 -106 0
-17 -33 -34 -48 -49 -62 -63 -74 -76 -86 -87 -95 -98 -106 0
-18 -33 -35 -48 -49 -62 -63 -74 -76 -86 -87 -95 -98 -106 0
-18 -34 -35 -48 -50 -62 -63 -74 -76 -86 -87 -95 -98 -106 0
-18 -34 -35 -49 -50 -62 -64 -74 -76 -86 -87 -95 -98 -106 0
-18 -34 -35 -49 -50 -63 -64 -74 -77 -86 -87 -95 -98 -106 0
-17 -33 -34 -48 -49 -62 -63 -75 -76 -86 -88 -95 -98 -106 0
-18 -33 -35 -48 -49 -62 -63 -75 -76 -86 -88 -95 -98 -106 0
-18 -34 -35 -48 -50 -62 -63 -75 -76 -86 -88 -95 -98 -106 0
-18 -34 -35 -49 -50 -62 -64 -75 -76 -86 -88 -95 -98 -106 0
-18 -34 -35 -49 -50 -63 -64 -75 -77 -86 -88 -95 -98 -106 0
-18 -34 -35 -49 -50 -63 -64 -76 -77 -86 -89 -95 -98 -106 0
-17 -33 -34 -48 -49 -62 -63 -75 -76 -87 -88 -95 -99 -106 0
-18 -33 -35 -48 -49 -62 -63 -75 -76 -87 -88 -95 -99 -106 0
-18 -34 -35 -48 -50 -62 -63 -75 -76 -87 -88 -95 -99 -106 0
-18 -34 -35 -49 -50 -62 -64 -75 -76 -87 -88 -95 -99 -106 0
-18 -34 -35 -49 -50 -63 -64 -75 -77 -87 -88 -95 -99 -106 0
-18 -34 -35 -49 -50 -63 -64 -76 -77 -87 -89 -95 -99 -106 0
-18 -34 -35 -49 -50 -63 -64 -76 -77 -88 -89 -95 -100 -106 0
-15 -31 -32 -46 -47 -60 -61 -73 -74 -85 -86 -96 -97 -107 0
-16 -31 -33 -46 -47 -60 -61 -73 -74 -85 -86 -96 -97 -107 0
-17 -31 -34 -46 -47 -60 -61 -73 -74 -85 -86 -96 -97 -107 0
-18 -31 -35 -46 -47 -60 -61 -73 -74 -85 -86 -96 -97 -107 0
-16 -32 -33 -46 -48 -60 -61 -73 -74 -85 -86 -96 -97 -107 0
-17 -32 -34 -46 -48 -60 -61 -73 -74 -85 -86 -96 -97 -107 0
-18 -32 -35 -46 -48 -60 -61 -73 -74 -85 -86 -96 -97 -107 0
-17 -33 -34 -46 -49 -60 -61 -73 -74 -85 -86 -96 -97 -107 0
-18 -33 -35 -46 -49 -60 -61 -73 -74 -85 -86 -96 -97 -107 0
-18 -34 -35 -46 -50 -60 -61 -73 -74 -85 -86 -96 -97 -107 0
-16 -32 -33 -47 -48 -60 -62 -73 -74 -85 -86 -96 -97 -107 0
-17 -32 -34 -47 -48 -60 -62 -73 -74 -85 -86 -96 -97 -107 0
-18 -32 -35 -47 -48 -60 -62 -73 -74 -85 -86 -96 -97 -107 0
-17 -33 -34 -47 -49 -60 -62 -73 -74 -85 -86 -96 -97 -107 0
-18 -33 -35 -47 -49 -60 -62 -73 -74 -85 -86 -96 -97 -107 0
-18 -34 -35 -47 -50 -60 -62 -73 -74 -85 -86 -96 -97 -107 0
-17 -33 -34 -48 -49 -60 -63 -73 -74 -85 -86 -96 -97 -107 0
-18 -33 -35 -48 -49 -60 -63 -73 -74 -85 -86 -96 -97 -107 0
-18 -34 -35 -48 -50 -60 -63 -73 -74 -85 -86 -96 -97 -107 0
-18 -34 -35 -49 -50 -60 -64 -73 -74 -85 -86 -96 -97 -107 0
-16 -32 -33 -47 -48 -61 -62 -73 -75 -85 -86 -96 -97 -107 0
-17 -32 -34 -47 -48 -61 -62 -73 -75 -85 -86 -96 -97 -107 0
-18 -32 -35 -47 -48 -61 -62 -73 -75 -85 -86 -96 -97 -107 0
-17 -33 -34 -47 -49 -61 -62 -73 -75 -85 -86 -96 -97 -107 0
-18 -33 -35 -47 -49 -61 -62 -73 -75 -85 -86 -96 -97 -107 0
-18 -34 -35 -47 -50 -61 -62 -73 -75 -85 -86 -96 -97 -107 0
-17 -33 -34 -48 -49 -61 -63 -73 -75 -85 -86 -96 -97 -107 0
-18 -33 -35 -48 -49 -61 -63 -73 -75 -85 -86 -96 -97 -107 0
-18 -34 -35 -48 -50 -61 -63 -73 -75 -85 -86 -96 -97 -107 0
-18 -34 -35 -49 -50 -61 -64 -73 -75 -85 -86 -96 -97 -107 0
-17 -33 -34 -48 -49 -62 -63 -73 -76 -85 -86 -96 -97 -107 0
-18 -33 -35 -48 -49 -62 -63 -73 -76 -85 -86 -96 -97 -107 0
-18 -34 -35 -48 -50 -62 -63 -73 -76 -85 -86 -96 -97 -107 0
-18 -34 -35 -49 -50 -62 -64 -73 -76 -85 -86 -96 -97 -107 0
-18 -34 -35 -49 -50 -63 -64 -73 -77 -85 -86 -96 -97 -107 0
-16 -32 -33 -47 -48 -61 -62 -74 -75 -85 -87 -96 -97 -107 0
-17 -32 -34 -47 -48 -61 -62 -74 -75 -85 -87 -96 -97 -107 0
-18 -32 -35 -47 -48 -61 -62 -74 -75 -85 -87 -96 -97 -107 0
-17 -33 -34 -47 -49 -61 -62 -74 -75 -85 -87 -96 -97 -107 0
-18 -33 -35 -47 -49 -61 -62 -74 -75 -85 -87 -96 -97 -107 0
-18 -34 -35 -47 -50 -61 -62 -74 -75 -85 -87 -96 -97 -107 0
-17 -33 -34 -48 -49 -61 -63 -74 -75 -85 -87 -96 -97 -107 0
-18 -33 -35 -48 -49 -61 -63 -74 -75 -85 -87 -96 -97 -107 0
-18 -34 -35 -48 -50 -61 -63 -74 -75 -85 -87 -96 -97 -107 0
-18 -34 -35 -49 -50 -61 -64 -74 -75 -85 -87 -96 -97 -107 0
-17 -33 -34 -48 -49 -62 -63 -74 -76 -85 -87 -96 -97 -107 0
-18 -33 -35 -48 -49 -62 -63 -74 -76 -85 -87 -96 -97 -107 0
-18 -34 -35 -48 -50 -62 -63 -74 -76 -85 -87 -96 -97 -107 0
-18 -34 -35 -49 -50 -62 -64 -74 -76 -85 -87 -96 -97 -107 0
-18 -34 -35 -49 -50 -63 -64 -74 -77 -85 -87 -96 -97 -107 0
-17 -33 -34 -48 -49 -62 -63 -75 -76 -85 -88 -96 -97 -107 0
-18 -33 -35 -48 -49 -62 -63 -75 -76 -85 -88 -96 -97 -107 0
-18 -34 -35 -48 -50 -62 -63 -75 -76 -85 -88 -96 -97 -107 0
-18 -34 -35 -49 -50 -62 -64 -75 -76 -85 -88 -96 -97 -107 0
-18 -34 -35 -49 -50 -63 -64 -75 -77 -85 -88 -96 -97 -107 0
-18 -34 -35 -49 -50 -63 -64 -76 -77 -85 -89 -96 -97 -107 0
-16 -32 -33 -47 -48 -61 -62 -74 -75 -86 -87 -96 -98 -107 0
-17 -32 -34 -47 -48 -61 -62 -74 -75 -86 -87 -96 -98 -107 0
-18 -32 -35 -47 -48 -61 -62 -74 -75 -86 -87 -96 -98 -107 0
-17 -33 -34 -47 -49 -61 -62 -74 -75 -86 -87 -96 -98 -107 0
-18 -33 -35 -47 -49 -61 -62 -74 -75 -86 -87 -96 -98 -107 0
-18 -34 -35 -47 -50 -61 -62 -74 -75 -86 -87 -96 -98 -107 0
-17 -33 -34 -48 -49 -61 -63 -74 -75 -86 -87 -96 -98 -107 0
-18 -33 -35 -48 -49 -61 -63 -74 -75 -86 -87 -96 -98 -107 0
-18 -34 -35 -48 -50 -61 -63 -74 -75 -86 -87 -96 -98 -107 0
-18 -34 -35 -49 -50 -61 -64 -74 -75 -86 -87 -96 -98 -107 0
-17 -33 -34 -48 -49 -62 -63 -74 -76 -86 -87 -96 -98 -107 0
-18 -33 -35 -48 -49 -62 -63 -74 -76 -86 -87 -96 -98 -107 0
-18 -34 -35 -48 -50 -62 -63 -74 -76 -86 -87 -96 -98 -107 0
-18 -34 -35 -49 -50 -62 -64 -74 -76 -86 -87 -96 -98 -107 0
-18 -34 -35 -49 -50 -63 -64 -74 -77 -86 -87 -96 -98 -107 0
-17 -33 -34 -48 -49 -62 -63 -75 -76 -86 -88 -96 -98 -107 0
-18 -33 -35 -48 -49 -62 -63 -75 -76 -86 -88 -96 -98 -107 0
-18 -34 -35 -48 -50 -62 -63 -75 -76 -86 -88 -96 -98 -107 0
-18 -34 -35 -49 -50 -62 -64 -75 -76 -86 -88 -96 -98 -107 0
-18 -34 -35 -49 -50 -63 -64 -75 -77 -86 -88 -96 -98 -107 0
-18 -34 -35 -49 -50 -63 -64 -76 -77 -86 -89 -96 -98 -107 0
-17 -33 -34 -48 -49 -62 -63 -75 -76 -87 -88 -96 -99 -107 0
-18 -33 -35 -48 -49 -62 -63 -75 -76 -87 -88 -96 -99 -107 0
-18 -34 -35 -48 -50 -62 -63 -75 -76 -87 -88 -96 -99 -107 0
-18 -34 -35 -49 -50 -62 -64 -75 -76 -87 -88 -96 -99 -107 0
-18 -34 -35 -49 -50 -63 -64 -75 -77 -87 -88 -96 -99 -107 0
-18 -34 -35 -49 -50 -63 -64 -76 -77 -87 -89 -96 -99 -107 0
-18 -34 -35 -49 -50 -63 -64 -76 -77 -88 -89 -96 -100 -107 0
-16 -32 -33 -47 -48 -61 -62 -74 -75 -86 -87 -97 -98 -108 0
-17 -32 -34 -47 -48 -61 -62 -74 -75 -86 -87 -97 -98 -108 0
-18 -32 -35 -47 -48 -61 -62 -74 -75 -86 -87 -97 -98 -108 0
-17 -33 -34 -47 -49 -61 -62 -74 -75 -86 -87 -97 -98 -108 0
-18 -33 -35 -47 -49 -61 -62 -74 -75 -86 -87 -97 -98 -108 0
-18 -34 -35 -47 -50 -61 -62 -74 -75 -86 -87 -97 -98 -108 0
-17 -33 -34 -48 -49 -61 -63 -74 -75 -86 -87 -97 -98 -108 0
-18 -33 -35 -48 -49 -61 -63 -74 -75 -86 -87 -97 -98 -108 0
-18 -34 -35 -48 -50 -61 -63 -74 -75 -86 -87 -97 -98 -108 0
-18 -34 -35 -49 -50 -61 -64 -74 -75 -86 -87 -97 -98 -108 0
-17 -33 -34 -48 -49 -62 -63 -74 -76 -86 -87 -97 -98 -108 0
-18 -33 -35 -48 -49 -62 -63 -74 -76 -86 -87 -97 -98 -108 0
-18 -34 -35 -48 -50 -62 -63 -74 -76 -86 -87 -97 -98 -108 0
-18 -34 -35 -49 -50 -62 -64 -74 -76 -86 -87 -97 -98 -108 0
-18 -34 -35 -49 -50 -63 -64 -74 -77 -86 -87 -97 -98 -108 0
-17 -33 -34 -48 -49 -62 -63 -75 -76 -86 -88 -97 -98 -108 0
-18 -33 -35 -48 -49 -62 -63 -75 -76 -86 -88 -97 -98 -108 0
-18 -34 -35 -48 -50 -62 -63 -75 -76 -86 -88 -97 -98 -108 0
-18 -34 -35 -49 -50 -62 -64 -75 -76 -86 -88 -97 -98 -108 0
-18 -34 -35 -49 -50 -63 -64 -75 -77 -86 -88 -97 -98 -108 0
-18 -34 -35 -49 -50 -63 -64 -76 -77 -86 -89 -97 -98 -108 0
-17 -33 -34 -48 -49 -62 -63 -75 -76 -87 -88 -97 -99 -108 0
-18 -33 -35 -48 -49 -62 -63 -75 -76 -87 -88 -97 -99 -108 0
-18 -34 -35 -48 -50 -62 -63 -75 -76 -87 -88 -97 -99 -108 0
-18 -34 -35 -49 -50 -62 -64 -75 -76 -87 -88 -97 -99 -108 0
-18 -34 -35 -49 -50 -63 -64 -75 -77 -87 -88 -97 -99 -108 0
-18 -34 -35 -49 -50 -63 -64 -76 -77 -87 -89 -97 -99 -108 0
-18 -34 -35 -49 -50 -63 -64 -76 -77 -88 -89 -97 -100 -108 0
-17 -33 -34 -48 -49 -62 -63 -75 -76 -87 -88 -98 -99 -109 0
-18 -33 -35 -48 -49 -62 -63 -75 -76 -87 -88 -98 -99 -109 0
-18 -34 -35 -48 -50 -62 -63 -75 -76 -87 -88 -98 -99 -109 0
-18 -34 -35 -49 -50 -62 -64 -75 -76 -87 -88 -98 -99 -109 0
-18 -34 -35 -49 -50 -63 -64 -75 -77 -87 -88 -98 -99 -109 0
-18 -34 -35 -49 -50 -63 -64 -76 -77 -87 -89 -98 -99 -109 0
-18 -34 -35 -49 -50 -63 -64 -76 -77 -88 -89 -98 -100 -109 0
-18 -34 -35 -49 -50 -63 -64 -76 -77 -88 -89 -99 -100 -110 0
-15 -31 -32 -46 -47 -60 -61 -73 -74 -85 -86 -96 -97 -117 0
-16 -31 -33 -46 -47 -60 -61 -73 -74 -85 -86 -96 -97 -117 0
-17 -31 -34 -46 -47 -60 -61 -73 -74 -85 -86 -96 -97 -117 0
-18 -31 -35 -46 -47 -60 -61 -73 -74 -85 -86 -96 -97 -117 0
-16 -32 -33 -46 -48 -60 -61 -73 -74 -85 -86 -96 -97 -117 0
-17 -32 -34 -46 -48 -60 -61 -73 -74 -85 -86 -96 -97 -117 0
-18 -32 -35 -46 -48 -60 -61 -73 -74 -85 -86 -96 -97 -117 0
-17 -33 -34 -46 -49 -60 -61 -73 -74 -85 -86 -96 -97 -117 0
-18 -33 -35 -46 -49 -60 -61 -73 -74 -85 -86 -96 -97 -117 0
-18 -34 -35 -46 -50 -60 -61 -73 -74 -85 -86 -96 -97 -117 0
-16 -32 -33 -47 -48 -60 -62 -73 -74 -85 -86 -96 -97 -117 0
-17 -32 -34 -47 -48 -60 -62 -73 -74 -85 -86 -96 -97 -117 0
-18 -32 -35 -47 -48 -60 -62 -73 -74 -85 -86 -96 -97 -117 0
-17 -33 -34 -47 -49 -60 -62 -73 -74 -85 -86 -96 -97 -117 0
-18 -33 -35 -47 -49 -60 -62 -73 -74 -85 -86 -96 -97 -117 0
-18 -34 -35 -47 -50 -60 -62 -73 -74 -85 -86 -96 -97 -117 0
-17 -33 -34 -48 -49 -60 -63 -73 -74 -85 -86 -96 -97 -117 0
-18 -33 -35 -48 -49 -60 -63 -73 -74 -85 -86 -96 -97 -117 0
-18 -34 -35 -48 -50 -60 -63 -73 -74 -85 -86 -96 -97 -117 0
-18 -34 -35 -49 -50 -60 -64 -73 -74 -85 -86 -96 -97 -117 0
-16 -32 -33 -47 -48 -61 -62 -73 -75 -85 -86 -96 -97 -117 0
-17 -32 -34 -47 -48 -61 -62 -73 -75 -85 -86 -96 -97 -117 0
-18 -32 -35 -47 -48 -61 -62 -73 -75 -85 -86 -96 -97 -117 0
-17 -33 -34 -47 -49 -61 -62 -73 -75 -85 -86 -96 -97 -117 0
-18 -33 -35 -47 -49 -61 -62 -73 -75 -85 -86 -96 -97 -117 0
-18 -34 -35 -47 -50 -61 -62 -73 -75 -85 -86 -96 -97 -117 0
-17 -33 -34 -48 -49 -61 -63 -73 -75 -85 -86 -96 -97 -117 0
-18 -33 -35 -48 -49 -61 -63 -73 -75 -85 -86 -96 -97 -117 0
-18 -34 -35 -48 -50 -61 -63 -73 -75 -85 -86 -96 -97 -117 0
-18 -34 -35 -49 -50 -61 -64 -73 -75 -85 -86 -96 -97 -117 0
-17 -33 -34 -48 -49 -62 -63 -73 -76 -85 -86 -96 -97 -117 0
-18 -33 -35 -48 -49 -62 -63 -73 -76 -85 -86 -96 -97 -117 0
-18 -34 -35 -48 -50 -62 -63 -73 -76 -85 -86 -96 -97 -117 0
-18 -34 -35 -49 -50 -62 -64 -73 -76 -85 -86 -96 -97 -117 0
-18 -34 -35 -49 -50 -63 -64 -73 -77 -85 -86 -96 -97 -117 0
-16 -32 -33 -47 -48 -61 -62 -74 -75 -85 -87 -96 -97 -117 0
-17 -32 -34 -47 -48 -61 -62 -74 -75 -85 -87 -96 -97 -117 0
-18 -32 -35 -47 -48 -61 -62 -74 -75 -85 -87 -96 -97 -117 0
-17 -33 -34 -47 -49 -61 -62 -74 -75 -85 -87 -96 -97 -117 0
-18 -33 -35 -47 -49 -61 -62 -74 -75 -85 -87 -96 -97 -117 0
-18 -34 -35 -47 -50 -61 -62 -74 -75 -85 -87 -96 -97 -117 0
-17 -33 -34 -48 -49 -61 -63 -74 -75 -85 -87 -96 -97 -117 0
-18 -33 -35 -48 -49 -61 -63 -74 -75 -85 -87 -96 -97 -117 0
-18 -34 -35 -48 -50 -61 -63 -74 -75 -85 -87 -96 -97 -117 0
-18 -34 -35 -49 -50 -61 -64 -74 -75 -85 -87 -96 -97 -117 0
-17 -33 -34 -48 -49 -62 -63 -74 -76 -85 -87 -96 -97 -117 0
-18 -33 -35 -48 -49 -62 -63 -74 -76 -85 -87 -96 -97 -117 0
-18 -34 -35 -48 -50 -62 -63 -74 -76 -85 -87 -96 -97 -117 0
-18 -34 -35 -49 -50 -62 -64 -74 -76 -85 -87 -96 -97 -117 0
-18 -34 -35 -49 -50 -63 -64 -74 -77 -85 -87 -96 -97 -117 0
-17 -33 -34 -48 -49 -62 -63 -75 -76 -85 -88 -96 -97 -117 0
-18 -33 -35 -48 -49 -62 -63 -75 -76 -85 -88 -96 -97 -117 0
-18 -34 -35 -48 -50 -62 -63 -75 -76 -85 -88 -96 -97 -117 0
-18 -34 -35 -49 -50 -62 -64 -75 -76 -85 -88 -96 -97 -117 0
-18 -34 -35 -49 -50 -63 -64 -75 -77 -85 -88 -96 -97 -117 0
-18 -34 -35 -49 -50 -63 -64 -76 -77 -85 -89 -96 -97 -117 0
-16 -32 -33 -47 -48 -61 -62 -74 -75 -86 -87 -96 -98 -117 0
-17 -32 -34 -47 -48 -61 -62 -74 -75 -86 -87 -96 -98 -117 0
-18 -32 -35 -47 -48 -61 -62 -74 -75 -86 -87 -96 -98 -117 0
-17 -33 -34 -47 -49 -61 -62 -74 -75 -86 -87 -96 -98 -117 0
-18 -33 -35 -47 -49 -61 -62 -74 -75 -86 -87 -96 -98 -117 0
-18 -34 -35 -47 -50 -61 -62 -74 -75 -86 -87 -96 -98 -117 0
-17 -33 -34 -48 -49 -61 -63 -74 -75 -86 -87 -96 -98 -117 0
-18 -33 -35 -48 -49 -61 -63 -74 -75 -86 -87 -96 -98 -117 0
-18 -34 -35 -48 -50 -61 -63 -74 -75 -86 -87 -96 -98 -117 0
-18 -34 -35 -49 -50 -61 -64 -74 -75 -86 -87 -96 -98 -117 0
-17 -33 -34 -48 -49 -62 -63 -74 -76 -86 -87 -96 -98 -117 0
-18 -33 -35 -48 -49 -62 -63 -74 -76 -86 -87 -96 -98 -117 0
-18 -34 -35 -48 -50 -62 -63 -74 -76 -86 -87 -96 -98 -117 0
-18 -34 -35 -49 -50 -62 -64 -74 -76 -86 -87 -96 -98 -117 0
-18 -34 -35 -49 -50 -63 -64 -74 -77 -86 -87 -96 -98 -117 0
-17 -33 -34 -48 -49 -62 -63 -75 -76 -86 -88 -96 -98 -117 0
-18 -33 -35 -48 -49 -62 -63 -75 -76 -86 -88 -96 -98 -117 0
-18 -34 -35 -48 -50 -62 -63 -75 -76 -86 -88 -96 -98 -117 0
-18 -34 -35 -49 -50 -62 -64 -75 -76 -86 -88 -96 -98 -117 0
-18 -34 -35 -49 -50 -63 -64 -75 -77 -86 -88 -96 -98 -117 0
-18 -34 -35 -49 -50 -63 -64 -76 -77 -86 -89 -96 -98 -117 0
-17 -33 -34 -48 -49 -62 -63 -75 -76 -87 -88 -96 -99 -117 0
-18 -33 -35 -48 -49 -62 -63 -75 -76 -87 -88 -96 -99 -117 0
-18 -34 -35 -48 -50 -62 -63 -75 -76 -87 -88 -96 -99 -117 0
-18 -34 -35 -49 -50 -62 -64 -75 -76 -87 -88 -96 -99 -117 0
-18 -34 -35 -49 -50 -63 -64 -75 -77 -87 -88 -96 -99 -117 0
-18 -34 -35 -49 -50 -63 -64 -76 -77 -87 -89 -96 -99 -117 0
-18 -34 -35 -49 -50 -63 -64 -76 -77 -88 -89 -96 -100 -117 0
-16 -32 -33 -47 -48 -61 -62 -74 -75 -86 -87 -97 -98 -118 0
-17 -32 -34 -47 -48 -61 -62 -74 -75 -86 -87 -97 -98 -118 0
-18 -32 -35 -47 -48 -61 -62 -74 -75 -86 -87 -97 -98 -118 0
-17 -33 -34 -47 -49 -61 -62 -74 -75 -86 -87 -97 -98 -118 0
-18 -33 -35 -47 -49 -61 -62 -74 -75 -86 -87 -97 -98 -118 0
-18 -34 -35 -47 -50 -61 -62 -74 -75 -86 -87 -97 -98 -118 0
-17 -33 -34 -48 -49 -61 -63 -74 -75 -86 -87 -97 -98 -118 0
-18 -33 -35 -48 -49 -61 -63 -74 -75 -86 -87 -97 -98 -118 0
-18 -34 -35 -48 -50 -61 -63 -74 -75 -86 -87 -97 -98 -118 0
-18 -34 -35 -49 -50 -61 -64 -74 -75 -86 -87 -97 -98 -118 0
-17 -33 -34 -48 -49 -62 -63 -74 -76 -86 -87 -97 -98 -118 0
-18 -33 -35 -48 -49 -62 -63 -74 -76 -86 -87 -97 -98 -118 0
-18 -34 -35 -48 -50 -62 -63 -74 -76 -86 -87 -97 -98 -118 0
-18 -34 -35 -49 -50 -62 -64 -74 -76 -86 -87 -97 -98 -118 0
-18 -34 -35 -49 -50 -63 -64 -74 -77 -86 -87 -97 -98 -118 0
-17 -33 -34 -48 -49 -62 -63 -75 -76 -86 -88 -97 -98 -118 0
-18 -33 -35 -48 -49 -62 -63 -75 -76 -86 -88 -97 -98 -118 0
-18 -34 -35 -48 -50 -62 -63 -75 -76 -86 -88 -97 -98 -118 0
-18 -34 -35 -49 -50 -62 -64 -75 -76 -86 -88 -97 -98 -118 0
-18 -34 -35 -49 -50 -63 -64 -75 -77 -86 -88 -97 -98 -118 0
-18 -34 -35 -49 -50 -63 -64 -76 -77 -86 -89 -97 -98 -118 0
-17 -33 -34 -48 -49 -62 -63 -75 -76 -87 -88 -97 -99 -118 0
-18 -33 -35 -48 -49 -62 -63 -75 -76 -87 -88 -97 -99 -118 0
-18 -34 -35 -48 -50 -62 -63 -75 -76 -87 -88 -97 -99 -118 0
-18 -34 -35 -49 -50 -62 -64 -75 -76 -87 -88 -97 -99 -118 0
-18 -34 -35 -49 -50 -63 -64 -75 -77 -87 -88 -97 -99 -118 0
-18 -34 -35 -49 -50 -63 -64 -76 -77 -87 -89 -97 -99 -118 0
-18 -34 -35 -49 -50 -63 -64 -76 -77 -88 -89 -97 -100 -118 0
-17 -33 -34 -48 -49 -62 -63 -75 -76 -87 -88 -98 -99 -119 0
-18 -33 -35 -48 -49 -62 -63 -75 -76 -87 -88 -98 -99 -119 0
-18 -34 -35 -48 -50 -62 -63 -75 -76 -87 -88 -98 -99 -119 0
-18 -34 -35 -49 -50 -62 -64 -75 -76 -87 -88 -98 -99 -119 0
-18 -34 -35 -49 -50 -63 -64 -75 -77 -87 -88 -98 -99 -119 0
-18 -34 -35 -49 -50 -63 -64 -76 -77 -87 -89 -98 -99 -119 0
-18 -34 -35 -49 -50 -63 -64 -76 -77 -88 -89 -98 -100 -119 0
-18 -34 -35 -49 -50 -63 -64 -76 -77 -88 -89 -99 -100 -120 0
-16 -32 -33 -47 -48 -61 -62 -74 -75 -86 -87 -97 -98 -127 0
-17 -32 -34 -47 -48 -61 -62 -74 -75 -86 -87 -97 -98 -127 0
-18 -32 -35 -47 -48 -61 -62 -74 -75 -86 -87 -97 -98 -127 0
-17 -33 -34 -47 -49 -61 -62 -74 -75 -86 -87 -97 -98 -127 0
-18 -33 -35 -47 -49 -61 -62 -74 -75 -86 -87 -97 -98 -127 0
-18 -34 -35 -47 -50 -61 -62 -74 -75 -86 -87 -97 -98 -127 0
-17 -33 -34 -48 -49 -61 -63 -74 -75 -86 -87 -97 -98 -127 0
-18 -33 -35 -48 -49 -61 -63 -74 -75 -86 -87 -97 -98 -127 0
-18 -34 -35 -48 -50 -61 -63 -74 -75 -86 -87 -97 -98 -127 0
-18 -34 -35 -49 -50 -61 -64 -74 -75 -86 -87 -97 -98 -127 0
-17 -33 -34 -48 -49 -62 -63 -74 -76 -86 -87 -97 -98 -127 0
-18 -33 -35 -48 -49 -62 -63 -74 -76 -86 -87 -97 -98 -127 0
-18 -34 -35 -48 -50 -62 -63 -74 -76 -86 -87 -97 -98 -127 0
-18 -34 -35 -49 -50 -62 -64 -74 -76 -86 -87 -97 -98 -127 0
-18 -34 -35 -49 -50 -63 -64 -74 -77 -86 -87 -97 -98 -127 0
-17 -33 -34 -48 -49 -62 -63 -75 -76 -86 -88 -97 -98 -127 0
-18 -33 -35 -48 -49 -62 -63 -75 -76 -86 -88 -97 -98 -127 0
-18 -34 -35 -48 -50 -62 -63 -75 -76 -86 -88 -97 -98 -127 0
-18 -34 -35 -49 -50 -62 -64 -75 -76 -86 -88 -97 -98 -127 0
-18 -34 -35 -49 -50 -63 -64 -75 -77 -86 -88 -97 -98 -127 0
-18 -34 -35 -49 -50 -63 -64 -76 -77 -86 -89 -97 -98 -127 0
-17 -33 -34 -48 -49 -62 -63 -75 -76 -87 -88 -97 -99 -127 0
-18 -33 -35 -48 -49 -62 -63 -75 -76 -87 -88 -97 -99 -127 0
-18 -34 -35 -48 -50 -62 -63 -75 -76 -87 -88 -97 -99 -127 0
-18 -34 -35 -49 -50 -62 -64 -75 -76 -87 -88 -97 -99 -127 0
-18 -34 -35 -49 -50 -63 -64 -75 -77 -87 -88 -97 -99 -127 0
-18 -34 -35 -49 -50 -63 -64 -76 -77 -87 -89 -97 -99 -127 0
-18 -34 -35 -49 -50 -63 -64 -76 -77 -88 -89 -97 -100 -127 0
-17 -33 -34 -48 -49 -62 -63 -75 -76 -87 -88 -98 -99 -128 0
-18 -33 -35 -48 -49 -62 -63 -75 -76 -87 -88 -98 -99 -128 0
-18 -34 -35 -48 -50 -62 -63 -75 -76 -87 -88 -98 -99 -128 0
-18 -34 -35 -49 -50 -62 -64 -75 -76 -87 -88 -98 -99 -128 0
-18 -34 -35 -49 -50 -63 -64 -75 -77 -87 -88 -98 -99 -128 0
-18 -34 -35 -49 -50 -63 -64 -76 -77 -87 -89 -98 -99 -128 0
-18 -34 -35 -49 -50 -63 -64 -76 -77 -88 -89 -98 -100 -128 0
-18 -34 -35 -49 -50 -63 -64 -76 -77 -88 -89 -99 -100 -129 0
-17 -33 -34 -48 -49 -62 -63 -75 -76 -87 -88 -98 -99 -136 0
-18 -33 -35 -48 -49 -62 -63 -75 -76 -87 -88 -98 -99 -136 0
-18 -34 -35 -48 -50 -62 -63 -75 -76 -87 -88 -98 -99 -136 0
-18 -34 -35 -49 -50 -62 -64 -75 -76 -87 -88 -98 -99 -136 0
-18 -34 -35 -49 -50 -63 -64 -75 -77 -87 -88 -98 -99 -136 0
-18 -34 -35 -49 -50 -63 -64 -76 -77 -87 -89 -98 -99 -136 0
-18 -34 -35 -49 -50 -63 -64 -76 -77 -88 -89 -98 -100 -136 0
-18 -34 -35 -49 -50 -63 -64 -76 -77 -88 -89 -99 -100 -137 0
-18 -34 -35 -49 -50 -63 -64 -76 -77 -88 -89 -99 -100 -144 0
-15 -31 -32 -46 -47 -60 -61 -73 -74 -85 -86 -107 -108 -117 0
-16 -31 -33 -46 -47 -60 -61 -73 -74 -85 -86 -107 -108 -117 0
-17 -31 -34 -46 -47 -60 -61 -73 -74 -85 -86 -107 -108 -117 0
-18 -31 -35 -46 -47 -60 -61 -73 -74 -85 -86 -107 -108 -117 0
-16 -32 -33 -46 -48 -60 -61 -73 -74 -85 -86 -107 -108 -117 0
-17 -32 -34 -46 -48 -60 -61 -73 -74 -85 -86 -107 -108 -117 0
-18 -32 -35 -46 -48 -60 -61 -73 -74 -85 -86 -107 -108 -117 0
-17 -33 -34 -46 -49 -60 -61 -73 -74 -85 -86 -107 -108 -117 0
-18 -33 -35 -46 -49 -60 -61 -73 -74 -85 -86 -107 -108 -117 0
-18 -34 -35 -46 -50 -60 -61 -73 -74 -85 -86 -107 -108 -117 0
-16 -32 -33 -47 -48 -60 -62 -73 -74 -85 -86 -107 -108 -117 0
-17 -32 -34 -47 -48 -60 -62 -73 -74 -85 -86 -107 -108 -117 0
-18 -32 -35 -47 -48 -60 -62 -73 -74 -85 -86 -107 -108 -117 0
-17 -33 -34 -47 -49 -60 -62 -73 -74 -85 -86 -107 -108 -117 0
-18 -33 -35 -47 -49 -60 -62 -73 -74 -85 -86 -107 -108 -117 0
-18 -34 -35 -47 -50 -60 -62 -73 -74 -85 -86 -107 -108 -117 0
-17 -33 -34 -48 -49 -60 -63 -73 -74 -85 -86 -107 -108 -117 0
-18 -33 -35 -48 -49 -60 -63 -73 -74 -85 -86 -107 -108 -117 0
-18 -34 -35 -48 -50 -60 -63 -73 -74 -85 -86 -107 -108 -117 0
-18 -34 -35 -49 -50 -60 -64 -73 -74 -85 -86 -107 -108 -117 0
-16 -32 -33 -47 -48 -61 -62 -73 -75 -85 -86 -107 -108 -117 0
-17 -32 -34 -47 -48 -61 -62 -73 -75 -85 -86 -107 -108 -117 0
-18 -32 -35 -47 -48 -61 -62 -73 -75 -85 -86 -107 -108 -117 0
-17 -33 -34 -47 -49 -61 -62 -73 -75 -85 -86 -107 -108 -117 0
-18 -33 -35 -47 -49 -61 -62 -73 -75 -85 -86 -107 -108 -117 0
-18 -34 -35 -47 -50 -61 -62 -73 -75 -85 -86 -107 -108 -117 0
-17 -33 -34 -48 -49 -61 -63 -73 -75 -85 -86 -107 -108 -117 0
-18 -33 -35 -48 -49 -61 -63 -73 -75 -85 -86 -107 -108 -117 0
-18 -34 -35 -48 -50 -61 -63 -73 -75 -85 -86 -107 -108 -117 0
-18 -34 -35 -49 -50 -61 -64 -73 -75 -85 -86 -107 -108 -117 0
-17 -33 -34 -48 -49 -62 -63 -73 -76 -85 -86 -107 -108 -117 0
-18 -33 -35 -48 -49 -62 -63 -73 -76 -85 -86 -107 -108 -117 0
-18 -34 -35 -48 -50 -62 -63 -73 -76 -85 -86 -107 -108 -117 0
-18 -34 -35 -49 -50 -62 -64 -73 -76 -85 -86 -107 -108 -117 0
-18 -34 -35 -49 -50 -63 -64 -73 -77 -85 -86 -107 -108 -117 0
-16 -32 -33 -47 -48 -61 -62 -74 -75 -85 -87 -107 -108 -117 0
-17 -32 -34 -47 -48 -61 -62 -74 -75 -85 -87 -107 -108 -117 0
-18 -32 -35 -47 -48 -61 -62 -74 -75 -85 -87 -107 -108 -117 0
-17 -33 -34 -47 -49 -61 -62 -74 -75 -85 -87 -107 -108 -117 0
-18 -33 -35 -47 -49 -61 -62 -74 -75 -85 -87 -107 -108 -117 0
-18 -34 -35 -47 -50 -61 -62 -74 -75 -85 -87 -107 -108 -117 0
-17 -33 -34 -48 -49 -61 -63 -74 -75 -85 -87 -107 -108 -117 0
-18 -33 -35 -48 -49 -61 -63 -74 -75 -85 -87 -107 -108 -117 0
-18 -34 -35 -48 -50 -61 -63 -74 -75 -85 -87 -107 -108 -117 0
-18 -34 -35 -49 -50 -61 -64 -74 -75 -85 -87 -107 -108 -117 0
-17 -33 -34 -48 -49 -62 -63 -74 -76 -85 -87 -107 -108 -117 0
-18 -33 -35 -48 -49 -62 -63 -74 -76 -85 -87 -107 -108 -117 0
-18 -34 -35 -48 -50 -62 -63 -74 -76 -85 -87 -107 -108 -117 0
-18 -34 -35 -49 -50 -62 -64 -74 -76 -85 -87 -107 -108 -117 0
-18 -34 -35 -49 -50 -63 -64 -74 -77 -85 -87 -107 -108 -117 0
-17 -33 -34 -48 -49 -62 -63 -75 -76 -85 -88 -107 -108 -117 0
-18 -33 -35 -48 -49 -62 -63 -75 -76 -85 -88 -107 -108 -117 0
-18 -34 -35 -48 -50 -62 -63 -75 -76 -85 -88 -107 -108 -117 0
-18 -34 -35 -49 -50 -62 -64 -75 -76 -85 -88 -107 -108 -117 0
-18 -34 -35 -49 -50 -63 -64 -75 -77 -85 -88 -107 -108 -117 0
-18 -34 -35 -49 -50 -63 -64 -76 -77 -85 -89 -107 -108 -117 0
-16 -32 -33 -47 -48 -61 -62 -74 -75 -86 -87 -107 -109 -117 0
-17 -32 -34 -47 -48 -61 -62 -74 -75 -86 -87 -107 -109 -117 0
-18 -32 -35 -47 -48 -61 -62 -74 -75 -86 -87 -107 -109 -117 0
-17 -33 -34 -47 -49 -61 -62 -74 -75 -86 -87 -107 -109 -117 0
-18 -33 -35 -47 -49 -61 -62 -74 -75 -86 -87 -107 -109 -117 0
-18 -34 -35 -47 -50 -61 -62 -74 -75 -86 -87 -107 -109 -117 0
-17 -33 -34 -48 -49 -61 -63 -74 -75 -86 -87 -107 -109 -117 0
-18 -33 -35 -48 -49 -61 -63 -74 -75 -86 -87 -107 -109 -117 0
-18 -34 -35 -48 -50 -61 -63 -74 -75 -86 -87 -107 -109 -117 0
-18 -34 -35 -49 -50 -61 -64 -74 -75 -86 -87 -107 -109 -117 0
-17 -33 -34 -48 -49 -62 -63 -74 -76 -86 -87 -107 -109 -117 0
-18 -33 -35 -48 -49 -62 -63 -74 -76 -86 -87 -107 -109 -117 0
-18 -34 -35 -48 -50 -62 -63 -74 -76 -86 -87 -107 -109 -117 0
-18 -34 -35 -49 -50 -62 -64 -74 -76 -86 -87 -107 -109 -117 0
-18 -34 -35 -49 -50 -63 -64 -74 -77 -86 -87 -107 -109 -117 0
-17 -33 -34 -48 -49 -62 -63 -75 -76 -86 -88 -107 -109 -117 0
-18 -33 -35 -48 -49 -62 -63 -75 -76 -86 -88 -107 -109 -117 0
-18 -34 -35 -48 -50 -62 -63 -75 -76 -86 -88 -107 -109 -117 0
-18 -34 -35 -49 -50 -62 -64 -75 -76 -86 -88 -107 -109 -117 0
-18 -34 -35 -49 -50 -63 -64 -75 -77 -86 -88 -107 -109 -117 0
-18 -34 -35 -49 -50 -63 -64 -76 -77 -86 -89 -107 -109 -117 0
-17 -33 -34 -48 -49 -62 -63 -75 -76 -87 -88 -107 -110 -117 0
-18 -33 -35 -48 -49 -62 -63 -75 -76 -87 -88 -107 -110 -117 0
-18 -34 -35 -48 -50 -62 -63 -75 -76 -87 -88 -107 -110 -117 0
-18 -34 -35 -49 -50 -62 -64 -75 -76 -87 -88 -107 -110 -117 0
-18 -34 -35 -49 -50 -63 -64 -75 -77 -87 -88 -107 -110 -117 0
-18 -34 -35 -49 -50 -63 -64 -76 -77 -87 -89 -107 -110 -117 0
-18 -34 -35 -49 -50 -63 -64 -76 -77 -88 -89 -107 -111 -117 0
-16 -32 -33 -47 -48 -61 -62 -74 -75 -86 -87 -108 -109 -118 0
-17 -32 -34 -47 -48 -61 -62 -74 -75 -86 -87 -108 -109 -118 0
-18 -32 -35 -47 -48 -61 -62 -74 -75 -86 -87 -108 -109 -118 0
-17 -33 -34 -47 -49 -61 -62 -74 -75 -86 -87 -108 -109 -118 0
-18 -33 -35 -47 -49 -61 -62 -74 -75 -86 -87 -108 -109 -118 0
-18 -34 -35 -47 -50 -61 -62 -74 -75 -86 -87 -108 -109 -118 0
-17 -33 -34 -48 -49 -61 -63 -74 -75 -86 -87 -108 -109 -118 0
-18 -33 -35 -48 -49 -61 -63 -74 -75 -86 -87 -108 -109 -118 0
-18 -34 -35 -48 -50 -61 -63 -74 -75 -86 -87 -108 -109 -118 0
-18 -34 -35 -49 -50 -61 -64 -74 -75 -86 -87 -108 -109 -118 0
-17 -33 -34 -48 -49 -62 -63 -74 -76 -86 -87 -108 -109 -118 0
-18 -33 -35 -48 -49 -62 -63 -74 -76 -86 -87 -108 -109 -118 0
-18 -34 -35 -48 -50 -62 -63 -74 -76 -86 -87 -108 -109 -118 0
-18 -34 -35 -49 -50 -62 -64 -74 -76 -86 -87 -108 -109 -118 0
-18 -34 -35 -49 -50 -63 -64 -74 -77 -86 -87 -108 -109 -118 0
-17 -33 -34 -48 -49 -62 -63 -75 -76 -86 -88 -108 -109 -118 0
-18 -33 -35 -48 -49 -62 -63 -75 -76 -86 -88 -108 -109 -118 0
-18 -34 -35 -48 -50 -62 -63 -75 -76 -86 -88 -108 -109 -118 0
-18 -34 -35 -49 -50 -62 -64 -75 -76 -86 -88 -108 -109 -118 0
-18 -34 -35 -49 -50 -63 -64 -75 -77 -86 -88 -108 -109 -118 0
-18 -34 -35 -49 -50 -63 -64 -76 -77 -86 -89 -108 -109 -118 0
-17 -33 -34 -48 -49 -62 -63 -75 -76 -87 -88 -108 -110 -118 0
-18 -33 -35 -48 -49 -62 -63 -75 -76 -87 -88 -108 -110 -118 0
-18 -34 -35 -48 -50 -62 -63 -75 -76 -87 -88 -108 -110 -118 0
-18 -34 -35 -49 -50 -62 -64 -75 -76 -87 -88 -108 -110 -118 0
-18 -34 -35 -49 -50 -63 -64 -75 -77 -87 -88 -108 -110 -118 0
-18 -34 -35 -49 -50 -63 -64 -76 -77 -87 -89 -108 -110 -118 0
-18 -34 -35 -49 -50 -63 -64 -76 -77 -88 -89 -108 -111 -118 0
-17 -33 -34 -48 -49 -62 -63 -75 -76 -87 -88 -109 -110 -119 0
-18 -33 -35 -48 -49 -62 -63 -75 -76 -87 -88 -109 -110 -119 0
-18 -34 -35 -48 -50 -62 -63 -75 -76 -87 -88 -109 -110 -119 0
-18 -34 -35 -49 -50 -62 -64 -75 -76 -87 -88 -109 -110 -119 0
-18 -34 -35 -49 -50 -63 -64 -75 -77 -87 -88 -109 -110 -119 0
-18 -34 -35 -49 -50 -63 -64 -76 -77 -87 -89 -109 -110 -119 0
-18 -34 -35 -49 -50 -63 -64 -76 -77 -88 -89 -109 -111 -119 0
-18 -34 -35 -49 -50 -63 -64 -76 -77 -88 -89 -110 -111 -120 0
-16 -32 -33 -47 -48 -61 -62 -74 -75 -86 -87 -108 -109 -127 0
-17 -32 -34 -47 -48 -61 -62 -74 -75 -86 -87 -108 -109 -127 0
-18 -32 -35 -47 -48 -61 -62 -74 -75 -86 -87 -108 -109 -127 0
-17 -33 -34 -47 -49 -61 -62 -74 -75 -86 -87 -108 -109 -127 0
-18 -33 -35 -47 -49 -61 -62 -74 -75 -86 -87 -108 -109 -127 0
-18 -34 -35 -47 -50 -61 -62 -74 -75 -86 -87 -108 -109 -127 0
-17 -33 -34 -48 -49 -61 -63 -74 -75 -86 -87 -108 -109 -127 0
-18 -33 -35 -48 -49 -61 -63 -74 -75 -86 -87 -108 -109 -127 0
-18 -34 -35 -48 -50 -61 -63 -74 -75 -86 -87 -108 -109 -127 0
-18 -34 -35 -49 -50 -61 -64 -74 -75 -86 -87 -108 -109 -127 0
-17 -33 -34 -48 -49 -62 -63 -74 -76 -86 -87 -108 -109 -127 0
-18 -33 -35 -48 -49 -62 -63 -74 -76 -86 -87 -108 -109 -127 0
-18 -34 -35 -48 -50 -62 -63 -74 -76 -86 -87 -108 -109 -127 0
-18 -34 -35 -49 -50 -62 -64 -74 -76 -86 -87 -108 -109 -127 0
-18 -34 -35 -49 -50 -63 -64 -74 -77 -86 -87 -108 -109 -127 0
-17 -33 -34 -48 -49 -62 -63 -75 -76 -86 -88 -108 -109 -127 0
-18 -33 -35 -48 -49 -62 -63 -75 -76 -86 -88 -108 -109 -127 0
-18 -34 -35 -48 -50 -62 -63 -75 -76 -86 -88 -108 -109 -127 0
-18 -34 -35 -49 -50 -62 -64 -75 -76 -86 -88 -108 -109 -127 0
-18 -34 -35 -49 -50 -63 -64 -75 -77 -86 -88 -108 -109 -127 0
-18 -34 -35 -49 -50 -63 -64 -76 -77 -86 -89 -108 -109 -127 0
-17 -33 -34 -48 -49 -62 -63 -75 -76 -87 -88 -108 -110 -127 0
-18 -33 -35 -48 -49 -62 -63 -75 -76 -87 -88 -108 -110 -127 0
-18 -34 -35 -48 -50 -62 -63 -75 -76 -87 -88 -108 -110 -127 0
-18 -34 -35 -49 -50 -62 -64 -75 -76 -87 -88 -108 -110 -127 0
-18 -34 -35 -49 -50 -63 -64 -75 -77 -87 -88 -108 -110 -127 0
-18 -34 -35 -49 -50 -63 -64 -76 -77 -87 -89 -108 -110 -127 0
-18 -34 -35 -49 -50 -63 -64 -76 -77 -88 -89 -108 -111 -127 0
-17 -33 -34 -48 -49 -62 -63 -75 -76 -87 -88 -109 -110 -128 0
-18 -33 -35 -48 -49 -62 -63 -75 -76 -87 -88 -109 -110 -128 0
-18 -34 -35 -48 -50 -62 -63 -75 -76 -87 -88 -109 -110 -128 0
-18 -34 -35 -49 -50 -62 -64 -75 -76 -87 -88 -109 -110 -128 0
-18 -34 -35 -49 -50 -63 -64 -75 -77 -87 -88 -109 -110 -128 0
-18 -34 -35 -49 -50 -63 -64 -76 -77 -87 -89 -109 -110 -128 0
-18 -34 -35 -49 -50 -63 -64 -76 -77 -88 -89 -109 -111 -128 0
-18 -34 -35 -49 -50 -63 -64 -76 -77 -88 -89 -110 -111 -129 0
-17 -33 -34 -48 -49 -62 -63 -75 -76 -87 -88 -109 -110 -136 0
-18 -33 -35 -48 -49 -62 -63 -75 -76 -87 -88 -109 -110 -136 0
-18 -34 -35 -48 -50 -62 -63 -75 -76 -87 -88 -109 -110 -136 0
-18 -34 -35 -49 -50 -62 -64 -75 -76 -87 -88 -109 -110 -136 0
-18 -34 -35 -49 -50 -63 -64 -75 -77 -87 -88 -109 -110 -136 0
-18 -34 -35 -49 -50 -63 -64 -76 -77 -87 -89 -109 -110 -136 0
-18 -34 -35 -49 -50 -63 -64 -76 -77 -88 -89 -109 -111 -136 0
-18 -34 -35 -49 -50 -63 -64 -76 -77 -88 -89 -110 -111 -137 0
-18 -34 -35 -49 -50 -63 -64 -76 -77 -88 -89 -110 -111 -144 0
-16 -32 -33 -47 -48 -61 -62 -74 -75 -86 -87 -118 -119 -127 0
-17 -32 -34 -47 -48 -61 -62 -74 -75 -86 -87 -118 -119 -127 0
-18 -32 -35 -47 -48 -61 -62 -74 -75 -86 -87 -118 -119 -127 0
-17 -33 -34 -47 -49 -61 -62 -74 -75 -86 -87 -118 -119 -127 0
-18 -33 -35 -47 -49 -61 -62 -74 -75 -86 -87 -118 -119 -127 0
-18 -34 -35 -47 -50 -61 -62 -74 -75 -86 -87 -118 -119 -127 0
-17 -33 -34 -48 -49 -61 -63 -74 -75 -86 -87 -118 -119 -127 0
-18 -33 -35 -48 -49 -61 -63 -74 -75 -86 -87 -118 -119 -127 0
-18 -34 -35 -48 -50 -61 -63 -74 -75 -86 -87 -118 -119 -127 0
-18 -34 -35 -49 -50 -61 -64 -74 -75 -86 -87 -118 -119 -127 0
-17 -33 -34 -48 -49 -62 -63 -74 -76 -86 -87 -118 -119 -127 0
-18 -33 -35 -48 -49 -62 -63 -74 -76 -86 -87 -118 -119 -127 0
-18 -34 -35 -48 -50 -62 -63 -74 -76 -86 -87 -118 -119 -127 0
-18 -34 -35 -49 -50 -62 -64 -74 -76 -86 -87 -118 -119 -127 0
-18 -34 -35 -49 -50 -63 -64 -74 -77 -86 -87 -118 -119 -127 0
-17 -33 -34 -48 -49 -62 -63 -75 -76 -86 -88 -118 -119 -127 0
-18 -33 -35 -48 -49 -62 -63 -75 -76 -86 -88 -118 -119 -127 0
-18 -34 -35 -48 -50 -62 -63 -75 -76 -86 -88 -118 -119 -127 0
-18 -34 -35 -49 -50 -62 -64 -75 -76 -86 -88 -118 -119 -127 0
-18 -34 -35 -49 -50 -63 -64 -75 -77 -86 -88 -118 -119 -127 0
-18 -34 -35 -49 -50 -63 -64 -76 -77 -86 -89 -118 -119 -127 0
-17 -33 -34 -48 -49 -62 -63 -75 -76 -87 -88 -118 -120 -127 0
-18 -33 -35 -48 -49 -62 -63 -75 -76 -87 -88 -118 -120 -127 0
-18 -34 -35 -48 -50 -62 -63 -75 -76 -87 -88 -118 -120 -127 0
-18 -34 -35 -49 -50 -62 -64 -75 -76 -87 -88 -118 -120 -127 0
-18 -34 -35 -49 -50 -63 -64 -75 -77 -87 -88 -118 -120 -127 0
-18 -34 -35 -49 -50 -63 -64 -76 -77 -87 -89 -118 -120 -127 0
-18 -34 -35 -49 -50 -63 -64 -76 -77 -88 -89 -118 -121 -127 0
-17 -33 -34 -48 -49 -62 -63 -75 -76 -87 -88 -119 -120 -128 0
-18 -33 -35 -48 -49 -62 -63 -75 -76 -87 -88 -119 -120 -128 0
-18 -34 -35 -48 -50 -62 -63 -75 -76 -87 -88 -119 -120 -128 0
-18 -34 -35 -49 -50 -62 -64 -75 -76 -87 -88 -119 -120 -128 0
-18 -34 -35 -49 -50 -63 -64 -75 -77 -87 -88 -119 -120 -128 0
-18 -34 -35 -49 -50 -63 -64 -76 -77 -87 -89 -119 -120 -128 0
-18 -34 -35 -49 -50 -63 -64 -76 -77 -88 -89 -119 -121 -128 0
-18 -34 -35 -49 -50 -63 -64 -76 -77 -88 -89 -120 -121 -129 0
-17 -33 -34 -48 -49 -62 -63 -75 -76 -87 -88 -119 -120 -136 0
-18 -33 -35 -48 -49 -62 -63 -75 -76 -87 -88 -119 -120 -136 0
-18 -34 -35 -48 -50 -62 -63 -75 -76 -87 -88 -119 -120 -136 0
-18 -34 -35 -49 -50 -62 -64 -75 -76 -87 -88 -119 -120 -136 0
-18 -34 -35 -49 -50 -63 -64 -75 -77 -87 -88 -119 -120 -136 0
-18 -34 -35 -49 -50 -63 -64 -76 -77 -87 -89 -119 -120 -136 0
-18 -34 -35 -49 -50 -63 -64 -76 -77 -88 -89 -119 -121 -136 0
-18 -34 -35 -49 -50 -63 -64 -76 -77 -88 -89 -120 -121 -137 0
-18 -34 -35 -49 -50 -63 -64 -76 -77 -88 -89 -120 -121 -144 0
-17 -33 -34 -48 -49 -62 -63 -75 -76 -87 -88 -128 -129 -136 0
-18 -33 -35 -48 -49 -62 -63 -75 -76 -87 -88 -128 -129 -136 0
-18 -34 -35 -48 -50 -62 -63 -75 -76 -87 -88 -128 -129 -136 0
-18 -34 -35 -49 -50 -62 -64 -75 -76 -87 -88 -128 -129 -136 0
-18 -34 -35 -49 -50 -63 -64 -75 -77 -87 -88 -128 -129 -136 0
-18 -34 -35 -49 -50 -63 -64 -76 -77 -87 -89 -128 -129 -136 0
-18 -34 -35 -49 -50 -63 -64 -76 -77 -88 -89 -128 -130 -136 0
-18 -34 -35 -49 -50 -63 -64 -76 -77 -88 -89 -129 -130 -137 0
-18 -34 -35 -49 -50 -63 -64 -76 -77 -88 -89 -129 -130 -144 0
-18 -34 -35 -49 -50 -63 -64 -76 -77 -88 -89 -137 -138 -144 0
-15 -31 -32 -46 -47 -60 -61 -73 -74 -97 -98 -107 -108 -117 0
-16 -31 -33 -46 -47 -60 -61 -73 -74 -97 -98 -107 -108 -117 0
-17 -31 -34 -46 -47 -60 -61 -73 -74 -97 -98 -107 -108 -117 0
-18 -31 -35 -46 -47 -60 -61 -73 -74 -97 -98 -107 -108 -117 0
-16 -32 -33 -46 -48 -60 -61 -73 -74 -97 -98 -107 -108 -117 0
-17 -32 -34 -46 -48 -60 -61 -73 -74 -97 -98 -107 -108 -117 0
-18 -32 -35 -46 -48 -60 -61 -73 -74 -97 -98 -107 -108 -117 0
-17 -33 -34 -46 -49 -60 -61 -73 -74 -97 -98 -107 -108 -117 0
-18 -33 -35 -46 -49 -60 -61 -73 -74 -97 -98 -107 -108 -117 0
-18 -34 -35 -46 -50 -60 -61 -73 -74 -97 -98 -107 -108 -117 0
-16 -32 -33 -47 -48 -60 -62 -73 -74 -97 -98 -107 -108 -117 0
-17 -32 -34 -47 -48 -60 -62 -73 -74 -97 -98 -107 -108 -117 0
-18 -32 -35 -47 -48 -60 -62 -73 -74 -97 -98 -107 -108 -117 0
-17 -33 -34 -47 -49 -60 -62 -73 -74 -97 -98 -107 -108 -117 0
-18 -33 -35 -47 -49 -60 -62 -73 -74 -97 -98 -107 -108 -117 0
-18 -34 -35 -47 -50 -60 -62 -73 -74 -97 -98 -107 -108 -117 0
-17 -33 -34 -48 -49 -60 -63 -73 -74 -97 -98 -107 -108 -117 0
-18 -33 -35 -48 -49 -60 -63 -73 -74 -97 -98 -107 -108 -117 0
-18 -34 -35 -48 -50 -60 -63 -73 -74 -97 -98 -107 -108 -117 0
-18 -34 -35 -49 -50 -60 -64 -73 -74 -97 -98 -107 -108 -117 0
-16 -32 -33 -47 -48 -61 -62 -73 -75 -97 -98 -107 -108 -117 0
-17 -32 -34 -47 -48 -61 -62 -73 -75 -97 -98 -107 -108 -117 0
-18 -32 -35 -47 -48 -61 -62 -73 -75 -97 -98 -107 -108 -117 0
-17 -33 -34 -47 -49 -61 -62 -73 -75 -97 -98 -107 -108 -117 0
-18 -33 -35 -47 -49 -61 -62 -73 -75 -97 -98 -107 -108 -117 0
-18 -34 -35 -47 -50 -61 -62 -73 -75 -97 -98 -107 -108 -117 0
-17 -33 -34 -48 -49 -61 -63 -73 -75 -97 -98 -107 -108 -117 0
-18 -33 -35 -48 -49 -61 -63 -73 -75 -97 -98 -107 -108 -117 0
-18 -34 -35 -48 -50 -61 -63 -73 -75 -97 -98 -107 -108 -117 0
-18 -34 -35 -49 -50 -61 -64 -73 -75 -97 -98 -107 -108 -117 0
-17 -33 -34 -48 -49 -62 -63 -73 -76 -97 -98 -107 -108 -117 0
-18 -33 -35 -48 -49 -62 -63 -73 -76 -97 -98 -107 -108 -117 0
-18 -34 -35 -48 -50 -62 -63 -73 -76 -97 -98 -107 -108 -117 0
-18 -34 -35 -49 -50 -62 -64 -73 -76 -97 -98 -107 -108 -117 0
-18 -34 -35 -49 -50 -63 -64 -73 -77 -97 -98 -107 -108 -117 0
-16 -32 -33 -47 -48 -61 -62 -74 -75 -97 -99 -107 -108 -117 0
-17 -32 -34 -47 -48 -61 -62 -74 -75 -97 -99 -107 -108 -117 0
-18 -32 -35 -47 -48 -61 -62 -74 -75 -97 -99 -107 -108 -117 0
-17 -33 -34 -47 -49 -61 -62 -74 -75 -97 -99 -107 -108 -117 0
-18 -33 -35 -47 -49 -61 -62 -74 -75 -97 -99 -107 -108 -117 0
-18 -34 -35 -47 -50 -61 -62 -74 -75 -97 -99 -107 -108 -117 0
-17 -33 -34 -48 -49 -61 -63 -74 -75 -97 -99 -107 -108 -117 0
-18 -33 -35 -48 -49 -61 -63 -74 -75 -97 -99 -107 -108 -117 0
-18 -34 -35 -48 -50 -61 -63 -74 -75 -97 -99 -107 -108 -117 0
-18 -34 -35 -49 -50 -61 -64 -74 -75 -97 -99 -107 -108 -117 0
-17 -33 -34 -48 -49 -62 -63 -74 -76 -97 -99 -107 -108 -117 0
-18 -33 -35 -48 -49 -62 -63 -74 -76 -97 -99 -107 -108 -117 0
-18 -34 -35 -48 -50 -62 -63 -74 -76 -97 -99 -107 -108 -117 0
-18 -34 -35 -49 -50 -62 -64 -74 -76 -97 -99 -107 -108 -117 0
-18 -34 -35 -49 -50 -63 -64 -74 -77 -97 -99 -107 -108 -117 0
-17 -33 -34 -48 -49 -62 -63 -75 -76 -97 -100 -107 -108 -117 0
-18 -33 -35 -48 -49 -62 -63 -75 -76 -97 -100 -107 -108 -117 0
-18 -34 -35 -48 -50 -62 -63 -75 -76 -97 -100 -107 -108 -117 0
-18 -34 -35 -49 -50 -62 -64 -75 -76 -97 -100 -107 -108 -117 0
-18 -34 -35 -49 -50 -63 -64 -75 -77 -97 -100 -107 -108 -117 0
-18 -34 -35 -49 -50 -63 -64 -76 -77 -97 -101 -107 -108 -117 0
-16 -32 -33 -47 -48 -61 -62 -74 -75 -98 -99 -107 -109 -117 0
-17 -32 -34 -47 -48 -61 -62 -74 -75 -98 -99 -107 -109 -117 0
-18 -32 -35 -47 -48 -61 -62 -74 -75 -98 -99 -107 -109 -117 0
-17 -33 -34 -47 -49 -61 -62 -74 -75 -98 -99 -107 -109 -117 0
-18 -33 -35 -47 -49 -61 -62 -74 -75 -98 -99 -107 -109 -117 0
-18 -34 -35 -47 -50 -61 -62 -74 -75 -98 -99 -107 -109 -117 0
-17 -33 -34 -48 -49 -61 -63 -74 -75 -98 -99 -107 -109 -117 0
-18 -33 -35 -48 -49 -61 -63 -74 -75 -98 -99 -107 -109 -117 0
-18 -34 -35 -48 -50 -61 -63 -74 -75 -98 -99 -107 -109 -117 0
-18 -34 -35 -49 -50 -61 -64 -74 -75 -98 -99 -107 -109 -117 0
-17 -33 -34 -48 -49 -62 -63 -74 -76 -98 -99 -107 -109 -117 0
-18 -33 -35 -48 -49 -62 -63 -74 -76 -98 -99 -107 -109 -117 0
-18 -34 -35 -48 -50 -62 -63 -74 -76 -98 -99 -107 -109 -117 0
-18 -34 -35 -49 -50 -62 -64 -74 -76 -98 -99 -107 -109 -117 0
-18 -34 -35 -49 -50 -63 -64 -74 -77 -98 -99 -107 -109 -117 0
-17 -33 -34 -48 -49 -62 -63 -75 -76 -98 -100 -107 -109 -117 0
-18 -33 -35 -48 -49 -62 -63 -75 -76 -98 -100 -107 -109 -117 0
-18 -34 -35 -48 -50 -62 -63 -75 -76 -98 -100 -107 -109 -117 0
-18 -34 -35 -49 -50 -62 -64 -75 -76 -98 -100 -107 -109 -117 0
-18 -34 -35 -49 -50 -63 -64 -75 -77 -98 -100 -107 -109 -117 0
-18 -34 -35 -49 -50 -63 -64 -76 -77 -98 -101 -107 -109 -117 0
-17 -33 -34 -48 -49 -62 -63 -75 -76 -99 -100 -107 -110 -117 0
-18 -33 -35 -48 -49 -62 -63 -75 -76 -99 -100 -107 -110 -117 0
-18 -34 -35 -48 -50 -62 -63 -75 -76 -99 -100 -107 -110 -117 0
-18 -34 -35 -49 -50 -62 -64 -75 -76 -99 -100 -107 -110 -117 0
-18 -34 -35 -49 -50 -63 -64 -75 -77 -99 -100 -107 -110 -117 0
-18 -34 -35 -49 -50 -63 -64 -76 -77 -99 -101 -107 -110 -117 0
-18 -34 -35 -49 -50 -63 -64 -76 -77 -100 -101 -107 -111 -117 0
-16 -32 -33 -47 -48 -61 -62 -74 -75 -98 -99 -108 -109 -118 0
-17 -32 -34 -47 -48 -61 -62 -74 -75 -98 -99 -108 -109 -118 0
-18 -32 -35 -47 -48 -61 -62 -74 -75 -98 -99 -108 -109 -118 0
-17 -33 -34 -47 -49 -61 -62 -74 -75 -98 -99 -108 -109 -118 0
-18 -33 -35 -47 -49 -61 -62 -74 -75 -98 -99 -108 -109 -118 0
-18 -34 -35 -47 -50 -61 -62 -74 -75 -98 -99 -108 -109 -118 0
-17 -33 -34 -48 -49 -61 -63 -74 -75 -98 -99 -108 -109 -118 0
-18 -33 -35 -48 -49 -61 -63 -74 -75 -98 -99 -108 -109 -118 0
-18 -34 -35 -48 -50 -61 -63 -74 -75 -98 -99 -108 -109 -118 0
-18 -34 -35 -49 -50 -61 -64 -74 -75 -98 -99 -108 -109 -118 0
-17 -33 -34 -48 -49 -62 -63 -74 -76 -98 -99 -108 -109 -118 0
-18 -33 -35 -48 -49 -62 -63 -74 -76 -98 -99 -108 -109 -118 0
-18 -34 -35 -48 -50 -62 -63 -74 -76 -98 -99 -108 -109 -118 0
-18 -34 -35 -49 -50 -62 -64 -74 -76 -98 -99 -108 -109 -118 0
-18 -34 -35 -49 -50 -63 -64 -74 -77 -98 -99 -108 -109 -118 0
-17 -33 -34 -48 -49 -62 -63 -75 -76 -98 -100 -108 -109 -118 0
-18 -33 -35 -48 -49 -62 -63 -75 -76 -98 -100 -108 -109 -118 0
-18 -34 -35 -48 -50 -62 -63 -75 -76 -98 -100 -108 -109 -118 0
-18 -34 -35 -49 -50 -62 -64 -75 -76 -98 -100 -108 -109 -118 0
-18 -34 -35 -49 -50 -63 -64 -75 -77 -98 -100 -108 -109 -118 0
-18 -34 -35 -49 -50 -63 -64 -76 -77 -98 -101 -108 -109 -118 0
-17 -33 -34 -48 -49 -62 -63 -75 -76 -99 -100 -108 -110 -118 0
-18 -33 -35 -48 -49 -62 -63 -75 -76 -99 -100 -108 -110 -118 0
-18 -34 -35 -48 -50 -62 -63 -75 -76 -99 -100 -108 -110 -118 0
-18 -34 -35 -49 -50 -62 -64 -75 -76 -99 -100 -108 -110 -118 0
-18 -34 -35 -49 -50 -63 -64 -75 -77 -99 -100 -108 -110 -118 0
-18 -34 -35 -49 -50 -63 -64 -76 -77 -99 -101 -108 -110 -118 0
-18 -34 -35 -49 -50 -63 -64 -76 -77 -100 -101 -108 -111 -118 0
-17 -33 -34 -48 -49 -62 -63 -75 -76 -99 -100 -109 -110 -119 0
-18 -33 -35 -48 -49 -62 -63 -75 -76 -99 -100 -109 -110 -119 0
-18 -34 -35 -48 -50 -62 -63 -75 -76 -99 -100 -109 -110 -119 0
-18 -34 -35 -49 -50 -62 -64 -75 -76 -99 -100 -109 -110 -119 0
-18 -34 -35 -49 -50 -63 -64 -75 -77 -99 -100 -109 -110 -119 0
-18 -34 -35 -49 -50 -63 -64 -76 -77 -99 -101 -109 -110 -119 0
-18 -34 -35 -49 -50 -63 -64 -76 -77 -100 -101 -109 -111 -119 0
-18 -34 -35 -49 -50 -63 -64 -76 -77 -100 -101 -110 -111 -120 0
-16 -32 -33 -47 -48 -61 -62 -74 -75 -98 -99 -108 -109 -127 0
-17 -32 -34 -47 -48 -61 -62 -74 -75 -98 -99 -108 -109 -127 0
-18 -32 -35 -47 -48 -61 -62 -74 -75 -98 -99 -108 -109 -127 0
-17 -33 -34 -47 -49 -61 -62 -74 -75 -98 -99 -108 -109 -127 0
-18 -33 -35 -47 -49 -61 -62 -74 -75 -98 -99 -108 -109 -127 0
-18 -34 -35 -47 -50 -61 -62 -74 -75 -98 -99 -108 -109 -127 0
-17 -33 -34 -48 -49 -61 -63 -74 -75 -98 -99 -108 -109 -127 0
-18 -33 -35 -48 -49 -61 -63 -74 -75 -98 -99 -108 -109 -127 0
-18 -34 -35 -48 -50 -61 -63 -74 -75 -98 -99 -108 -109 -127 0
-18 -34 -35 -49 -50 -61 -64 -74 -75 -98 -99 -108 -109 -127 0
-17 -33 -34 -48 -49 -62 -63 -74 -76 -98 -99 -108 -109 -127 0
-18 -33 -35 -48 -49 -62 -63 -74 -76 -98 -99 -108 -109 -127 0
-18 -34 -35 -48 -50 -62 -63 -74 -76 -98 -99 -108 -109 -127 0
-18 -34 -35 -49 -50 -62 -64 -74 -76 -98 -99 -108 -109 -127 0
-18 -34 -35 -49 -50 -63 -64 -74 -77 -98 -99 -108 -109 -127 0
-17 -33 -34 -48 -49 -62 -63 -75 -76 -98 -100 -108 -109 -127 0
-18 -33 -35 -48 -49 -62 -63 -75 -76 -98 -100 -108 -109 -127 0
-18 -34 -35 -48 -50 -62 -63 -75 -76 -98 -100 -108 -109 -127 0
-18 -34 -35 -49 -50 -62 -64 -75 -76 -98 -100 -108 -109 -127 0
-18 -34 -35 -49 -50 -63 -64 -75 -77 -98 -100 -108 -109 -127 0
-18 -34 -35 -49 -50 -63 -64 -76 -77 -98 -101 -108 -109 -127 0
-17 -33 -34 -48 -49 -62 -63 -75 -76 -99 -100 -108 -110 -127 0
-18 -33 -35 -48 -49 -62 -63 -75 -76 -99 -100 -108 -110 -127 0
-18 -34 -35 -48 -50 -62 -63 -75 -76 -99 -100 -108 -110 -127 0
-18 -34 -35 -49 -50 -62 -64 -75 -76 -99 -100 -108 -110 -127 0
-18 -34 -35 -49 -50 -63 -64 -75 -77 -99 -100 -108 -110 -127 0
-18 -34 -35 -49 -50 -63 -64 -76 -77 -99 -101 -108 -110 -127 0
-18 -34 -35 -49 -50 -63 -64 -76 -77 -100 -101 -108 -111 -127 0
-17 -33 -34 -48 -49 -62 -63 -75 -76 -99 -100 -109 -110 -128 0
-18 -33 -35 -48 -49 -62 -63 -75 -76 -99 -100 -109 -110 -128 0
-18 -34 -35 -48 -50 -62 -63 -75 -76 -99 -100 -109 -110 -128 0
-18 -34 -35 -49 -50 -62 -64 -75 -76 -99 -100 -109 -110 -128 0
-18 -34 -35 -49 -50 -63 -64 -75 -77 -99 -100 -109 -110 -128 0
-18 -34 -35 -49 -50 -63 -64 -76 -77 -99 -101 -109 -110 -128 0
-18 -34 -35 -49 -50 -63 -64 -76 -77 -100 -101 -109 -111 -128 0
-18 -34 -35 -49 -50 -63 -64 -76 -77 -100 -101 -110 -111 -129 0
-17 -33 -34 -48 -49 -62 -63 -75 -76 -99 -100 -109 -110 -136 0
-18 -33 -35 -48 -49 -62 -63 -75 -76 -99 -100 -109 -110 -136 0
-18 -34 -35 -48 -50 -62 -63 -75 -76 -99 -100 -109 -110 -136 0
-18 -34 -35 -49 -50 -62 -64 -75 -76 -99 -100 -109 -110 -136 0
-18 -34 -35 -49 -50 -63 -64 -75 -77 -99 -100 -109 -110 -136 0
-18 -34 -35 -49 -50 -63 -64 -76 -77 -99 -101 -109 -110 -136 0
-18 -34 -35 -49 -50 -63 -64 -76 -77 -100 -101 -109 -111 -136 0
-18 -34 -35 -49 -50 -63 -64 -76 -77 -100 -101 -110 -111 -137 0
-18 -34 -35 -49 -50 -63 -64 -76 -77 -100 -101 -110 -111 -144 0
-16 -32 -33 -47 -48 -61 -62 -74 -75 -98 -99 -118 -119 -127 0
-17 -32 -34 -47 -48 -61 -62 -74 -75 -98 -99 -118 -119 -127 0
-18 -32 -35 -47 -48 -61 -62 -74 -75 -98 -99 -118 -119 -127 0
-17 -33 -34 -47 -49 -61 -62 -74 -75 -98 -99 -118 -119 -127 0
-18 -33 -35 -47 -49 -61 -62 -74 -75 -98 -99 -118 -119 -127 0
-18 -34 -35 -47 -50 -61 -62 -74 -75 -98 -99 -118 -119 -127 0
-17 -33 -34 -48 -49 -61 -63 -74 -75 -98 -99 -118 -119 -127 0
-18 -33 -35 -48 -49 -61 -63 -74 -75 -98 -99 -118 -119 -127 0
-18 -34 -35 -48 -50 -61 -63 -74 -75 -98 -99 -118 -119 -127 0
-18 -34 -35 -49 -50 -61 -64 -74 -75 -98 -99 -118 -119 -127 0
-17 -33 -34 -48 -49 -62 -63 -74 -76 -98 -99 -118 -119 -127 0
-18 -33 -35 -48 -49 -62 -63 -74 -76 -98 -99 -118 -119 -127 0
-18 -34 -35 -48 -50 -62 -63 -74 -76 -98 -99 -118 -119 -127 0
-18 -34 -35 -49 -50 -62 -64 -74 -76 -98 -99 -118 -119 -127 0
-18 -34 -35 -49 -50 -63 -64 -74 -77 -98 -99 -118 -119 -127 0
-17 -33 -34 -48 -49 -62 -63 -75 -76 -98 -100 -118 -119 -127 0
-18 -33 -35 -48 -49 -62 -63 -75 -76 -98 -100 -118 -119 -127 0
-18 -34 -35 -48 -50 -62 -63 -75 -76 -98 -100 -118 -119 -127 0
-18 -34 -35 -49 -50 -62 -64 -75 -76 -98 -100 -118 -119 -127 0
-18 -34 -35 -49 -50 -63 -64 -75 -77 -98 -100 -118 -119 -127 0
-18 -34 -35 -49 -50 -63 -64 -76 -77 -98 -101 -118 -119 -127 0
-17 -33 -34 -48 -49 -62 -63 -75 -76 -99 -100 -118 -120 -127 0
-18 -33 -35 -48 -49 -62 -63 -75 -76 -99 -100 -118 -120 -127 0
-18 -34 -35 -48 -50 -62 -63 -75 -76 -99 -100 -118 -120 -127 0
-18 -34 -35 -49 -50 -62 -64 -75 -76 -99 -100 -118 -120 -127 0
-18 -34 -35 -49 -50 -63 -64 -75 -77 -99 -100 -118 -120 -127 0
-18 -34 -35 -49 -50 -63 -64 -76 -77 -99 -101 -118 -120 -127 0
-18 -34 -35 -49 -50 -63 -64 -76 -77 -100 -101 -118 -121 -127 0
-17 -33 -34 -48 -49 -62 -63 -75 -76 -99 -100 -119 -120 -128 0
-18 -33 -35 -48 -49 -62 -63 -75 -76 -99 -100 -119 -120 -128 0
-18 -34 -35 -48 -50 -62 -63 -75 -76 -99 -100 -119 -120 -128 0
-18 -34 -35 -49 -50 -62 -64 -75 -76 -99 -100 -119 -120 -128 0
-18 -34 -35 -49 -50 -63 -64 -75 -77 -99 -100 -119 -120 -128 0
-18 -34 -35 -49 -50 -63 -64 -76 -77 -99 -101 -119 -120 -128 0
-18 -34 -35 -49 -50 -63 -64 -76 -77 -100 -101 -119 -121 -128 0
-18 -34 -35 -49 -50 -63 -64 -76 -77 -100 -101 -120 -121 -129 0
-17 -33 -34 -48 -49 -62 -63 -75 -76 -99 -100 -119 -120 -136 0
-18 -33 -35 -48 -49 -62 -63 -75 -76 -99 -100 -119 -120 -136 0
-18 -34 -35 -48 -50 -62 -63 -75 -76 -99 -100 -119 -120 -136 0
-18 -34 -35 -49 -50 -62 -64 -75 -76 -99 -100 -119 -120 -136 0
-18 -34 -35 -49 -50 -63 -64 -75 -77 -99 -100 -119 -120 -136 0
-18 -34 -35 -49 -50 -63 -64 -76 -77 -99 -101 -119 -120 -136 0
-18 -34 -35 -49 -50 -63 -64 -76 -77 -100 -101 -119 -121 -136 0
-18 -34 -35 -49 -50 -63 -64 -76 -77 -100 -101 -120 -121 -137 0
-18 -34 -35 -49 -50 -63 -64 -76 -77 -100 -101 -120 -121 -144 0
-17 -33 -34 -48 -49 -62 -63 -75 -76 -99 -100 -128 -129 -136 0
-18 -33 -35 -48 -49 -62 -63 -75 -76 -99 -100 -128 -129 -136 0
-18 -34 -35 -48 -50 -62 -63 -75 -76 -99 -100 -128 -129 -136 0
-18 -34 -35 -49 -50 -62 -64 -75 -76 -99 -100 -128 -129 -136 0
-18 -34 -35 -49 -50 -63 -64 -75 -77 -99 -100 -128 -129 -136 0
-18 -34 -35 -49 -50 -63 -64 -76 -77 -99 -101 -128 -129 -136 0
-18 -34 -35 -49 -50 -63 -64 -76 -77 -100 -101 -128 -130 -136 0
-18 -34 -35 -49 -50 -63 -64 -76 -77 -100 -101 -129 -130 -137 0
-18 -34 -35 -49 -50 -63 -64 -76 -77 -100 -101 -129 -130 -144 0
-18 -34 -35 -49 -50 -63 -64 -76 -77 -100 -101 -137 -138 -144 0
-16 -32 -33 -47 -48 -61 -62 -74 -75 -109 -110 -118 -119 -127 0
-17 -32 -34 -47 -48 -61 -62 -74 -75 -109 -110 -118 -119 -127 0
-18 -32 -35 -47 -48 -61 -62 -74 -75 -109 -110 -118 -119 -127 0
-17 -33 -34 -47 -49 -61 -62 -74 -75 -109 -110 -118 -119 -127 0
-18 -33 -35 -47 -49 -61 -62 -74 -75 -109 -110 -118 -119 -127 0
-18 -34 -35 -47 -50 -61 -62 -74 -75 -109 -110 -118 -119 -127 0
-17 -33 -34 -48 -49 -61 -63 -74 -75 -109 -110 -118 -119 -127 0
-18 -33 -35 -48 -49 -61 -63 -74 -75 -109 -110 -118 -119 -127 0
-18 -34 -35 -48 -50 -61 -63 -74 -75 -109 -110 -118 -119 -127 0
-18 -34 -35 -49 -50 -61 -64 -74 -75 -109 -110 -118 -119 -127 0
-17 -33 -34 -48 -49 -62 -63 -74 -76 -109 -110 -118 -119 -127 0
-18 -33 -35 -48 -49 -62 -63 -74 -76 -109 -110 -118 -119 -127 0
-18 -34 -35 -48 -50 -62 -63 -74 -76 -109 -110 -118 -119 -127 0
-18 -34 -35 -49 -50 -62 -64 -74 -76 -109 -110 -118 -119 -127 0
-18 -34 -35 -49 -50 -63 -64 -74 -77 -109 -110 -118 -119 -127 0
-17 -33 -34 -48 -49 -62 -63 -75 -76 -109 -111 -118 -119 -127 0
-18 -33 -35 -48 -49 -62 -63 -75 -76 -109 -111 -118 -119 -127 0
-18 -34 -35 -48 -50 -62 -63 -75 -76 -109 -111 -118 -119 -127 0
-18 -34 -35 -49 -50 -62 -64 -75 -76 -109 -111 -118 -119 -127 0
-18 -34 -35 -49 -50 -63 -64 -75 -77 -109 -111 -118 -119 -127 0
-18 -34 -35 -49 -50 -63 -64 -76 -77 -109 -112 -118 -119 -127 0
-17 -33 -34 -48 -49 -62 -63 -75 -76 -110 -111 -118 -120 -127 0
-18 -33 -35 -48 -49 -62 -63 -75 -76 -110 -111 -118 -120 -127 0
-18 -34 -35 -48 -50 -62 -63 -75 -76 -110 -111 -118 -120 -127 0
-18 -34 -35 -49 -50 -62 -64 -75 -76 -110 -111 -118 -120 -127 0
-18 -34 -35 -49 -50 -63 -64 -75 -77 -110 -111 -118 -120 -127 0
-18 -34 -35 -49 -50 -63 -64 -76 -77 -110 -112 -118 -120 -127 0
-18 -34 -35 -49 -50 -63 -64 -76 -77 -111 -112 -118 -121 -127 0
-17 -33 -34 -48 -49 -62 -63 -75 -76 -110 -111 -119 -120 -128 0
-18 -33 -35 -48 -49 -62 -63 -75 -76 -110 -111 -119 -120 -128 0
-18 -34 -35 -48 -50 -62 -63 -75 -76 -110 -111 -119 -120 -128 0
-18 -34 -35 -49 -50 -62 -64 -75 -76 -110 -111 -119 -120 -128 0
-18 -34 -35 -49 -50 -63 -64 -75 -77 -110 -111 -119 -120 -128 0
-18 -34 -35 -49 -50 -63 -64 -76 -77 -110 -112 -119 -120 -128 0
-18 -34 -35 -49 -50 -63 -64 -76 -77 -111 -112 -119 -121 -128 0
-18 -34 -35 -49 -50 -63 -64 -76 -77 -111 -112 -120 -121 -129 0
-17 -33 -34 -48 -49 -62 -63 -75 -76 -110 -111 -119 -120 -136 0
-18 -33 -35 -48 -49 -62 -63 -75 -76 -110 -111 -119 -120 -136 0
-18 -34 -35 -48 -50 -62 -63 -75 -76 -110 -111 -119 -120 -136 0
-18 -34 -35 -49 -50 -62 -64 -75 -76 -110 -111 -119 -120 -136 0
-18 -34 -35 -49 -50 -63 -64 -75 -77 -110 -111 -119 -120 -136 0
-18 -34 -35 -49 -50 -63 -64 -76 -77 -110 -112 -119 -120 -136 0
-18 -34 -35 -49 -50 -63 -64 -76 -77 -111 -112 -119 -121 -136 0
-18 -34 -35 -49 -50 -63 -64 -76 -77 -111 -112 -120 -121 -137 0
-18 -34 -35 -49 -50 -63 -64 -76 -77 -111 -112 -120 -121 -144 0
-17 -33 -34 -48 -49 -62 -63 -75 -76 -110 -111 -128 -129 -136 0
-18 -33 -35 -48 -49 -62 -63 -75 -76 -110 -111 -128 -129 -136 0
-18 -34 -35 -48 -50 -62 -63 -75 -76 -110 -111 -128 -129 -136 0
-18 -34 -35 -49 -50 -62 -64 -75 -76 -110 -111 -128 -129 -136 0
-18 -34 -35 -49 -50 -63 -64 -75 -77 -110 -111 -128 -129 -136 0
-18 -34 -35 -49 -50 -63 -64 -76 -77 -110 -112 -128 -129 -136 0
-18 -34 -35 -49 -50 -63 -64 -76 -77 -111 -112 -128 -130 -136 0
-18 -34 -35 -49 -50 -63 -64 -76 -77 -111 -112 -129 -130 -137 0
-18 -34 -35 -49 -50 -63 -64 -76 -77 -111 -112 -129 -130 -144 0
-18 -34 -35 -49 -50 -63 -64 -76 -77 -111 -112 -137 -138 -144 0
-17 -33 -34 -48 -49 -62 -63 -75 -76 -120 -121 -128 -129 -136 0
-18 -33 -35 -48 -49 -62 -63 -75 -76 -120 -121 -128 -129 -136 0
-18 -34 -35 -48 -50 -62 -63 -75 -76 -120 -121 -128 -129 -136 0
-18 -34 -35 -49 -50 -62 -64 -75 -76 -120 -121 -128 -129 -136 0
-18 -34 -35 -49 -50 -63 -64 -75 -77 -120 -121 -128 -129 -136 0
-18 -34 -35 -49 -50 -63 -64 -76 -77 -120 -122 -128 -129 -136 0
-18 -34 -35 -49 -50 -63 -64 -76 -77 -121 -122 -128 -130 -136 0
-18 -34 -35 -49 -50 -63 -64 -76 -77 -121 -122 -129 -130 -137 0
-18 -34 -35 -49 -50 -63 -64 -76 -77 -121 -122 -129 -130 -144 0
-18 -34 -35 -49 -50 -63 -64 -76 -77 -121 -122 -137 -138 -144 0
-18 -34 -35 -49 -50 -63 -64 -76 -77 -130 -131 -137 -138 -144 0
-15 -31 -32 -46 -47 -60 -61 -86 -87 -97 -98 -107 -108 -117 0
-16 -31 -33 -46 -47 -60 -61 -86 -87 -97 -98 -107 -108 -117 0
-17 -31 -34 -46 -47 -60 -61 -86 -87 -97 -98 -107 -108 -117 0
-18 -31 -35 -46 -47 -60 -61 -86 -87 -97 -98 -107 -108 -117 0
-16 -32 -33 -46 -48 -60 -61 -86 -87 -97 -98 -107 -108 -117 0
-17 -32 -34 -46 -48 -60 -61 -86 -87 -97 -98 -107 -108 -117 0
-18 -32 -35 -46 -48 -60 -61 -86 -87 -97 -98 -107 -108 -117 0
-17 -33 -34 -46 -49 -60 -61 -86 -87 -97 -98 -107 -108 -117 0
-18 -33 -35 -46 -49 -60 -61 -86 -87 -97 -98 -107 -108 -117 0
-18 -34 -35 -46 -50 -60 -61 -86 -87 -97 -98 -107 -108 -117 0
-16 -32 -33 -47 -48 -60 -62 -86 -87 -97 -98 -107 -108 -117 0
-17 -32 -34 -47 -48 -60 -62 -86 -87 -97 -98 -107 -108 -117 0
-18 -32 -35 -47 -48 -60 -62 -86 -87 -97 -98 -107 -108 -117 0
-17 -33 -34 -47 -49 -60 -62 -86 -87 -97 -98 -107 -108 -117 0
-18 -33 -35 -47 -49 -60 -62 -86 -87 -97 -98 -107 -108 -117 0
-18 -34 -35 -47 -50 -60 -62 -86 -87 -97 -98 -107 -108 -117 0
-17 -33 -34 -48 -49 -60 -63 -86 -87 -97 -98 -107 -108 -117 0
-18 -33 -35 -48 -49 -60 -63 -86 -87 -97 -98 -107 -108 -117 0
-18 -34 -35 -48 -50 -60 -63 -86 -87 -97 -98 -107 -108 -117 0
-18 -34 -35 -49 -50 -60 -64 -86 -87 -97 -98 -107 -108 -117 0
-16 -32 -33 -47 -48 -61 -62 -86 -88 -97 -98 -107 -108 -117 0
-17 -32 -34 -47 -48 -61 -62 -86 -88 -97 -98 -107 -108 -117 0
-18 -32 -35 -47 -48 -61 -62 -86 -88 -97 -98 -107 -108 -117 0
-17 -33 -34 -47 -49 -61 -62 -86 -88 -97 -98 -107 -108 -117 0
-18 -33 -35 -47 -49 -61 -62 -86 -88 -97 -98 -107 -108 -117 0
-18 -34 -35 -47 -50 -61 -62 -86 -88 -97 -98 -107 -108 -117 0
-17 -33 -34 -48 -49 -61 -63 -86 -88 -97 -98 -107 -108 -117 0
-18 -33 -35 -48 -49 -61 -63 -86 -88 -97 -98 -107 -108 -117 0
-18 -34 -35 -48 -50 -61 -63 -86 -88 -97 -98 -107 -108 -117 0
-18 -34 -35 -49 -50 -61 -64 -86 -88 -97 -98 -107 -108 -117 0
-17 -33 -34 -48 -49 -62 -63 -86 -89 -97 -98 -107 -108 -117 0
-18 -33 -35 -48 -49 -62 -63 -86 -89 -97 -98 -107 -108 -117 0
-18 -34 -35 -48 -50 -62 -63 -86 -89 -97 -98 -107 -108 -117 0
-18 -34 -35 -49 -50 -62 -64 -86 -89 -97 -98 -107 -108 -117 0
-18 -34 -35 -49 -50 -63 -64 -86 -90 -97 -98 -107 -108 -117 0
-16 -32 -33 -47 -48 -61 -62 -87 -88 -97 -99 -107 -108 -117 0
-17 -32 -34 -47 -48 -61 -62 -87 -88 -97 -99 -107 -108 -117 0
-18 -32 -35 -47 -48 -61 -62 -87 -88 -97 -99 -107 -108 -117 0
-17 -33 -34 -47 -49 -61 -62 -87 -88 -97 -99 -107 -108 -117 0
-18 -33 -35 -47 -49 -61 -62 -87 -88 -97 -99 -107 -108 -117 0
-18 -34 -35 -47 -50 -61 -62 -87 -88 -97 -99 -107 -108 -117 0
-17 -33 -34 -48 -49 -61 -63 -87 -88 -97 -99 -107 -108 -117 0
-18 -33 -35 -48 -49 -61 -63 -87 -88 -97 -99 -107 -108 -117 0
-18 -34 -35 -48 -50 -61 -63 -87 -88 -97 -99 -107 -108 -117 0
-18 -34 -35 -49 -50 -61 -64 -87 -88 -97 -99 -107 -108 -117 0
-17 -33 -34 -48 -49 -62 -63 -87 -89 -97 -99 -107 -108 -117 0
-18 -33 -35 -48 -49 -62 -63 -87 -89 -97 -99 -107 -108 -117 0
-18 -34 -35 -48 -50 -62 -63 -87 -89 -97 -99 -107 -108 -117 0
-18 -34 -35 -49 -50 -62 -64 -87 -89 -97 -99 -107 -108 -117 0
-18 -34 -35 -49 -50 -63 -64 -87 -90 -97 -99 -107 -108 -117 0
-17 -33 -34 -48 -49 -62 -63 -88 -89 -97 -100 -107 -108 -117 0
-18 -33 -35 -48 -49 -62 -63 -88 -89 -97 -100 -107 -108 -117 0
-18 -34 -35 -48 -50 -62 -63 -88 -89 -97 -100 -107 -108 -117 0
-18 -34 -35 -49 -50 -62 -64 -88 -89 -97 -100 -107 -108 -117 0
-18 -34 -35 -49 -50 -63 -64 -88 -90 -97 -100 -107 -108 -117 0
-18 -34 -35 -49 -50 -63 -64 -89 -90 -97 -101 -107 -108 -117 0
-16 -32 -33 -47 -48 -61 -62 -87 -88 -98 -99 -107 -109 -117 0
-17 -32 -34 -47 -48 -61 -62 -87 -88 -98 -99 -107 -109 -117 0
-18 -32 -35 -47 -48 -61 -62 -87 -88 -98 -99 -107 -109 -117 0
-17 -33 -34 -47 -49 -61 -62 -87 -88 -98 -99 -107 -109 -117 0
-18 -33 -35 -47 -49 -61 -62 -87 -88 -98 -99 -107 -109 -117 0
-18 -34 -35 -47 -50 -61 -62 -87 -88 -98 -99 -107 -109 -117 0
-17 -33 -34 -48 -49 -61 -63 -87 -88 -98 -99 -107 -109 -117 0
-18 -33 -35 -48 -49 -61 -63 -87 -88 -98 -99 -107 -109 -117 0
-18 -34 -35 -48 -50 -61 -63 -87 -88 -98 -99 -107 -109 -117 0
-18 -34 -35 -49 -50 -61 -64 -87 -88 -98 -99 -107 -109 -117 0
-17 -33 -34 -48 -49 -62 -63 -87 -89 -98 -99 -107 -109 -117 0
-18 -33 -35 -48 -49 -62 -63 -87 -89 -98 -99 -107 -109 -117 0
-18 -34 -35 -48 -50 -62 -63 -87 -89 -98 -99 -107 -109 -117 0
-18 -34 -35 -49 -50 -62 -64 -87 -89 -98 -99 -107 -109 -117 0
-18 -34 -35 -49 -50 -63 -64 -87 -90 -98 -99 -107 -109 -117 0
-17 -33 -34 -48 -49 -62 -63 -88 -89 -98 -100 -107 -109 -117 0
-18 -33 -35 -48 -49 -62 -63 -88 -89 -98 -100 -107 -109 -117 0
-18 -34 -35 -48 -50 -62 -63 -88 -89 -98 -100 -107 -109 -117 0
-18 -34 -35 -49 -50 -62 -64 -88 -89 -98 -100 -107 -109 -117 0
-18 -34 -35 -49 -50 -63 -64 -88 -90 -98 -100 -107 -109 -117 0
-18 -34 -35 -49 -50 -63 -64 -89 -90 -98 -101 -107 -109 -117 0
-17 -33 -34 -48 -49 -62 -63 -88 -89 -99 -100 -107 -110 -117 0
-18 -33 -35 -48 -49 -62 -63 -88 -89 -99 -100 -107 -110 -117 0
-18 -34 -35 -48 -50 -62 -63 -88 -89 -99 -100 -107 -110 -117 0
-18 -34 -35 -49 -50 -62 -64 -88 -89 -99 -100 -107 -110 -117 0
-18 -34 -35 -49 -50 -63 -64 -88 -90 -99 -100 -107 -110 -117 0
-18 -34 -35 -49 -50 -63 -64 -89 -90 -99 -101 -107 -110 -117 0
-18 -34 -35 -49 -50 -63 -64 -89 -90 -100 -101 -107 -111 -117 0
-16 -32 -33 -47 -48 -61 -62 -87 -88 -98 -99 -108 -109 -118 0
-17 -32 -34 -47 -48 -61 -62 -87 -88 -98 -99 -108 -109 -118 0
-18 -32 -35 -47 -48 -61 -62 -87 -88 -98 -99 -108 -109 -118 0
-17 -33 -34 -47 -49 -61 -62 -87 -88 -98 -99 -108 -109 -118 0
-18 -33 -35 -47 -49 -61 -62 -87 -88 -98 -99 -108 -109 -118 0
-18 -34 -35 -47 -50 -61 -62 -87 -88 -98 -99 -108 -109 -118 0
-17 -33 -34 -48 -49 -61 -63 -87 -88 -98 -99 -108 -109 -118 0
-18 -33 -35 -48 -49 -61 -63 -87 -88 -98 -99 -108 -109 -118 0
-18 -34 -35 -48 -50 -61 -63 -87 -88 -98 -99 -108 -109 -118 0
-18 -34 -35 -49 -50 -61 -64 -87 -88 -98 -99 -108 -109 -118 0
-17 -33 -34 -48 -49 -62 -63 -87 -89 -98 -99 -108 -109 -118 0
-18 -33 -35 -48 -49 -62 -63 -87 -89 -98 -99 -108 -109 -118 0
-18 -34 -35 -48 -50 -62 -63 -87 -89 -98 -99 -108 -109 -118 0
-18 -34 -35 -49 -50 -62 -64 -87 -89 -98 -99 -108 -109 -118 0
-18 -34 -35 -49 -50 -63 -64 -87 -90 -98 -99 -108 -109 -118 0
-17 -33 -34 -48 -49 -62 -63 -88 -89 -98 -100 -108 -109 -118 0
-18 -33 -35 -48 -49 -62 -63 -88 -89 -98 -100 -108 -109 -118 0
-18 -34 -35 -48 -50 -62 -63 -88 -89 -98 -100 -108 -109 -118 0
-18 -34 -35 -49 -50 -62 -64 -88 -89 -98 -100 -108 -109 -118 0
-18 -34 -35 -49 -50 -63 -64 -88 -90 -98 -100 -108 -109 -118 0
-18 -34 -35 -49 -50 -63 -64 -89 -90 -98 -101 -108 -109 -118 0
-17 -33 -34 -48 -49 -62 -63 -88 -89 -99 -100 -108 -110 -118 0
-18 -33 -35 -48 -49 -62 -63 -88 -89 -99 -100 -108 -110 -118 0
-18 -34 -35 -48 -50 -62 -63 -88 -89 -99 -100 -108 -110 -118 0
-18 -34 -35 -49 -50 -62 -64 -88 -89 -99 -100 -108 -110 -118 0
-18 -34 -35 -49 -50 -63 -64 -88 -90 -99 -100 -108 -110 -118 0
-18 -34 -35 -49 -50 -63 -64 -89 -90 -99 -101 -108 -110 -118 0
-18 -34 -35 -49 -50 -63 -64 -89 -90 -100 -101 -108 -111 -118 0
-17 -33 -34 -48 -49 -62 -63 -88 -89 -99 -100 -109 -110 -119 0
-18 -33 -35 -48 -49 -62 -63 -88 -89 -99 -100 -109 -110 -119 0
-18 -34 -35 -48 -50 -62 -63 -88 -89 -99 -100 -109 -110 -119 0
-18 -34 -35 -49 -50 -62 -64 -88 -89 -99 -100 -109 -110 -119 0
-18 -34 -35 -49 -50 -63 -64 -88 -90 -99 -100 -109 -110 -119 0
-18 -34 -35 -49 -50 -63 -64 -89 -90 -99 -101 -109 -110 -119 0
-18 -34 -35 -49 -50 -63 -64 -89 -90 -100 -101 -109 -111 -119 0
-18 -34 -35 -49 -50 -63 -64 -89 -90 -100 -101 -110 -111 -120 0
-16 -32 -33 -47 -48 -61 -62 -87 -88 -98 -99 -108 -109 -127 0
-17 -32 -34 -47 -48 -61 -62 -87 -88 -98 -99 -108 -109 -127 0
-18 -32 -35 -47 -48 -61 -62 -87 -88 -98 -99 -108 -109 -127 0
-17 -33 -34 -47 -49 -61 -62 -87 -88 -98 -99 -108 -109 -127 0
-18 -33 -35 -47 -49 -61 -62 -87 -88 -98 -99 -108 -109 -127 0
-18 -34 -35 -47 -50 -61 -62 -87 -88 -98 -99 -108 -109 -127 0
-17 -33 -34 -48 -49 -61 -63 -87 -88 -98 -99 -108 -109 -127 0
-18 -33 -35 -48 -49 -61 -63 -87 -88 -98 -99 -108 -109 -127 0
-18 -34 -35 -48 -50 -61 -63 -87 -88 -98 -99 -108 -109 -127 0
-18 -34 -35 -49 -50 -61 -64 -87 -88 -98 -99 -108 -109 -127 0
-17 -33 -34 -48 -49 -62 -63 -87 -89 -98 -99 -108 -109 -127 0
-18 -33 -35 -48 -49 -62 -63 -87 -89 -98 -99 -108 -109 -127 0
-18 -34 -35 -48 -50 -62 -63 -87 -89 -98 -99 -108 -109 -127 0
-18 -34 -35 -49 -50 -62 -64 -87 -89 -98 -99 -108 -109 -127 0
-18 -34 -35 -49 -50 -63 -64 -87 -90 -98 -99 -108 -109 -127 0
-17 -33 -34 -48 -49 -62 -63 -88 -89 -98 -100 -108 -109 -127 0
-18 -33 -35 -48 -49 -62 -63 -88 -89 -98 -100 -108 -109 -127 0
-18 -34 -35 -48 -50 -62 -63 -88 -89 -98 -100 -108 -109 -127 0
-18 -34 -35 -49 -50 -62 -64 -88 -89 -98 -100 -108 -109 -127 0
-18 -34 -35 -49 -50 -63 -64 -88 -90 -98 -100 -108 -109 -127 0
-18 -34 -35 -49 -50 -63 -64 -89 -90 -98 -101 -108 -109 -127 0
-17 -33 -34 -48 -49 -62 -63 -88 -89 -99 -100 -108 -110 -127 0
-18 -33 -35 -48 -49 -62 -63 -88 -89 -99 -100 -108 -110 -127 0
-18 -34 -35 -48 -50 -62 -63 -88 -89 -99 -100 -108 -110 -127 0
-18 -34 -35 -49 -50 -62 -64 -88 -89 -99 -100 -108 -110 -127 0
-18 -34 -35 -49 -50 -63 -64 -88 -90 -99 -100 -108 -110 -127 0
-18 -34 -35 -49 -50 -63 -64 -89 -90 -99 -101 -108 -110 -127 0
-18 -34 -35 -49 -50 -63 -64 -89 -90 -100 -101 -108 -111 -127 0
-17 -33 -34 -48 -49 -62 -63 -88 -89 -99 -100 -109 -110 -128 0
-18 -33 -35 -48 -49 -62 -63 -88 -89 -99 -100 -109 -110 -128 0
-18 -34 -35 -48 -50 -62 -63 -88 -89 -99 -100 -109 -110 -128 0
-18 -34 -35 -49 -50 -62 -64 -88 -89 -99 -100 -109 -110 -128 0
-18 -34 -35 -49 -50 -63 -64 -88 -90 -99 -100 -109 -110 -128 0
-18 -34 -35 -49 -50 -63 -64 -89 -90 -99 -101 -109 -110 -128 0
-18 -34 -35 -49 -50 -63 -64 -89 -90 -100 -101 -109 -111 -128 0
-18 -34 -35 -49 -50 -63 -64 -89 -90 -100 -101 -110 -111 -129 0
-17 -33 -34 -48 -49 -62 -63 -88 -89 -99 -100 -109 -110 -136 0
-18 -33 -35 -48 -49 -62 -63 -88 -89 -99 -100 -109 -110 -136 0
-18 -34 -35 -48 -50 -62 -63 -88 -89 -99 -100 -109 -110 -136 0
-18 -34 -35 -49 -50 -62 -64 -88 -89 -99 -100 -109 -110 -136 0
-18 -34 -35 -49 -50 -63 -64 -88 -90 -99 -100 -109 -110 -136 0
-18 -34 -35 -49 -50 -63 -64 -89 -90 -99 -101 -109 -110 -136 0
-18 -34 -35 -49 -50 -63 -64 -89 -90 -100 -101 -109 -111 -136 0
-18 -34 -35 -49 -50 -63 -64 -89 -90 -100 -101 -110 -111 -137 0
-18 -34 -35 -49 -50 -63 -64 -89 -90 -100 -101 -110 -111 -144 0
-16 -32 -33 -47 -48 -61 -62 -87 -88 -98 -99 -118 -119 -127 0
-17 -32 -34 -47 -48 -61 -62 -87 -88 -98 -99 -118 -119 -127 0
-18 -32 -35 -47 -48 -61 -62 -87 -88 -98 -99 -118 -119 -127 0
-17 -33 -34 -47 -49 -61 -62 -87 -88 -98 -99 -118 -119 -127 0
-18 -33 -35 -47 -49 -61 -62 -87 -88 -98 -99 -118 -119 -127 0
-18 -34 -35 -47 -50 -61 -62 -87 -88 -98 -99 -118 -119 -127 0
-17 -33 -34 -48 -49 -61 -63 -87 -88 -98 -99 -118 -119 -127 0
-18 -33 -35 -48 -49 -61 -63 -87 -88 -98 -99 -118 -119 -127 0
-18 -34 -35 -48 -50 -61 -63 -87 -88 -98 -99 -118 -119 -127 0
-18 -34 -35 -49 -50 -61 -64 -87 -88 -98 -99 -118 -119 -127 0
-17 -33 -34 -48 -49 -62 -63 -87 -89 -98 -99 -118 -119 -127 0
-18 -33 -35 -48 -49 -62 -63 -87 -89 -98 -99 -118 -119 -127 0
-18 -34 -35 -48 -50 -62 -63 -87 -89 -98 -99 -118 -119 -127 0
-18 -34 -35 -49 -50 -62 -64 -87 -89 -98 -99 -118 -119 -127 0
-18 -34 -35 -49 -50 -63 -64 -87 -90 -98 -99 -118 -119 -127 0
-17 -33 -34 -48 -49 -62 -63 -88 -89 -98 -100 -118 -119 -127 0
-18 -33 -35 -48 -49 -62 -63 -88 -89 -98 -100 -118 -119 -127 0
-18 -34 -35 -48 -50 -62 -63 -88 -89 -98 -100 -118 -119 -127 0
-18 -34 -35 -49 -50 -62 -64 -88 -89 -98 -100 -118 -119 -127 0
-18 -34 -35 -49 -50 -63 -64 -88 -90 -98 -100 -118 -119 -127 0
-18 -34 -35 -49 -50 -63 -64 -89 -90 -98 -101 -118 -119 -127 0
-17 -33 -34 -48 -49 -62 -63 -88 -89 -99 -100 -118 -120 -127 0
-18 -33 -35 -48 -49 -62 -63 -88 -89 -99 -100 -118 -120 -127 0
-18 -34 -35 -48 -50 -62 -63 -88 -89 -99 -100 -118 -120 -127 0
-18 -34 -35 -49 -50 -62 -64 -88 -89 -99 -100 -118 -120 -127 0
-18 -34 -35 -49 -50 -63 -64 -88 -90 -99 -100 -118 -120 -127 0
-18 -34 -35 -49 -50 -63 -64 -89 -90 -99 -101 -118 -120 -127 0
-18 -34 -35 -49 -50 -63 -64 -89 -90 -100 -101 -118 -121 -127 0
-17 -33 -34 -48 -49 -62 -63 -88 -89 -99 -100 -119 -120 -128 0
-18 -33 -35 -48 -49 -62 -63 -88 -89 -99 -100 -119 -120 -128 0
-18 -34 -35 -48 -50 -62 -63 -88 -89 -99 -100 -119 -120 -128 0
-18 -34 -35 -49 -50 -62 -64 -88 -89 -99 -100 -119 -120 -128 0
-18 -34 -35 -49 -50 -63 -64 -88 -90 -99 -100 -119 -120 -128 0
-18 -34 -35 -49 -50 -63 -64 -89 -90 -99 -101 -119 -120 -128 0
-18 -34 -35 -49 -50 -63 -64 -89 -90 -100 -101 -119 -121 -128 0
-18 -34 -35 -49 -50 -63 -64 -89 -90 -100 -101 -120 -121 -129 0
-17 -33 -34 -48 -49 -62 -63 -88 -89 -99 -100 -119 -120 -136 0
-18 -33 -35 -48 -49 -62 -63 -88 -89 -99 -100 -119 -120 -136 0
-18 -34 -35 -48 -50 -62 -63 -88 -89 -99 -100 -119 -120 -136 0
-18 -34 -35 -49 -50 -62 -64 -88 -89 -99 -100 -119 -120 -136 0
-18 -34 -35 -49 -50 -63 -64 -88 -90 -99 -100 -119 -120 -136 0
-18 -34 -35 -49 -50 -63 -64 -89 -90 -99 -101 -119 -120 -136 0
-18 -34 -35 -49 -50 -63 -64 -89 -90 -100 -101 -119 -121 -136 0
-18 -34 -35 -49 -50 -63 -64 -89 -90 -100 -101 -120 -121 -137 0
-18 -34 -35 -49 -50 -63 -64 -89 -90 -100 -101 -120 -121 -144 0
-17 -33 -34 -48 -49 -62 -63 -88 -89 -99 -100 -128 -129 -136 0
-18 -33 -35 -48 -49 -62 -63 -88 -89 -99 -100 -128 -129 -136 0
-18 -34 -35 -48 -50 -62 -63 -88 -89 -99 -100 -128 -129 -136 0
-18 -34 -35 -49 -50 -62 -64 -88 -89 -99 -100 -128 -129 -136 0
-18 -34 -35 -49 -50 -63 -64 -88 -90 -99 -100 -128 -129 -136 0
-18 -34 -35 -49 -50 -63 -64 -89 -90 -99 -101 -128 -129 -136 0
-18 -34 -35 -49 -50 -63 -64 -89 -90 -100 -101 -128 -130 -136 0
-18 -34 -35 -49 -50 -63 -64 -89 -90 -100 -101 -129 -130 -137 0
-18 -34 -35 -49 -50 -63 -64 -89 -90 -100 -101 -129 -130 -144 0
-18 -34 -35 -49 -50 -63 -64 -89 -90 -100 -101 -137 -138 -144 0
-16 -32 -33 -47 -48 -61 -62 -87 -88 -109 -110 -118 -119 -127 0
-17 -32 -34 -47 -48 -61 -62 -87 -88 -109 -110 -118 -119 -127 0
-18 -32 -35 -47 -48 -61 -62 -87 -88 -109 -110 -118 -119 -127 0
-17 -33 -34 -47 -49 -61 -62 -87 -88 -109 -110 -118 -119 -127 0
-18 -33 -35 -47 -49 -61 -62 -87 -88 -109 -110 -118 -119 -127 0
-18 -34 -35 -47 -50 -61 -62 -87 -88 -109 -110 -118 -119 -127 0
-17 -33 -34 -48 -49 -61 -63 -87 -88 -109 -110 -118 -119 -127 0
-18 -33 -35 -48 -49 -61 -63 -87 -88 -109 -110 -118 -119 -127 0
-18 -34 -35 -48 -50 -61 -63 -87 -88 -109 -110 -118 -119 -127 0
-18 -34 -35 -49 -50 -61 -64 -87 -88 -109 -110 -118 -119 -127 0
-17 -33 -34 -48 -49 -62 -63 -87 -89 -109 -110 -118 -119 -127 0
-18 -33 -35 -48 -49 -62 -63 -87 -89 -109 -110 -118 -119 -127 0
-18 -34 -35 -48 -50 -62 -63 -87 -89 -109 -110 -118 -119 -127 0
-18 -34 -35 -49 -50 -62 -64 -87 -89 -109 -110 -118 -119 -127 0
-18 -34 -35 -49 -50 -63 -64 -87 -90 -109 -110 -118 -119 -127 0
-17 -33 -34 -48 -49 -62 -63 -88 -89 -109 -111 -118 -119 -127 0
-18 -33 -35 -48 -49 -62 -63 -88 -89 -109 -111 -118 -119 -127 0
-18 -34 -35 -48 -50 -62 -63 -88 -89 -109 -111 -118 -119 -127 0
-18 -34 -35 -49 -50 -62 -64 -88 -89 -109 -111 -118 -119 -127 0
-18 -34 -35 -49 -50 -63 -64 -88 -90 -109 -111 -118 -119 -127 0
-18 -34 -35 -49 -50 -63 -64 -89 -90 -109 -112 -118 -119 -127 0
-17 -33 -34 -48 -49 -62 -63 -88 -89 -110 -111 -118 -120 -127 0
-18 -33 -35 -48 -49 -62 -63 -88 -89 -110 -111 -118 -120 -127 0
-18 -34 -35 -48 -50 -62 -63 -88 -89 -110 -111 -118 -120 -127 0
-18 -34 -35 -49 -50 -62 -64 -88 -89 -110 -111 -118 -120 -127 0
-18 -34 -35 -49 -50 -63 -64 -88 -90 -110 -111 -118 -120 -127 0
-18 -34 -35 -49 -50 -63 -64 -89 -90 -110 -112 -118 -120 -127 0
-18 -34 -35 -49 -50 -63 -64 -89 -90 -111 -112 -118 -121 -127 0
-17 -33 -34 -48 -49 -62 -63 -88 -89 -110 -111 -119 -120 -128 0
-18 -33 -35 -48 -49 -62 -63 -88 -89 -110 -111 -119 -120 -128 0
-18 -34 -35 -48 -50 -62 -63 -88 -89 -110 -111 -119 -120 -128 0
-18 -34 -35 -49 -50 -62 -64 -88 -89 -110 -111 -119 -120 -128 0
-18 -34 -35 -49 -50 -63 -64 -88 -90 -110 -111 -119 -120 -128 0
-18 -34 -35 -49 -50 -63 -64 -89 -90 -110 -112 -119 -120 -128 0
-18 -34 -35 -49 -50 -63 -64 -89 -90 -111 -112 -119 -121 -128 0
-18 -34 -35 -49 -50 -63 -64 -89 -90 -111 -112 -120 -121 -129 0
-17 -33 -34 -48 -49 -62 -63 -88 -89 -110 -111 -119 -120 -136 0
-18 -33 -35 -48 -49 -62 -63 -88 -89 -110 -111 -119 -120 -136 0
-18 -34 -35 -48 -50 -62 -63 -88 -89 -110 -111 -119 -120 -136 0
-18 -34 -35 -49 -50 -62 -64 -88 -89 -110 -111 -119 -120 -136 0
-18 -34 -35 -49 -50 -63 -64 -88 -90 -110 -111 -119 -120 -136 0
-18 -34 -35 -49 -50 -63 -64 -89 -90 -110 -112 -119 -120 -136 0
-18 -34 -35 -49 -50 -63 -64 -89 -90 -111 -112 -119 -121 -136 0
-18 -34 -35 -49 -50 -63 -64 -89 -90 -111 -112 -120 -121 -137 0
-18 -34 -35 -49 -50 -63 -64 -89 -90 -111 -112 -120 -121 -144 0
-17 -33 -34 -48 -49 -62 -63 -88 -89 -110 -111 -128 -129 -136 0
-18 -33 -35 -48 -49 -62 -63 -88 -89 -110 -111 -128 -129 -136 0
-18 -34 -35 -48 -50 -62 -63 -88 -89 -110 -111 -128 -129 -136 0
-18 -34 -35 -49 -50 -62 -64 -88 -89 -110 -111 -128 -129 -136 0
-18 -34 -35 -49 -50 -63 -64 -88 -90 -110 -111 -128 -129 -136 0
-18 -34 -35 -49 -50 -63 -64 -89 -90 -110 -112 -128 -129 -136 0
-18 -34 -35 -49 -50 -63 -64 -89 -90 -111 -112 -128 -130 -136 0
-18 -34 -35 -49 -50 -63 -64 -89 -90 -111 -112 -129 -130 -137 0
-18 -34 -35 -49 -50 -63 -64 -89 -90 -111 -112 -129 -130 -144 0
-18 -34 -35 -49 -50 -63 -64 -89 -90 -111 -112 -137 -138 -144 0
-17 -33 -34 -48 -49 -62 -63 -88 -89 -120 -121 -128 -129 -136 0
-18 -33 -35 -48 -49 -62 -63 -88 -89 -120 -121 -128 -129 -136 0
-18 -34 -35 -48 -50 -62 -63 -88 -89 -120 -121 -128 -129 -136 0
-18 -34 -35 -49 -50 -62 -64 -88 -89 -120 -121 -128 -129 -136 0
-18 -34 -35 -49 -50 -63 -64 -88 -90 -120 -121 -128 -129 -136 0
-18 -34 -35 -49 -50 -63 -64 -89 -90 -120 -122 -128 -129 -136 0
-18 -34 -35 -49 -50 -63 -64 -89 -90 -121 -122 -128 -130 -136 0
-18 -34 -35 -49 -50 -63 -64 -89 -90 -121 -122 -129 -130 -137 0
-18 -34 -35 -49 -50 -63 -64 -89 -90 -121 -122 -129 -130 -144 0
-18 -34 -35 -49 -50 -63 -64 -89 -90 -121 -122 -137 -138 -144 0
-18 -34 -35 -49 -50 -63 -64 -89 -90 -130 -131 -137 -138 -144 0
-16 -32 -33 -47 -48 -61 -62 -99 -100 -109 -110 -118 -119 -127 0
-17 -32 -34 -47 -48 -61 -62 -99 -100 -109 -110 -118 -119 -127 0
-18 -32 -35 -47 -48 -61 -62 -99 -100 -109 -110 -118 -119 -127 0
-17 -33 -34 -47 -49 -61 -62 -99 -100 -109 -110 -118 -119 -127 0
-18 -33 -35 -47 -49 -61 -62 -99 -100 -109 -110 -118 -119 -127 0
-18 -34 -35 -47 -50 -61 -62 -99 -100 -109 -110 -118 -119 -127 0
-17 -33 -34 -48 -49 -61 -63 -99 -100 -109 -110 -118 -119 -127 0
-18 -33 -35 -48 -49 -61 -63 -99 -100 -109 -110 -118 -119 -127 0
-18 -34 -35 -48 -50 -61 -63 -99 -100 -109 -110 -118 -119 -127 0
-18 -34 -35 -49 -50 -61 -64 -99 -100 -109 -110 -118 -119 -127 0
-17 -33 -34 -48 -49 -62 -63 -99 -101 -109 -110 -118 -119 -127 0
-18 -33 -35 -48 -49 -62 -63 -99 -101 -109 -110 -118 -119 -127 0
-18 -34 -35 -48 -50 -62 -63 -99 -101 -109 -110 -118 -119 -127 0
-18 -34 -35 -49 -50 -62 -64 -99 -101 -109 -110 -118 -119 -127 0
-18 -34 -35 -49 -50 -63 -64 -99 -102 -109 -110 -118 -119 -127 0
-17 -33 -34 -48 -49 -62 -63 -100 -101 -109 -111 -118 -119 -127 0
-18 -33 -35 -48 -49 -62 -63 -100 -101 -109 -111 -118 -119 -127 0
-18 -34 -35 -48 -50 -62 -63 -100 -101 -109 -111 -118 -119 -127 0
-18 -34 -35 -49 -50 -62 -64 -100 -101 -109 -111 -118 -119 -127 0
-18 -34 -35 -49 -50 -63 -64 -100 -102 -109 -111 -118 -119 -127 0
-18 -34 -35 -49 -50 -63 -64 -101 -102 -109 -112 -118 -119 -127 0
-17 -33 -34 -48 -49 -62 -63 -100 -101 -110 -111 -118 -120 -127 0
-18 -33 -35 -48 -49 -62 -63 -100 -101 -110 -111 -118 -120 -127 0
-18 -34 -35 -48 -50 -62 -63 -100 -101 -110 -111 -118 -120 -127 0
-18 -34 -35 -49 -50 -62 -64 -100 -101 -110 -111 -118 -120 -127 0
-18 -34 -35 -49 -50 -63 -64 -100 -102 -110 -111 -118 -120 -127 0
-18 -34 -35 -49 -50 -63 -64 -101 -102 -110 -112 -118 -120 -127 0
-18 -34 -35 -49 -50 -63 -64 -101 -102 -111 -112 -118 -121 -127 0
-17 -33 -34 -48 -49 -62 -63 -100 -101 -110 -111 -119 -120 -128 0
-18 -33 -35 -48 -49 -62 -63 -100 -101 -110 -111 -119 -120 -128 0
-18 -34 -35 -48 -50 -62 -63 -100 -101 -110 -111 -119 -120 -128 0
-18 -34 -35 -49 -50 -62 -64 -100 -101 -110 -111 -119 -120 -128 0
-18 -34 -35 -49 -50 -63 -64 -100 -102 -110 -111 -119 -120 -128 0
-18 -34 -35 -49 -50 -63 -64 -101 -102 -110 -112 -119 -120 -128 0
-18 -34 -35 -49 -50 -63 -64 -101 -102 -111 -112 -119 -121 -128 0
-18 -34 -35 -49 -50 -63 -64 -101 -102 -111 -112 -120 -121 -129 0
-17 -33 -34 -48 -49 -62 -63 -100 -101 -110 -111 -119 -120 -136 0
-18 -33 -35 -48 -49 -62 -63 -100 -101 -110 -111 -119 -120 -136 0
-18 -34 -35 -48 -50 -62 -63 -100 -101 -110 -111 -119 -120 -136 0
-18 -34 -35 -49 -50 -62 -64 -100 -101 -110 -111 -119 -120 -136 0
-18 -34 -35 -49 -50 -63 -64 -100 -102 -110 -111 -119 -120 -136 0
-18 -34 -35 -49 -50 -63 -64 -101 -102 -110 -112 -119 -120 -136 0
-18 -34 -35 -49 -50 -63 -64 -101 -102 -111 -112 -119 -121 -136 0
-18 -34 -35 -49 -50 -63 -64 -101 -102 -111 -112 -120 -121 -137 0
-18 -34 -35 -49 -50 -63 -64 -101 -102 -111 -112 -120 -121 -144 0
-17 -33 -34 -48 -49 -62 -63 -100 -101 -110 -111 -128 -129 -136 0
-18 -33 -35 -48 -49 -62 -63 -100 -101 -110 -111 -128 -129 -136 0
-18 -34 -35 -48 -50 -62 -63 -100 -101 -110 -111 -128 -129 -136 0
-18 -34 -35 -49 -50 -62 -64 -100 -101 -110 -111 -128 -129 -136 0
-18 -34 -35 -49 -50 -63 -64 -100 -102 -110 -111 -128 -129 -136 0
-18 -34 -35 -49 -50 -63 -64 -101 -102 -110 -112 -128 -129 -136 0
-18 -34 -35 -49 -50 -63 -64 -101 -102 -111 -112 -128 -130 -136 0
-18 -34 -35 -49 -50 -63 -64 -101 -102 -111 -112 -129 -130 -137 0
-18 -34 -35 -49 -50 -63 -64 -101 -102 -111 -112 -129 -130 -144 0
-18 -34 -35 -49 -50 -63 -64 -101 -102 -111 -112 -137 -138 -144 0
-17 -33 -34 -48 -49 -62 -63 -100 -101 -120 -121 -128 -129 -136 0
-18 -33 -35 -48 -49 -62 -63 -100 -101 -120 -121 -128 -129 -136 0
-18 -34 -35 -48 -50 -62 -63 -100 -101 -120 -121 -128 -129 -136 0
-18 -34 -35 -49 -50 -62 -64 -100 -101 -120 -121 -128 -129 -136 0
-18 -34 -35 -49 -50 -63 -64 -100 -102 -120 -121 -128 -129 -136 0
-18 -34 -35 -49 -50 -63 -64 -101 -102 -120 -122 -128 -129 -136 0
-18 -34 -35 -49 -50 -63 -64 -101 -102 -121 -122 -128 -130 -136 0
-18 -34 -35 -49 -50 -63 -64 -101 -102 -121 -122 -129 -130 -137 0
-18 -34 -35 -49 -50 -63 -64 -101 -102 -121 -122 -129 -130 -144 0
-18 -34 -35 -49 -50 -63 -64 -101 -102 -121 -122 -137 -138 -144 0
-18 -34 -35 -49 -50 -63 -64 -101 -102 -130 -131 -137 -138 -144 0
-17 -33 -34 -48 -49 -62 -63 -111 -112 -120 -121 -128 -129 -136 0
-18 -33 -35 -48 -49 -62 -63 -111 -112 -120 -121 -128 -129 -136 0
-18 -34 -35 -48 -50 -62 -63 -111 -112 -120 -121 -128 -129 -136 0
-18 -34 -35 -49 -50 -62 -64 -111 -112 -120 -121 -128 -129 -136 0
-18 -34 -35 -49 -50 -63 -64 -111 -113 -120 -121 -128 -129 -136 0
-18 -34 -35 -49 -50 -63 -64 -112 -113 -120 -122 -128 -129 -136 0
-18 -34 -35 -49 -50 -63 -64 -112 -113 -121 -122 -128 -130 -136 0
-18 -34 -35 -49 -50 -63 -64 -112 -113 -121 -122 -129 -130 -137 0
-18 -34 -35 -49 -50 -63 -64 -112 -113 -121 -122 -129 -130 -144 0
-18 -34 -35 -49 -50 -63 -64 -112 -113 -121 -122 -137 -138 -144 0
-18 -34 -35 -49 -50 -63 -64 -112 -113 -130 -131 -137 -138 -144 0
-18 -34 -35 -49 -50 -63 -64 -122 -123 -130 -131 -137 -138 -144 0
-15 -31 -32 -46 -47 -74 -75 -86 -87 -97 -98 -107 -108 -117 0
-16 -31 -33 -46 -47 -74 -75 -86 -87 -97 -98 -107 -108 -117 0
-17 -31 -34 -46 -47 -74 -75 -86 -87 -97 -98 -107 -108 -117 0
-18 -31 -35 -46 -47 -74 -75 -86 -87 -97 -98 -107 -108 -117 0
-16 -32 -33 -46 -48 -74 -75 -86 -87 -97 -98 -107 -108 -117 0
-17 -32 -34 -46 -48 -74 -75 -86 -87 -97 -98 -107 -108 -117 0
-18 -32 -35 -46 -48 -74 -75 -86 -87 -97 -98 -107 -108 -117 0
-17 -33 -34 -46 -49 -74 -75 -86 -87 -97 -98 -107 -108 -117 0
-18 -33 -35 -46 -49 -74 -75 -86 -87 -97 -98 -107 -108 -117 0
-18 -34 -35 -46 -50 -74 -75 -86 -87 -97 -98 -107 -108 -117 0
-16 -32 -33 -47 -48 -74 -76 -86 -87 -97 -98 -107 -108 -117 0
-17 -32 -34 -47 -48 -74 -76 -86 -87 -97 -98 -107 -108 -117 0
-18 -32 -35 -47 -48 -74 -76 -86 -87 -97 -98 -107 -108 -117 0
-17 -33 -34 -47 -49 -74 -76 -86 -87 -97 -98 -107 -108 -117 0
-18 -33 -35 -47 -49 -74 -76 -86 -87 -97 -98 -107 -108 -117 0
-18 -34 -35 -47 -50 -74 -76 -86 -87 -97 -98 -107 -108 -117 0
-17 -33 -34 -48 -49 -74 -77 -86 -87 -97 -98 -107 -108 -117 0
-18 -33 -35 -48 -49 -74 -77 -86 -87 -97 -98 -107 -108 -117 0
-18 -34 -35 -48 -50 -74 -77 -86 -87 -97 -98 -107 -108 -117 0
-18 -34 -35 -49 -50 -74 -78 -86 -87 -97 -98 -107 -108 -117 0
-16 -32 -33 -47 -48 -75 -76 -86 -88 -97 -98 -107 -108 -117 0
-17 -32 -34 -47 -48 -75 -76 -86 -88 -97 -98 -107 -108 -117 0
-18 -32 -35 -47 -48 -75 -76 -86 -88 -97 -98 -107 -108 -117 0
-17 -33 -34 -47 -49 -75 -76 -86 -88 -97 -98 -107 -108 -117 0
-18 -33 -35 -47 -49 -75 -76 -86 -88 -97 -98 -107 -108 -117 0
-18 -34 -35 -47 -50 -75 -76 -86 -88 -97 -98 -107 -108 -117 0
-17 -33 -34 -48 -49 -75 -77 -86 -88 -97 -98 -107 -108 -117 0
-18 -33 -35 -48 -49 -75 -77 -86 -88 -97 -98 -107 -108 -117 0
-18 -34 -35 -48 -50 -75 -77 -86 -88 -97 -98 -107 -108 -117 0
-18 -34 -35 -49 -50 -75 -78 -86 -88 -97 -98 -107 -108 -117 0
-17 -33 -34 -48 -49 -76 -77 -86 -89 -97 -98 -107 -108 -117 0
-18 -33 -35 -48 -49 -76 -77 -86 -89 -97 -98 -107 -108 -117 0
-18 -34 -35 -48 -50 -76 -77 -86 -89 -97 -98 -107 -108 -117 0
-18 -34 -35 -49 -50 -76 -78 -86 -89 -97 -98 -107 -108 -117 0
-18 -34 -35 -49 -50 -77 -78 -86 -90 -97 -98 -107 -108 -117 0
-16 -32 -33 -47 -48 -75 -76 -87 -88 -97 -99 -107 -108 -117 0
-17 -32 -34 -47 -48 -75 -76 -87 -88 -97 -99 -107 -108 -117 0
-18 -32 -35 -47 -48 -75 -76 -87 -88 -97 -99 -107 -108 -117 0
-17 -33 -34 -47 -49 -75 -76 -87 -88 -97 -99 -107 -108 -117 0
-18 -33 -35 -47 -49 -75 -76 -87 -88 -97 -99 -107 -108 -117 0
-18 -34 -35 -47 -50 -75 -76 -87 -88 -97 -99 -107 -108 -117 0
-17 -33 -34 -48 -49 -75 -77 -87 -88 -97 -99 -107 -108 -117 0
-18 -33 -35 -48 -49 -75 -77 -87 -88 -97 -99 -107 -108 -117 0
-18 -34 -35 -48 -50 -75 -77 -87 -88 -97 -99 -107 -108 -117 0
-18 -34 -35 -49 -50 -75 -78 -87 -88 -97 -99 -107 -108 -117 0
-17 -33 -34 -48 -49 -76 -77 -87 -89 -97 -99 -107 -108 -117 0
-18 -33 -35 -48 -49 -76 -77 -87 -89 -97 -99 -107 -108 -117 0
-18 -34 -35 -48 -50 -76 -77 -87 -89 -97 -99 -107 -108 -117 0
-18 -34 -35 -49 -50 -76 -78 -87 -89 -97 -99 -107 -108 -117 0
-18 -34 -35 -49 -50 -77 -78 -87 -90 -97 -99 -107 -108 -117 0
-17 -33 -34 -48 -49 -76 -77 -88 -89 -97 -100 -107 -108 -117 0
-18 -33 -35 -48 -49 -76 -77 -88 -89 -97 -100 -107 -108 -117 0
-18 -34 -35 -48 -50 -76 -77 -88 -89 -97 -100 -107 -108 -117 0
-18 -34 -35 -49 -50 -76 -78 -88 -89 -97 -100 -107 -108 -117 0
-18 -34 -35 -49 -50 -77 -78 -88 -90 -97 -100 -107 -108 -117 0
-18 -34 -35 -49 -50 -77 -78 -89 -90 -97 -101 -107 -108 -117 0
-16 -32 -33 -47 -48 -75 -76 -87 -88 -98 -99 -107 -109 -117 0
-17 -32 -34 -47 -48 -75 -76 -87 -88 -98 -99 -107 -109 -117 0
-18 -32 -35 -47 -48 -75 -76 -87 -88 -98 -99 -107 -109 -117 0
-17 -33 -34 -47 -49 -75 -76 -87 -88 -98 -99 -107 -109 -117 0
-18 -33 -35 -47 -49 -75 -76 -87 -88 -98 -99 -107 -109 -117 0
-18 -34 -35 -47 -50 -75 -76 -87 -88 -98 -99 -107 -109 -117 0
-17 -33 -34 -48 -49 -75 -77 -87 -88 -98 -99 -107 -109 -117 0
-18 -33 -35 -48 -49 -75 -77 -87 -88 -98 -99 -107 -109 -117 0
-18 -34 -35 -48 -50 -75 -77 -87 -88 -98 -99 -107 -109 -117 0
-18 -34 -35 -49 -50 -75 -78 -87 -88 -98 -99 -107 -109 -117 0
-17 -33 -34 -48 -49 -76 -77 -87 -89 -98 -99 -107 -109 -117 0
-18 -33 -35 -48 -49 -76 -77 -87 -89 -98 -99 -107 -109 -117 0
-18 -34 -35 -48 -50 -76 -77 -87 -89 -98 -99 -107 -109 -117 0
-18 -34 -35 -49 -50 -76 -78 -87 -89 -98 -99 -107 -109 -117 0
-18 -34 -35 -49 -50 -77 -78 -87 -90 -98 -99 -107 -109 -117 0
-17 -33 -34 -48 -49 -76 -77 -88 -89 -98 -100 -107 -109 -117 0
-18 -33 -35 -48 -49 -76 -77 -88 -89 -98 -100 -107 -109 -117 0
-18 -34 -35 -48 -50 -76 -77 -88 -89 -98 -100 -107 -109 -117 0
-18 -34 -35 -49 -50 -76 -78 -88 -89 -98 -100 -107 -109 -117 0
-18 -34 -35 -49 -50 -77 -78 -88 -90 -98 -100 -107 -109 -117 0
-18 -34 -35 -49 -50 -77 -78 -89 -90 -98 -101 -107 -109 -117 0
-17 -33 -34 -48 -49 -76 -77 -88 -89 -99 -100 -107 -110 -117 0
-18 -33 -35 -48 -49 -76 -77 -88 -89 -99 -100 -107 -110 -117 0
-18 -34 -35 -48 -50 -76 -77 -88 -89 -99 -100 -107 -110 -117 0
-18 -34 -35 -49 -50 -76 -78 -88 -89 -99 -100 -107 -110 -117 0
-18 -34 -35 -49 -50 -77 -78 -88 -90 -99 -100 -107 -110 -117 0
-18 -34 -35 -49 -50 -77 -78 -89 -90 -99 -101 -107 -110 -117 0
-18 -34 -35 -49 -50 -77 -78 -89 -90 -100 -101 -107 -111 -117 0
-16 -32 -33 -47 -48 -75 -76 -87 -88 -98 -99 -108 -109 -118 0
-17 -32 -34 -47 -48 -75 -76 -87 -88 -98 -99 -108 -109 -118 0
-18 -32 -35 -47 -48 -75 -76 -87 -88 -98 -99 -108 -109 -118 0
-17 -33 -34 -47 -49 -75 -76 -87 -88 -98 -99 -108 -109 -118 0
-18 -33 -35 -47 -49 -75 -76 -87 -88 -98 -99 -108 -109 -118 0
-18 -34 -35 -47 -50 -75 -76 -87 -88 -98 -99 -108 -109 -118 0
-17 -33 -34 -48 -49 -75 -77 -87 -88 -98 -99 -108 -109 -118 0
-18 -33 -35 -48 -49 -75 -77 -87 -88 -98 -99 -108 -109 -118 0
-18 -34 -35 -48 -50 -75 -77 -87 -88 -98 -99 -108 -109 -118 0
-18 -34 -35 -49 -50 -75 -78 -87 -88 -98 -99 -108 -109 -118 0
-17 -33 -34 -48 -49 -76 -77 -87 -89 -98 -99 -108 -109 -118 0
-18 -33 -35 -48 -49 -76 -77 -87 -89 -98 -99 -108 -109 -118 0
-18 -34 -35 -48 -50 -76 -77 -87 -89 -98 -99 -108 -109 -118 0
-18 -34 -35 -49 -50 -76 -78 -87 -89 -98 -99 -108 -109 -118 0
-18 -34 -35 -49 -50 -77 -78 -87 -90 -98 -99 -108 -109 -118 0
-17 -33 -34 -48 -49 -76 -77 -88 -89 -98 -100 -108 -109 -118 0
-18 -33 -35 -48 -49 -76 -77 -88 -89 -98 -100 -108 -109 -118 0
-18 -34 -35 -48 -50 -76 -77 -88 -89 -98 -100 -108 -109 -118 0
-18 -34 -35 -49 -50 -76 -78 -88 -89 -98 -100 -108 -109 -118 0
-18 -34 -35 -49 -50 -77 -78 -88 -90 -98 -100 -108 -109 -118 0
-18 -34 -35 -49 -50 -77 -78 -89 -90 -98 -101 -108 -109 -118 0
-17 -33 -34 -48 -49 -76 -77 -88 -89 -99 -100 -108 -110 -118 0
-18 -33 -35 -48 -49 -76 -77 -88 -89 -99 -100 -108 -110 -118 0
-18 -34 -35 -48 -50 -76 -77 -88 -89 -99 -100 -108 -110 -118 0
-18 -34 -35 -49 -50 -76 -78 -88 -89 -99 -100 -108 -110 -118 0
-18 -34 -35 -49 -50 -77 -78 -88 -90 -99 -100 -108 -110 -118 0
-18 -34 -35 -49 -50 -77 -78 -89 -90 -99 -101 -108 -110 -118 0
-18 -34 -35 -49 -50 -77 -78 -89 -90 -100 -101 -108 -111 -118 0
-17 -33 -34 -48 -49 -76 -77 -88 -89 -99 -100 -109 -110 -119 0
-18 -33 -35 -48 -49 -76 -77 -88 -89 -99 -100 -109 -110 -119 0
-18 -34 -35 -48 -50 -76 -77 -88 -89 -99 -100 -109 -110 -119 0
-18 -34 -35 -49 -50 -76 -78 -88 -89 -99 -100 -109 -110 -119 0
-18 -34 -35 -49 -50 -77 -78 -88 -90 -99 -100 -109 -110 -119 0
-18 -34 -35 -49 -50 -77 -78 -89 -90 -99 -101 -109 -110 -119 0
-18 -34 -35 -49 -50 -77 -78 -89 -90 -100 -101 -109 -111 -119 0
-18 -34 -35 -49 -50 -77 -78 -89 -90 -100 -101 -110 -111 -120 0
-16 -32 -33 -47 -48 -75 -76 -87 -88 -98 -99 -108 -109 -127 0
-17 -32 -34 -47 -48 -75 -76 -87 -88 -98 -99 -108 -109 -127 0
-18 -32 -35 -47 -48 -75 -76 -87 -88 -98 -99 -108 -109 -127 0
-17 -33 -34 -47 -49 -75 -76 -87 -88 -98 -99 -108 -109 -127 0
-18 -33 -35 -47 -49 -75 -76 -87 -88 -98 -99 -108 -109 -127 0
-18 -34 -35 -47 -50 -75 -76 -87 -88 -98 -99 -108 -109 -127 0
-17 -33 -34 -48 -49 -75 -77 -87 -88 -98 -99 -108 -109 -127 0
-18 -33 -35 -48 -49 -75 -77 -87 -88 -98 -99 -108 -109 -127 0
-18 -34 -35 -48 -50 -75 -77 -87 -88 -98 -99 -108 -109 -127 0
-18 -34 -35 -49 -50 -75 -78 -87 -88 -98 -99 -108 -109 -127 0
-17 -33 -34 -48 -49 -76 -77 -87 -89 -98 -99 -108 -109 -127 0
-18 -33 -35 -48 -49 -76 -77 -87 -89 -98 -99 -108 -109 -127 0
-18 -34 -35 -48 -50 -76 -77 -87 -89 -98 -99 -108 -109 -127 0
-18 -34 -35 -49 -50 -76 -78 -87 -89 -98 -99 -108 -109 -127 0
-18 -34 -35 -49 -50 -77 -78 -87 -90 -98 -99 -108 -109 -127 0
-17 -33 -34 -48 -49 -76 -77 -88 -89 -98 -100 -108 -109 -127 0
-18 -33 -35 -48 -49 -76 -77 -88 -89 -98 -100 -108 -109 -127 0
-18 -34 -35 -48 -50 -76 -77 -88 -89 -98 -100 -108 -109 -127 0
-18 -34 -35 -49 -50 -76 -78 -88 -89 -98 -100 -108 -109 -127 0
-18 -34 -35 -49 -50 -77 -78 -88 -90 -98 -100 -108 -109 -127 0
-18 -34 -35 -49 -50 -77 -78 -89 -90 -98 -101 -108 -109 -127 0
-17 -33 -34 -48 -49 -76 -77 -88 -89 -99 -100 -108 -110 -127 0
-18 -33 -35 -48 -49 -76 -77 -88 -89 -99 -100 -108 -110 -127 0
-18 -34 -35 -48 -50 -76 -77 -88 -89 -99 -100 -108 -110 -127 0
-18 -34 -35 -49 -50 -76 -78 -88 -89 -99 -100 -108 -110 -127 0
-18 -34 -35 -49 -50 -77 -78 -88 -90 -99 -100 -108 -110 -127 0
-18 -34 -35 -49 -50 -77 -78 -89 -90 -99 -101 -108 -110 -127 0
-18 -34 -35 -49 -50 -77 -78 -89 -90 -100 -101 -108 -111 -127 0
-17 -33 -34 -48 -49 -76 -77 -88 -89 -99 -100 -109 -110 -128 0
-18 -33 -35 -48 -49 -76 -77 -88 -89 -99 -100 -109 -110 -128 0
-18 -34 -35 -48 -50 -76 -77 -88 -89 -99 -100 -109 -110 -128 0
-18 -34 -35 -49 -50 -76 -78 -88 -89 -99 -100 -109 -110 -128 0
-18 -34 -35 -49 -50 -77 -78 -88 -90 -99 -100 -109 -110 -128 0
-18 -34 -35 -49 -50 -77 -78 -89 -90 -99 -101 -109 -110 -128 0
-18 -34 -35 -49 -50 -77 -78 -89 -90 -100 -101 -109 -111 -128 0
-18 -34 -35 -49 -50 -77 -78 -89 -90 -100 -101 -110 -111 -129 0
-17 -33 -34 -48 -49 -76 -77 -88 -89 -99 -100 -109 -110 -136 0
-18 -33 -35 -48 -49 -76 -77 -88 -89 -99 -100 -109 -110 -136 0
-18 -34 -35 -48 -50 -76 -77 -88 -89 -99 -100 -109 -110 -136 0
-18 -34 -35 -49 -50 -76 -78 -88 -89 -99 -100 -109 -110 -136 0
-18 -34 -35 -49 -50 -77 -78 -88 -90 -99 -100 -109 -110 -136 0
-18 -34 -35 -49 -50 -77 -78 -89 -90 -99 -101 -109 -110 -136 0
-18 -34 -35 -49 -50 -77 -78 -89 -90 -100 -101 -109 -111 -136 0
-18 -34 -35 -49 -50 -77 -78 -89 -90 -100 -101 -110 -111 -137 0
-18 -34 -35 -49 -50 -77 -78 -89 -90 -100 -101 -110 -111 -144 0
-16 -32 -33 -47 -48 -75 -76 -87 -88 -98 -99 -118 -119 -127 0
-17 -32 -34 -47 -48 -75 -76 -87 -88 -98 -99 -118 -119 -127 0
-18 -32 -35 -47 -48 -75 -76 -87 -88 -98 -99 -118 -119 -127 0
-17 -33 -34 -47 -49 -75 -76 -87 -88 -98 -99 -118 -119 -127 0
-18 -33 -35 -47 -49 -75 -76 -87 -88 -98 -99 -118 -119 -127 0
-18 -34 -35 -47 -50 -75 -76 -87 -88 -98 -99 -118 -119 -127 0
-17 -33 -34 -48 -49 -75 -77 -87 -88 -98 -99 -118 -119 -127 0
-18 -33 -35 -48 -49 -75 -77 -87 -88 -98 -99 -118 -119 -127 0
-18 -34 -35 -48 -50 -75 -77 -87 -88 -98 -99 -118 -119 -127 0
-18 -34 -35 -49 -50 -75 -78 -87 -88 -98 -99 -118 -119 -127 0
-17 -33 -34 -48 -49 -76 -77 -87 -89 -98 -99 -118 -119 -127 0
-18 -33 -35 -48 -49 -76 -77 -87 -89 -98 -99 -118 -119 -127 0
-18 -34 -35 -48 -50 -76 -77 -87 -89 -98 -99 -118 -119 -127 0
-18 -34 -35 -49 -50 -76 -78 -87 -89 -98 -99 -118 -119 -127 0
-18 -34 -35 -49 -50 -77 -78 -87 -90 -98 -99 -118 -119 -127 0
-17 -33 -34 -48 -49 -76 -77 -88 -89 -98 -100 -118 -119 -127 0
-18 -33 -35 -48 -49 -76 -77 -88 -89 -98 -100 -118 -119 -127 0
-18 -34 -35 -48 -50 -76 -77 -88 -89 -98 -100 -118 -119 -127 0
-18 -34 -35 -49 -50 -76 -78 -88 -89 -98 -100 -118 -119 -127 0
-18 -34 -35 -49 -50 -77 -78 -88 -90 -98 -100 -118 -119 -127 0
-18 -34 -35 -49 -50 -77 -78 -89 -90 -98 -101 -118 -119 -127 0
-17 -33 -34 -48 -49 -76 -77 -88 -89 -99 -100 -118 -120 -127 0
-18 -33 -35 -48 -49 -76 -77 -88 -89 -99 -100 -118 -120 -127 0
-18 -34 -35 -48 -50 -76 -77 -88 -89 -99 -100 -118 -120 -127 0
-18 -34 -35 -49 -50 -76 -78 -88 -89 -99 -100 -118 -120 -127 0
-18 -34 -35 -49 -50 -77 -78 -88 -90 -99 -100 -118 -120 -127 0
-18 -34 -35 -49 -50 -77 -78 -89 -90 -99 -101 -118 -120 -127 0
-18 -34 -35 -49 -50 -77 -78 -89 -90 -100 -101 -118 -121 -127 0
-17 -33 -34 -48 -49 -76 -77 -88 -89 -99 -100 -119 -120 -128 0
-18 -33 -35 -48 -49 -76 -77 -88 -89 -99 -100 -119 -120 -128 0
-18 -34 -35 -48 -50 -76 -77 -88 -89 -99 -100 -119 -120 -128 0
-18 -34 -35 -49 -50 -76 -78 -88 -89 -99 -100 -119 -120 -128 0
-18 -34 -35 -49 -50 -77 -78 -88 -90 -99 -100 -119 -120 -128 0
-18 -34 -35 -49 -50 -77 -78 -89 -90 -99 -101 -119 -120 -128 0
-18 -34 -35 -49 -50 -77 -78 -89 -90 -100 -101 -119 -121 -128 0
-18 -34 -35 -49 -50 -77 -78 -89 -90 -100 -101 -120 -121 -129 0
-17 -33 -34 -48 -49 -76 -77 -88 -89 -99 -100 -119 -120 -136 0
-18 -33 -35 -48 -49 -76 -77 -88 -89 -99 -100 -119 -120 -136 0
-18 -34 -35 -48 -50 -76 -77 -88 -89 -99 -100 -119 -120 -136 0
-18 -34 -35 -49 -50 -76 -78 -88 -89 -99 -100 -119 -120 -136 0
-18 -34 -35 -49 -50 -77 -78 -88 -90 -99 -100 -119 -120 -136 0
-18 -34 -35 -49 -50 -77 -78 -89 -90 -99 -101 -119 -120 -136 0
-18 -34 -35 -49 -50 -77 -78 -89 -90 -100 -101 -119 -121 -136 0
-18 -34 -35 -49 -50 -77 -78 -89 -90 -100 -101 -120 -121 -137 0
-18 -34 -35 -49 -50 -77 -78 -89 -90 -100 -101 -120 -121 -144 0
-17 -33 -34 -48 -49 -76 -77 -88 -89 -99 -100 -128 -129 -136 0
-18 -33 -35 -48 -49 -76 -77 -88 -89 -99 -100 -128 -129 -136 0
-18 -34 -35 -48 -50 -76 -77 -88 -89 -99 -100 -128 -129 -136 0
-18 -34 -35 -49 -50 -76 -78 -88 -89 -99 -100 -128 -129 -136 0
-18 -34 -35 -49 -50 -77 -78 -88 -90 -99 -100 -128 -129 -136 0
-18 -34 -35 -49 -50 -77 -78 -89 -90 -99 -101 -128 -129 -136 0
-18 -34 -35 -49 -50 -77 -78 -89 -90 -100 -101 -128 -130 -136 0
-18 -34 -35 -49 -50 -77 -78 -89 -90 -100 -101 -129 -130 -137 0
-18 -34 -35 -49 -50 -77 -78 -89 -90 -100 -101 -129 -130 -144 0
-18 -34 -35 -49 -50 -77 -78 -89 -90 -100 -101 -137 -138 -144 0
-16 -32 -33 -47 -48 -75 -76 -87 -88 -109 -110 -118 -119 -127 0
-17 -32 -34 -47 -48 -75 -76 -87 -88 -109 -110 -118 -119 -127 0
-18 -32 -35 -47 -48 -75 -76 -87 -88 -109 -110 -118 -119 -127 0
-17 -33 -34 -47 -49 -75 -76 -87 -88 -109 -110 -118 -119 -127 0
-18 -33 -35 -47 -49 -75 -76 -87 -88 -109 -110 -118 -119 -127 0
-18 -34 -35 -47 -50 -75 -76 -87 -88 -109 -110 -118 -119 -127 0
-17 -33 -34 -48 -49 -75 -77 -87 -88 -109 -110 -118 -119 -127 0
-18 -33 -35 -48 -49 -75 -77 -87 -88 -109 -110 -118 -119 -127 0
-18 -34 -35 -48 -50 -75 -77 -87 -88 -109 -110 -118 -119 -127 0
-18 -34 -35 -49 -50 -75 -78 -87 -88 -109 -110 -118 -119 -127 0
-17 -33 -34 -48 -49 -76 -77 -87 -89 -109 -110 -118 -119 -127 0
-18 -33 -35 -48 -49 -76 -77 -87 -89 -109 -110 -118 -119 -127 0
-18 -34 -35 -48 -50 -76 -77 -87 -89 -109 -110 -118 -119 -127 0
-18 -34 -35 -49 -50 -76 -78 -87 -89 -109 -110 -118 -119 -127 0
-18 -34 -35 -49 -50 -77 -78 -87 -90 -109 -110 -118 -119 -127 0
-17 -33 -34 -48 -49 -76 -77 -88 -89 -109 -111 -118 -119 -127 0
-18 -33 -35 -48 -49 -76 -77 -88 -89 -109 -111 -118 -119 -127 0
-18 -34 -35 -48 -50 -76 -77 -88 -89 -109 -111 -118 -119 -127 0
-18 -34 -35 -49 -50 -76 -78 -88 -89 -109 -111 -118 -119 -127 0
-18 -34 -35 -49 -50 -77 -78 -88 -90 -109 -111 -118 -119 -127 0
-18 -34 -35 -49 -50 -77 -78 -89 -90 -109 -112 -118 -119 -127 0
-17 -33 -34 -48 -49 -76 -77 -88 -89 -110 -111 -118 -120 -127 0
-18 -33 -35 -48 -49 -76 -77 -88 -89 -110 -111 -118 -120 -127 0
-18 -34 -35 -48 -50 -76 -77 -88 -89 -110 -111 -118 -120 -127 0
-18 -34 -35 -49 -50 -76 -78 -88 -89 -110 -111 -118 -120 -127 0
-18 -34 -35 -49 -50 -77 -78 -88 -90 -110 -111 -118 -120 -127 0
-18 -34 -35 -49 -50 -77 -78 -89 -90 -110 -112 -118 -120 -127 0
-18 -34 -35 -49 -50 -77 -78 -89 -90 -111 -112 -118 -121 -127 0
-17 -33 -34 -48 -49 -76 -77 -88 -89 -110 -111 -119 -120 -128 0
-18 -33 -35 -48 -49 -76 -77 -88 -89 -110 -111 -119 -120 -128 0
-18 -34 -35 -48 -50 -76 -77 -88 -89 -110 -111 -119 -120 -128 0
-18 -34 -35 -49 -50 -76 -78 -88 -89 -110 -111 -119 -120 -128 0
-18 -34 -35 -49 -50 -77 -78 -88 -90 -110 -111 -119 -120 -128 0
-18 -34 -35 -49 -50 -77 -78 -89 -90 -110 -112 -119 -120 -128 0
-18 -34 -35 -49 -50 -77 -78 -89 -90 -111 -112 -119 -121 -128 0
-18 -34 -35 -49 -50 -77 -78 -89 -90 -111 -112 -120 -121 -129 0
-17 -33 -34 -48 -49 -76 -77 -88 -89 -110 -111 -119 -120 -136 0
-18 -33 -35 -48 -49 -76 -77 -88 -89 -110 -111 -119 -120 -136 0
-18 -34 -35 -48 -50 -76 -77 -88 -89 -110 -111 -119 -120 -136 0
-18 -34 -35 -49 -50 -76 -78 -88 -89 -110 -111 -119 -120 -136 0
-18 -34 -35 -49 -50 -77 -78 -88 -90 -110 -111 -119 -120 -136 0
-18 -34 -35 -49 -50 -77 -78 -89 -90 -110 -112 -119 -120 -136 0
-18 -34 -35 -49 -50 -77 -78 -89 -90 -111 -112 -119 -121 -136 0
-18 -34 -35 -49 -50 -77 -78 -89 -90 -111 -112 -120 -121 -137 0
-18 -34 -35 -49 -50 -77 -78 -89 -90 -111 -112 -120 -121 -144 0
-17 -33 -34 -48 -49 -76 -77 -88 -89 -110 -111 -128 -129 -136 0
-18 -33 -35 -48 -49 -76 -77 -88 -89 -110 -111 -128 -129 -136 0
-18 -34 -35 -48 -50 -76 -77 -88 -89 -110 -111 -128 -129 -136 0
-18 -34 -35 -49 -50 -76 -78 -88 -89 -110 -111 -128 -129 -136 0
-18 -34 -35 -49 -50 -77 -78 -88 -90 -110 -111 -128 -129 -136 0
-18 -34 -35 -49 -50 -77 -78 -89 -90 -110 -112 -128 -129 -136 0
-18 -34 -35 -49 -50 -77 -78 -89 -90 -111 -112 -128 -130 -136 0
-18 -34 -35 -49 -50 -77 -78 -89 -90 -111 -112 -129 -130 -137 0
-18 -34 -35 -49 -50 -77 -78 -89 -90 -111 -112 -129 -130 -144 0
-18 -34 -35 -49 -50 -77 -78 -89 -90 -111 -112 -137 -138 -144 0
-17 -33 -34 -48 -49 -76 -77 -88 -89 -120 -121 -128 -129 -136 0
-18 -33 -35 -48 -49 -76 -77 -88 -89 -120 -121 -128 -129 -136 0
-18 -34 -35 -48 -50 -76 -77 -88 -89 -120 -121 -128 -129 -136 0
-18 -34 -35 -49 -50 -76 -78 -88 -89 -120 -121 -128 -129 -136 0
-18 -34 -35 -49 -50 -77 -78 -88 -90 -120 -121 -128 -129 -136 0
-18 -34 -35 -49 -50 -77 -78 -89 -90 -120 -122 -128 -129 -136 0
-18 -34 -35 -49 -50 -77 -78 -89 -90 -121 -122 -128 -130 -136 0
-18 -34 -35 -49 -50 -77 -78 -89 -90 -121 -122 -129 -130 -137 0
-18 -34 -35 -49 -50 -77 -78 -89 -90 -121 -122 -129 -130 -144 0
-18 -34 -35 -49 -50 -77 -78 -89 -90 -121 -122 -137 -138 -144 0
-18 -34 -35 -49 -50 -77 -78 -89 -90 -130 -131 -137 -138 -144 0
-16 -32 -33 -47 -48 -75 -76 -99 -100 -109 -110 -118 -119 -127 0
-17 -32 -34 -47 -48 -75 -76 -99 -100 -109 -110 -118 -119 -127 0
-18 -32 -35 -47 -48 -75 -76 -99 -100 -109 -110 -118 -119 -127 0
-17 -33 -34 -47 -49 -75 -76 -99 -100 -109 -110 -118 -119 -127 0
-18 -33 -35 -47 -49 -75 -76 -99 -100 -109 -110 -118 -119 -127 0
-18 -34 -35 -47 -50 -75 -76 -99 -100 -109 -110 -118 -119 -127 0
-17 -33 -34 -48 -49 -75 -77 -99 -100 -109 -110 -118 -119 -127 0
-18 -33 -35 -48 -49 -75 -77 -99 -100 -109 -110 -118 -119 -127 0
-18 -34 -35 -48 -50 -75 -77 -99 -100 -109 -110 -118 -119 -127 0
-18 -34 -35 -49 -50 -75 -78 -99 -100 -109 -110 -118 -119 -127 0
-17 -33 -34 -48 -49 -76 -77 -99 -101 -109 -110 -118 -119 -127 0
-18 -33 -35 -48 -49 -76 -77 -99 -101 -109 -110 -118 -119 -127 0
-18 -34 -35 -48 -50 -76 -77 -99 -101 -109 -110 -118 -119 -127 0
-18 -34 -35 -49 -50 -76 -78 -99 -101 -109 -110 -118 -119 -127 0
-18 -34 -35 -49 -50 -77 -78 -99 -102 -109 -110 -118 -119 -127 0
-17 -33 -34 -48 -49 -76 -77 -100 -101 -109 -111 -118 -119 -127 0
-18 -33 -35 -48 -49 -76 -77 -100 -101 -109 -111 -118 -119 -127 0
-18 -34 -35 -48 -50 -76 -77 -100 -101 -109 -111 -118 -119 -127 0
-18 -34 -35 -49 -50 -76 -78 -100 -101 -109 -111 -118 -119 -127 0
-18 -34 -35 -49 -50 -77 -78 -100 -102 -109 -111 -118 -119 -127 0
-18 -34 -35 -49 -50 -77 -78 -101 -102 -109 -112 -118 -119 -127 0
-17 -33 -34 -48 -49 -76 -77 -100 -101 -110 -111 -118 -120 -127 0
-18 -33 -35 -48 -49 -76 -77 -100 -101 -110 -111 -118 -120 -127 0
-18 -34 -35 -48 -50 -76 -77 -100 -101 -110 -111 -118 -120 -127 0
-18 -34 -35 -49 -50 -76 -78 -100 -101 -110 -111 -118 -120 -127 0
-18 -34 -35 -49 -50 -77 -78 -100 -102 -110 -111 -118 -120 -127 0
-18 -34 -35 -49 -50 -77 -78 -101 -102 -110 -112 -118 -120 -127 0
-18 -34 -35 -49 -50 -77 -78 -101 -102 -111 -112 -118 -121 -127 0
-17 -33 -34 -48 -49 -76 -77 -100 -101 -110 -111 -119 -120 -128 0
-18 -33 -35 -48 -49 -76 -77 -100 -101 -110 -111 -119 -120 -128 0
-18 -34 -35 -48 -50 -76 -77 -100 -101 -110 -111 -119 -120 -128 0
-18 -34 -35 -49 -50 -76 -78 -100 -101 -110 -111 -119 -120 -128 0
-18 -34 -35 -49 -50 -77 -78 -100 -102 -110 -111 -119 -120 -128 0
-18 -34 -35 -49 -50 -77 -78 -101 -102 -110 -112 -119 -120 -128 0
-18 -34 -35 -49 -50 -77 -78 -101 -102 -111 -112 -119 -121 -128 0
-18 -34 -35 -49 -50 -77 -78 -101 -102 -111 -112 -120 -121 -129 0
-17 -33 -34 -48 -49 -76 -77 -100 -101 -110 -111 -119 -120 -136 0
-18 -33 -35 -48 -49 -76 -77 -100 -101 -110 -111 -119 -120 -136 0
-18 -34 -35 -48 -50 -76 -77 -100 -101 -110 -111 -119 -120 -136 0
-18 -34 -35 -49 -50 -76 -78 -100 -101 -110 -111 -119 -120 -136 0
-18 -34 -35 -49 -50 -77 -78 -100 -102 -110 -111 -119 -120 -136 0
-18 -34 -35 -49 -50 -77 -78 -101 -102 -110 -112 -119 -120 -136 0
-18 -34 -35 -49 -50 -77 -78 -101 -102 -111 -112 -119 -121 -136 0
-18 -34 -35 -49 -50 -77 -78 -101 -102 -111 -112 -120 -121 -137 0
-18 -34 -35 -49 -50 -77 -78 -101 -102 -111 -112 -120 -121 -144 0
-17 -33 -34 -48 -49 -76 -77 -100 -101 -110 -111 -128 -129 -136 0
-18 -33 -35 -48 -49 -76 -77 -100 -101 -110 -111 -128 -129 -136 0
-18 -34 -35 -48 -50 -76 -77 -100 -101 -110 -111 -128 -129 -136 0
-18 -34 -35 -49 -50 -76 -78 -100 -101 -110 -111 -128 -129 -136 0
-18 -34 -35 -49 -50 -77 -78 -100 -102 -110 -111 -128 -129 -136 0
-18 -34 -35 -49 -50 -77 -78 -101 -102 -110 -112 -128 -129 -136 0
-18 -34 -35 -49 -50 -77 -78 -101 -102 -111 -112 -128 -130 -136 0
-18 -34 -35 -49 -50 -77 -78 -101 -102 -111 -112 -129 -130 -137 0
-18 -34 -35 -49 -50 -77 -78 -101 -102 -111 -112 -129 -130 -144 0
-18 -34 -35 -49 -50 -77 -78 -101 -102 -111 -112 -137 -138 -144 0
-17 -33 -34 -48 -49 -76 -77 -100 -101 -120 -121 -128 -129 -136 0
-18 -33 -35 -48 -49 -76 -77 -100 -101 -120 -121 -128 -129 -136 0
-18 -34 -35 -48 -50 -76 -77 -100 -101 -120 -121 -128 -129 -136 0
-18 -34 -35 -49 -50 -76 -78 -100 -101 -120 -121 -128 -129 -136 0
-18 -34 -35 -49 -50 -77 -78 -100 -102 -120 -121 -128 -129 -136 0
-18 -34 -35 -49 -50 -77 -78 -101 -102 -120 -122 -128 -129 -136 0
-18 -34 -35 -49 -50 -77 -78 -101 -102 -121 -122 -128 -130 -136 0
-18 -34 -35 -49 -50 -77 -78 -101 -102 -121 -122 -129 -130 -137 0
-18 -34 -35 -49 -50 -77 -78 -101 -102 -121 -122 -129 -130 -144 0
-18 -34 -35 -49 -50 -77 -78 -101 -102 -121 -122 -137 -138 -144 0
-18 -34 -35 -49 -50 -77 -78 -101 -102 -130 -131 -137 -138 -144 0
-17 -33 -34 -48 -49 -76 -77 -111 -112 -120 -121 -128 -129 -136 0
-18 -33 -35 -48 -49 -76 -77 -111 -112 -120 -121 -128 -129 -136 0
-18 -34 -35 -48 -50 -76 -77 -111 -112 -120 -121 -128 -129 -136 0
-18 -34 -35 -49 -50 -76 -78 -111 -112 -120 -121 -128 -129 -136 0
-18 -34 -35 -49 -50 -77 -78 -111 -113 -120 -121 -128 -129 -136 0
-18 -34 -35 -49 -50 -77 -78 -112 -113 -120 -122 -128 -129 -136 0
-18 -34 -35 -49 -50 -77 -78 -112 -113 -121 -122 -128 -130 -136 0
-18 -34 -35 -49 -50 -77 -78 -112 -113 -121 -122 -129 -130 -137 0
-18 -34 -35 -49 -50 -77 -78 -112 -113 -121 -122 -129 -130 -144 0
-18 -34 -35 -49 -50 -77 -78 -112 -113 -121 -122 -137 -138 -144 0
-18 -34 -35 -49 -50 -77 -78 -112 -113 -130 -131 -137 -138 -144 0
-18 -34 -35 -49 -50 -77 -78 -122 -123 -130 -131 -137 -138 -144 0
-16 -32 -33 -47 -48 -88 -89 -99 -100 -109 -110 -118 -119 -127 0
-17 -32 -34 -47 -48 -88 -89 -99 -100 -109 -110 -118 -119 -127 0
-18 -32 -35 -47 -48 -88 -89 -99 -100 -109 -110 -118 -119 -127 0
-17 -33 -34 -47 -49 -88 -89 -99 -100 -109 -110 -118 -119 -127 0
-18 -33 -35 -47 -49 -88 -89 -99 -100 -109 -110 -118 -119 -127 0
-18 -34 -35 -47 -50 -88 -89 -99 -100 -109 -110 -118 -119 -127 0
-17 -33 -34 -48 -49 -88 -90 -99 -100 -109 -110 -118 -119 -127 0
-18 -33 -35 -48 -49 -88 -90 -99 -100 -109 -110 -118 -119 -127 0
-18 -34 -35 -48 -50 -88 -90 -99 -100 -109 -110 -118 -119 -127 0
-18 -34 -35 -49 -50 -88 -91 -99 -100 -109 -110 -118 -119 -127 0
-17 -33 -34 -48 -49 -89 -90 -99 -101 -109 -110 -118 -119 -127 0
-18 -33 -35 -48 -49 -89 -90 -99 -101 -109 -110 -118 -119 -127 0
-18 -34 -35 -48 -50 -89 -90 -99 -101 -109 -110 -118 -119 -127 0
-18 -34 -35 -49 -50 -89 -91 -99 -101 -109 -110 -118 -119 -127 0
-18 -34 -35 -49 -50 -90 -91 -99 -102 -109 -110 -118 -119 -127 0
-17 -33 -34 -48 -49 -89 -90 -100 -101 -109 -111 -118 -119 -127 0
-18 -33 -35 -48 -49 -89 -90 -100 -101 -109 -111 -118 -119 -127 0
-18 -34 -35 -48 -50 -89 -90 -100 -101 -109 -111 -118 -119 -127 0
-18 -34 -35 -49 -50 -89 -91 -100 -101 -109 -111 -118 -119 -127 0
-18 -34 -35 -49 -50 -90 -91 -100 -102 -109 -111 -118 -119 -127 0
-18 -34 -35 -49 -50 -90 -91 -101 -102 -109 -112 -118 -119 -127 0
-17 -33 -34 -48 -49 -89 -90 -100 -101 -110 -111 -118 -120 -127 0
-18 -33 -35 -48 -49 -89 -90 -100 -101 -110 -111 -118 -120 -127 0
-18 -34 -35 -48 -50 -89 -90 -100 -101 -110 -111 -118 -120 -127 0
-18 -34 -35 -49 -50 -89 -91 -100 -101 -110 -111 -118 -120 -127 0
-18 -34 -35 -49 -50 -90 -91 -100 -102 -110 -111 -118 -120 -127 0
-18 -34 -35 -49 -50 -90 -91 -101 -102 -110 -112 -118 -120 -127 0
-18 -34 -35 -49 -50 -90 -91 -101 -102 -111 -112 -118 -121 -127 0
-17 -33 -34 -48 -49 -89 -90 -100 -101 -110 -111 -119 -120 -128 0
-18 -33 -35 -48 -49 -89 -90 -100 -101 -110 -111 -119 -120 -128 0
-18 -34 -35 -48 -50 -89 -90 -100 -101 -110 -111 -119 -120 -128 0
-18 -34 -35 -49 -50 -89 -91 -100 -101 -110 -111 -119 -120 -128 0
-18 -34 -35 -49 -50 -90 -91 -100 -102 -110 -111 -119 -120 -128 0
-18 -34 -35 -49 -50 -90 -91 -101 -102 -110 -112 -119 -120 -128 0
-18 -34 -35 -49 -50 -90 -91 -101 -102 -111 -112 -119 -121 -128 0
-18 -34 -35 -49 -50 -90 -91 -101 -102 -111 -112 -120 -121 -129 0
-17 -33 -34 -48 -49 -89 -90 -100 -101 -110 -111 -119 -120 -136 0
-18 -33 -35 -48 -49 -89 -90 -100 -101 -110 -111 -119 -120 -136 0
-18 -34 -35 -48 -50 -89 -90 -100 -101 -110 -111 -119 -120 -136 0
-18 -34 -35 -49 -50 -89 -91 -100 -101 -110 -111 -119 -120 -136 0
-18 -34 -35 -49 -50 -90 -91 -100 -102 -110 -111 -119 -120 -136 0
-18 -34 -35 -49 -50 -90 -91 -101 -102 -110 -112 -119 -120 -136 0
-18 -34 -35 -49 -50 -90 -91 -101 -102 -111 -112 -119 -121 -136 0
-18 -34 -35 -49 -50 -90 -91 -101 -102 -111 -112 -120 -121 -137 0
-18 -34 -35 -49 -50 -90 -91 -101 -102 -111 -112 -120 -121 -144 0
-17 -33 -34 -48 -49 -89 -90 -100 -101 -110 -111 -128 -129 -136 0
-18 -33 -35 -48 -49 -89 -90 -100 -101 -110 -111 -128 -129 -136 0
-18 -34 -35 -48 -50 -89 -90 -100 -101 -110 -111 -128 -129 -136 0
-18 -34 -35 -49 -50 -89 -91 -100 -101 -110 -111 -128 -129 -136 0
-18 -34 -35 -49 -50 -90 -91 -100 -102 -110 -111 -128 -129 -136 0
-18 -34 -35 -49 -50 -90 -91 -101 -102 -110 -112 -128 -129 -136 0
-18 -34 -35 -49 -50 -90 -91 -101 -102 -111 -112 -128 -130 -136 0
-18 -34 -35 -49 -50 -90 -91 -101 -102 -111 -112 -129 -130 -137 0
-18 -34 -35 -49 -50 -90 -91 -101 -102 -111 -112 -129 -130 -144 0
-18 -34 -35 -49 -50 -90 -91 -101 -102 -111 -112 -137 -138 -144 0
-17 -33 -34 -48 -49 -89 -90 -100 -101 -120 -121 -128 -129 -136 0
-18 -33 -35 -48 -49 -89 -90 -100 -101 -120 -121 -128 -129 -136 0
-18 -34 -35 -48 -50 -89 -90 -100 -101 -120 -121 -128 -129 -136 0
-18 -34 -35 -49 -50 -89 -91 -100 -101 -120 -121 -128 -129 -136 0
-18 -34 -35 -49 -50 -90 -91 -100 -102 -120 -121 -128 -129 -136 0
-18 -34 -35 -49 -50 -90 -91 -101 -102 -120 -122 -128 -129 -136 0
-18 -34 -35 -49 -50 -90 -91 -101 -102 -121 -122 -128 -130 -136 0
-18 -34 -35 -49 -50 -90 -91 -101 -102 -121 -122 -129 -130 -137 0
-18 -34 -35 -49 -50 -90 -91 -101 -102 -121 -122 -129 -130 -144 0
-18 -34 -35 -49 -50 -90 -91 -101 -102 -121 -122 -137 -138 -144 0
-18 -34 -35 -49 -50 -90 -91 -101 -102 -130 -131 -137 -138 -144 0
-17 -33 -34 -48 -49 -89 -90 -111 -112 -120 -121 -128 -129 -136 0
-18 -33 -35 -48 -49 -89 -90 -111 -112 -120 -121 -128 -129 -136 0
-18 -34 -35 -48 -50 -89 -90 -111 -112 -120 -121 -128 -129 -136 0
-18 -34 -35 -49 -50 -89 -91 -111 -112 -120 -121 -128 -129 -136 0
-18 -34 -35 -49 -50 -90 -91 -111 -113 -120 -121 -128 -129 -136 0
-18 -34 -35 -49 -50 -90 -91 -112 -113 -120 -122 -128 -129 -136 0
-18 -34 -35 -49 -50 -90 -91 -112 -113 -121 -122 -128 -130 -136 0
-18 -34 -35 -49 -50 -90 -91 -112 -113 -121 -122 -129 -130 -137 0
-18 -34 -35 -49 -50 -90 -91 -112 -113 -121 -122 -129 -130 -144 0
-18 -34 -35 -49 -50 -90 -91 -112 -113 -121 -122 -137 -138 -144 0
-18 -34 -35 -49 -50 -90 -91 -112 -113 -130 -131 -137 -138 -144 0
-18 -34 -35 -49 -50 -90 -91 -122 -123 -130 -131 -137 -138 -144 0
-17 -33 -34 -48 -49 -101 -102 -111 -112 -120 -121 -128 -129 -136 0
-18 -33 -35 -48 -49 -101 -102 -111 -112 -120 -121 -128 -129 -136 0
-18 -34 -35 -48 -50 -101 -102 -111 -112 -120 -121 -128 -129 -136 0
-18 -34 -35 -49 -50 -101 -103 -111 -112 -120 -121 -128 -129 -136 0
-18 -34 -35 -49 -50 -102 -103 -111 -113 -120 -121 -128 -129 -136 0
-18 -34 -35 -49 -50 -102 -103 -112 -113 -120 -122 -128 -129 -136 0
-18 -34 -35 -49 -50 -102 -103 -112 -113 -121 -122 -128 -130 -136 0
-18 -34 -35 -49 -50 -102 -103 -112 -113 -121 -122 -129 -130 -137 0
-18 -34 -35 -49 -50 -102 -103 -112 -113 -121 -122 -129 -130 -144 0
-18 -34 -35 -49 -50 -102 -103 -112 -113 -121 -122 -137 -138 -144 0
-18 -34 -35 -49 -50 -102 -103 -112 -113 -130 -131 -137 -138 -144 0
-18 -34 -35 -49 -50 -102 -103 -122 -123 -130 -131 -137 -138 -144 0
-18 -34 -35 -49 -50 -113 -114 -122 -123 -130 -131 -137 -138 -144 0
-15 -31 -32 -61 -62 -74 -75 -86 -87 -97 -98 -107 -108 -117 0
-16 -31 -33 -61 -62 -74 -75 -86 -87 -97 -98 -107 -108 -117 0
-17 -31 -34 -61 -62 -74 -75 -86 -87 -97 -98 -107 -108 -117 0
-18 -31 -35 -61 -62 -74 -75 -86 -87 -97 -98 -107 -108 -117 0
-16 -32 -33 -61 -63 -74 -75 -86 -87 -97 -98 -107 -108 -117 0
-17 -32 -34 -61 -63 -74 -75 -86 -87 -97 -98 -107 -108 -117 0
-18 -32 -35 -61 -63 -74 -75 -86 -87 -97 -98 -107 -108 -117 0
-17 -33 -34 -61 -64 -74 -75 -86 -87 -97 -98 -107 -108 -117 0
-18 -33 -35 -61 -64 -74 -75 -86 -87 -97 -98 -107 -108 -117 0
-18 -34 -35 -61 -65 -74 -75 -86 -87 -97 -98 -107 -108 -117 0
-16 -32 -33 -62 -63 -74 -76 -86 -87 -97 -98 -107 -108 -117 0
-17 -32 -34 -62 -63 -74 -76 -86 -87 -97 -98 -107 -108 -117 0
-18 -32 -35 -62 -63 -74 -76 -86 -87 -97 -98 -107 -108 -117 0
-17 -33 -34 -62 -64 -74 -76 -86 -87 -97 -98 -107 -108 -117 0
-18 -33 -35 -62 -64 -74 -76 -86 -87 -97 -98 -107 -108 -117 0
-18 -34 -35 -62 -65 -74 -76 -86 -87 -97 -98 -107 -108 -117 0
-17 -33 -34 -63 -64 -74 -77 -86 -87 -97 -98 -107 -108 -117 0
-18 -33 -35 -63 -64 -74 -77 -86 -87 -97 -98 -107 -108 -117 0
-18 -34 -35 -63 -65 -74 -77 -86 -87 -97 -98 -107 -108 -117 0
-18 -34 -35 -64 -65 -74 -78 -86 -87 -97 -98 -107 -108 -117 0
-16 -32 -33 -62 -63 -75 -76 -86 -88 -97 -98 -107 -108 -117 0
-17 -32 -34 -62 -63 -75 -76 -86 -88 -97 -98 -107 -108 -117 0
-18 -32 -35 -62 -63 -75 -76 -86 -88 -97 -98 -107 -108 -117 0
-17 -33 -34 -62 -64 -75 -76 -86 -88 -97 -98 -107 -108 -117 0
-18 -33 -35 -62 -64 -75 -76 -86 -88 -97 -98 -107 -108 -117 0
-18 -34 -35 -62 -65 -75 -76 -86 -88 -97 -98 -107 -108 -117 0
-17 -33 -34 -63 -64 -75 -77 -86 -88 -97 -98 -107 -108 -117 0
-18 -33 -35 -63 -64 -75 -77 -86 -88 -97 -98 -107 -108 -117 0
-18 -34 -35 -63 -65 -75 -77 -86 -88 -97 -98 -107 -108 -117 0
-18 -34 -35 -64 -65 -75 -78 -86 -88 -97 -98 -107 -108 -117 0
-17 -33 -34 -63 -64 -76 -77 -86 -89 -97 -98 -107 -108 -117 0
-18 -33 -35 -63 -64 -76 -77 -86 -89 -97 -98 -107 -108 -117 0
-18 -34 -35 -63 -65 -76 -77 -86 -89 -97 -98 -107 -108 -117 0
-18 -34 -35 -64 -65 -76 -78 -86 -89 -97 -98 -107 -108 -117 0
-18 -34 -35 -64 -65 -77 -78 -86 -90 -97 -98 -107 -108 -117 0
-16 -32 -33 -62 -63 -75 -76 -87 -88 -97 -99 -107 -108 -117 0
-17 -32 -34 -62 -63 -75 -76 -87 -88 -97 -99 -107 -108 -117 0
-18 -32 -35 -62 -63 -75 -76 -87 -88 -97 -99 -107 -108 -117 0
-17 -33 -34 -62 -64 -75 -76 -87 -88 -97 -99 -107 -108 -117 0
-18 -33 -35 -62 -64 -75 -76 -87 -88 -97 -99 -107 -108 -117 0
-18 -34 -35 -62 -65 -75 -76 -87 -88 -97 -99 -107 -108 -117 0
-17 -33 -34 -63 -64 -75 -77 -87 -88 -97 -99 -107 -108 -117 0
-18 -33 -35 -63 -64 -75 -77 -87 -88 -97 -99 -107 -108 -117 0
-18 -34 -35 -63 -65 -75 -77 -87 -88 -97 -99 -107 -108 -117 0
-18 -34 -35 -64 -65 -75 -78 -87 -88 -97 -99 -107 -108 -117 0
-17 -33 -34 -63 -64 -76 -77 -87 -89 -97 -99 -107 -108 -117 0
-18 -33 -35 -63 -64 -76 -77 -87 -89 -97 -99 -107 -108 -117 0
-18 -34 -35 -63 -65 -76 -77 -87 -89 -97 -99 -107 -108 -117 0
-18 -34 -35 -64 -65 -76 -78 -87 -89 -97 -99 -107 -108 -117 0
-18 -34 -35 -64 -65 -77 -78 -87 -90 -97 -99 -107 -108 -117 0
-17 -33 -34 -63 -64 -76 -77 -88 -89 -97 -100 -107 -108 -117 0
-18 -33 -35 -63 -64 -76 -77 -88 -89 -97 -100 -107 -108 -117 0
-18 -34 -35 -63 -65 -76 -77 -88 -89 -97 -100 -107 -108 -117 0
-18 -34 -35 -64 -65 -76 -78 -88 -89 -97 -100 -107 -108 -117 0
-18 -34 -35 -64 -65 -77 -78 -88 -90 -97 -100 -107 -108 -117 0
-18 -34 -35 -64 -65 -77 -78 -89 -90 -97 -101 -107 -108 -117 0
-16 -32 -33 -62 -63 -75 -76 -87 -88 -98 -99 -107 -109 -117 0
-17 -32 -34 -62 -63 -75 -76 -87 -88 -98 -99 -107 -109 -117 0
-18 -32 -35 -62 -63 -75 -76 -87 -88 -98 -99 -107 -109 -117 0
-17 -33 -34 -62 -64 -75 -76 -87 -88 -98 -99 -107 -109 -117 0
-18 -33 -35 -62 -64 -75 -76 -87 -88 -98 -99 -107 -109 -117 0
-18 -34 -35 -62 -65 -75 -76 -87 -88 -98 -99 -107 -109 -117 0
-17 -33 -34 -63 -64 -75 -77 -87 -88 -98 -99 -107 -109 -117 0
-18 -33 -35 -63 -64 -75 -77 -87 -88 -98 -99 -107 -109 -117 0
-18 -34 -35 -63 -65 -75 -77 -87 -88 -98 -99 -107 -109 -117 0
-18 -34 -35 -64 -65 -75 -78 -87 -88 -98 -99 -107 -109 -117 0
-17 -33 -34 -63 -64 -76 -77 -87 -89 -98 -99 -107 -109 -117 0
-18 -33 -35 -63 -64 -76 -77 -87 -89 -98 -99 -107 -109 -117 0
-18 -34 -35 -63 -65 -76 -77 -87 -89 -98 -99 -107 -109 -117 0
-18 -34 -35 -64 -65 -76 -78 -87 -89 -98 -99 -107 -109 -117 0
-18 -34 -35 -64 -65 -77 -78 -87 -90 -98 -99 -107 -109 -117 0
-17 -33 -34 -63 -64 -76 -77 -88 -89 -98 -100 -107 -109 -117 0
-18 -33 -35 -63 -64 -76 -77 -88 -89 -98 -100 -107 -109 -117 0
-18 -34 -35 -63 -65 -76 -77 -88 -89 -98 -100 -107 -109 -117 0
-18 -34 -35 -64 -65 -76 -78 -88 -89 -98 -100 -107 -109 -117 0
-18 -34 -35 -64 -65 -77 -78 -88 -90 -98 -100 -107 -109 -117 0
-18 -34 -35 -64 -65 -77 -78 -89 -90 -98 -101 -107 -109 -117 0
-17 -33 -34 -63 -64 -76 -77 -88 -89 -99 -100 -107 -110 -117 0
-18 -33 -35 -63 -64 -76 -77 -88 -89 -99 -100 -107 -110 -117 0
-18 -34 -35 -63 -65 -76 -77 -88 -89 -99 -100 -107 -110 -117 0
-18 -34 -35 -64 -65 -76 -78 -88 -89 -99 -100 -107 -110 -117 0
-18 -34 -35 -64 -65 -77 -78 -88 -90 -99 -100 -107 -110 -117 0
-18 -34 -35 -64 -65 -77 -78 -89 -90 -99 -101 -107 -110 -117 0
-18 -34 -35 -64 -65 -77 -78 -89 -90 -100 -101 -107 -111 -117 0
-16 -32 -33 -62 -63 -75 -76 -87 -88 -98 -99 -108 -109 -118 0
-17 -32 -34 -62 -63 -75 -76 -87 -88 -98 -99 -108 -109 -118 0
-18 -32 -35 -62 -63 -75 -76 -87 -88 -98 -99 -108 -109 -118 0
-17 -33 -34 -62 -64 -75 -76 -87 -88 -98 -99 -108 -109 -118 0
-18 -33 -35 -62 -64 -75 -76 -87 -88 -98 -99 -108 -109 -118 0
-18 -34 -35 -62 -65 -75 -76 -87 -88 -98 -99 -108 -109 -118 0
-17 -33 -34 -63 -64 -75 -77 -87 -88 -98 -99 -108 -109 -118 0
-18 -33 -35 -63 -64 -75 -77 -87 -88 -98 -99 -108 -109 -118 0
-18 -34 -35 -63 -65 -75 -77 -87 -88 -98 -99 -108 -109 -118 0
-18 -34 -35 -64 -65 -75 -78 -87 -88 -98 -99 -108 -109 -118 0
-17 -33 -34 -63 -64 -76 -77 -87 -89 -98 -99 -108 -109 -118 0
-18 -33 -35 -63 -64 -76 -77 -87 -89 -98 -99 -108 -109 -118 0
-18 -34 -35 -63 -65 -76 -77 -87 -89 -98 -99 -108 -109 -118 0
-18 -34 -35 -64 -65 -76 -78 -87 -89 -98 -99 -108 -109 -118 0
-18 -34 -35 -64 -65 -77 -78 -87 -90 -98 -99 -108 -109 -118 0
-17 -33 -34 -63 -64 -76 -77 -88 -89 -98 -100 -108 -109 -118 0
-18 -33 -35 -63 -64 -76 -77 -88 -89 -98 -100 -108 -109 -118 0
-18 -34 -35 -63 -65 -76 -77 -88 -89 -98 -100 -108 -109 -118 0
-18 -34 -35 -64 -65 -76 -78 -88 -89 -98 -100 -108 -109 -118 0
-18 -34 -35 -64 -65 -77 -78 -88 -90 -98 -100 -108 -109 -118 0
-18 -34 -35 -64 -65 -77 -78 -89 -90 -98 -101 -108 -109 -118 0
-17 -33 -34 -63 -64 -76 -77 -88 -89 -99 -100 -108 -110 -118 0
-18 -33 -35 -63 -64 -76 -77 -88 -89 -99 -100 -108 -110 -118 0
-18 -34 -35 -63 -65 -76 -77 -88 -89 -99 -100 -108 -110 -118 0
-18 -34 -35 -64 -65 -76 -78 -88 -89 -99 -100 -108 -110 -118 0
-18 -34 -35 -64 -65 -77 -78 -88 -90 -99 -100 -108 -110 -118 0
-18 -34 -35 -64 -65 -77 -78 -89 -90 -99 -101 -108 -110 -118 0
-18 -34 -35 -64 -65 -77 -78 -89 -90 -100 -101 -108 -111 -118 0
-17 -33 -34 -63 -64 -76 -77 -88 -89 -99 -100 -109 -110 -119 0
-18 -33 -35 -63 -64 -76 -77 -88 -89 -99 -100 -109 -110 -119 0
-18 -34 -35 -63 -65 -76 -77 -88 -89 -99 -100 -109 -110 -119 0
-18 -34 -35 -64 -65 -76 -78 -88 -89 -99 -100 -109 -110 -119 0
-18 -34 -35 -64 -65 -77 -78 -88 -90 -99 -100 -109 -110 -119 0
-18 -34 -35 -64 -65 -77 -78 -89 -90 -99 -101 -109 -110 -119 0
-18 -34 -35 -64 -65 -77 -78 -89 -90 -100 -101 -109 -111 -119 0
-18 -34 -35 -64 -65 -77 -78 -89 -90 -100 -101 -110 -111 -120 0
-16 -32 -33 -62 -63 -75 -76 -87 -88 -98 -99 -108 -109 -127 0
-17 -32 -34 -62 -63 -75 -76 -87 -88 -98 -99 -108 -109 -127 0
-18 -32 -35 -62 -63 -75 -76 -87 -88 -98 -99 -108 -109 -127 0
-17 -33 -34 -62 -64 -75 -76 -87 -88 -98 -99 -108 -109 -127 0
-18 -33 -35 -62 -64 -75 -76 -87 -88 -98 -99 -108 -109 -127 0
-18 -34 -35 -62 -65 -75 -76 -87 -88 -98 -99 -108 -109 -127 0
-17 -33 -34 -63 -64 -75 -77 -87 -88 -98 -99 -108 -109 -127 0
-18 -33 -35 -63 -64 -75 -77 -87 -88 -98 -99 -108 -109 -127 0
-18 -34 -35 -63 -65 -75 -77 -87 -88 -98 -99 -108 -109 -127 0
-18 -34 -35 -64 -65 -75 -78 -87 -88 -98 -99 -108 -109 -127 0
-17 -33 -34 -63 -64 -76 -77 -87 -89 -98 -99 -108 -109 -127 0
-18 -33 -35 -63 -64 -76 -77 -87 -89 -98 -99 -108 -109 -127 0
-18 -34 -35 -63 -65 -76 -77 -87 -89 -98 -99 -108 -109 -127 0
-18 -34 -35 -64 -65 -76 -78 -87 -89 -98 -99 -108 -109 -127 0
-18 -34 -35 -64 -65 -77 -78 -87 -90 -98 -99 -108 -109 -127 0
-17 -33 -34 -63 -64 -76 -77 -88 -89 -98 -100 -108 -109 -127 0
-18 -33 -35 -63 -64 -76 -77 -88 -89 -98 -100 -108 -109 -127 0
-18 -34 -35 -63 -65 -76 -77 -88 -89 -98 -100 -108 -109 -127 0
-18 -34 -35 -64 -65 -76 -78 -88 -89 -98 -100 -108 -109 -127 0
-18 -34 -35 -64 -65 -77 -78 -88 -90 -98 -100 -108 -109 -127 0
-18 -34 -35 -64 -65 -77 -78 -89 -90 -98 -101 -108 -109 -127 0
-17 -33 -34 -63 -64 -76 -77 -88 -89 -99 -100 -108 -110 -127 0
-18 -33 -35 -63 -64 -76 -77 -88 -89 -99 -100 -108 -110 -127 0
-18 -34 -35 -63 -65 -76 -77 -88 -89 -99 -100 -108 -110 -127 0
-18 -34 -35 -64 -65 -76 -78 -88 -89 -99 -100 -108 -110 -127 0
-18 -34 -35 -64 -65 -77 -78 -88 -90 -99 -100 -108 -110 -127 0
-18 -34 -35 -64 -65 -77 -78 -89 -90 -99 -101 -108 -110 -127 0
-18 -34 -35 -64 -65 -77 -78 -89 -90 -100 -101 -108 -111 -127 0
-17 -33 -34 -63 -64 -76 -77 -88 -89 -99 -100 -109 -110 -128 0
-18 -33 -35 -63 -64 -76 -77 -88 -89 -99 -100 -109 -110 -128 0
-18 -34 -35 -63 -65 -76 -77 -88 -89 -99 -100 -109 -110 -128 0
-18 -34 -35 -64 -65 -76 -78 -88 -89 -99 -100 -109 -110 -128 0
-18 -34 -35 -64 -65 -77 -78 -88 -90 -99 -100 -109 -110 -128 0
-18 -34 -35 -64 -65 -77 -78 -89 -90 -99 -101 -109 -110 -128 0
-18 -34 -35 -64 -65 -77 -78 -89 -90 -100 -101 -109 -111 -128 0
-18 -34 -35 -64 -65 -77 -78 -89 -90 -100 -101 -110 -111 -129 0
-17 -33 -34 -63 -64 -76 -77 -88 -89 -99 -100 -109 -110 -136 0
-18 -33 -35 -63 -64 -76 -77 -88 -89 -99 -100 -109 -110 -136 0
-18 -34 -35 -63 -65 -76 -77 -88 -89 -99 -100 -109 -110 -136 0
-18 -34 -35 -64 -65 -76 -78 -88 -89 -99 -100 -109 -110 -136 0
-18 -34 -35 -64 -65 -77 -78 -88 -90 -99 -100 -109 -110 -136 0
-18 -34 -35 -64 -65 -77 -78 -89 -90 -99 -101 -109 -110 -136 0
-18 -34 -35 -64 -65 -77 -78 -89 -90 -100 -101 -109 -111 -136 0
-18 -34 -35 -64 -65 -77 -78 -89 -90 -100 -101 -110 -111 -137 0
-18 -34 -35 -64 -65 -77 -78 -89 -90 -100 -101 -110 -111 -144 0
-16 -32 -33 -62 -63 -75 -76 -87 -88 -98 -99 -118 -119 -127 0
-17 -32 -34 -62 -63 -75 -76 -87 -88 -98 -99 -118 -119 -127 0
-18 -32 -35 -62 -63 -75 -76 -87 -88 -98 -99 -118 -119 -127 0
-17 -33 -34 -62 -64 -75 -76 -87 -88 -98 -99 -118 -119 -127 0
-18 -33 -35 -62 -64 -75 -76 -87 -88 -98 -99 -118 -119 -127 0
-18 -34 -35 -62 -65 -75 -76 -87 -88 -98 -99 -118 -119 -127 0
-17 -33 -34 -63 -64 -75 -77 -87 -88 -98 -99 -118 -119 -127 0
-18 -33 -35 -63 -64 -75 -77 -87 -88 -98 -99 -118 -119 -127 0
-18 -34 -35 -63 -65 -75 -77 -87 -88 -98 -99 -118 -119 -127 0
-18 -34 -35 -64 -65 -75 -78 -87 -88 -98 -99 -118 -119 -127 0
-17 -33 -34 -63 -64 -76 -77 -87 -89 -98 -99 -118 -119 -127 0
-18 -33 -35 -63 -64 -76 -77 -87 -89 -98 -99 -118 -119 -127 0
-18 -34 -35 -63 -65 -76 -77 -87 -89 -98 -99 -118 -119 -127 0
-18 -34 -35 -64 -65 -76 -78 -87 -89 -98 -99 -118 -119 -127 0
-18 -34 -35 -64 -65 -77 -78 -87 -90 -98 -99 -118 -119 -127 0
-17 -33 -34 -63 -64 -76 -77 -88 -89 -98 -100 -118 -119 -127 0
-18 -33 -35 -63 -64 -76 -77 -88 -89 -98 -100 -118 -119 -127 0
-18 -34 -35 -63 -65 -76 -77 -88 -89 -98 -100 -118 -119 -127 0
-18 -34 -35 -64 -65 -76 -78 -88 -89 -98 -100 -118 -119 -127 0
-18 -34 -35 -64 -65 -77 -78 -88 -90 -98 -100 -118 -119 -127 0
-18 -34 -35 -64 -65 -77 -78 -89 -90 -98 -101 -118 -119 -127 0
-17 -33 -34 -63 -64 -76 -77 -88 -89 -99 -100 -118 -120 -127 0
-18 -33 -35 -63 -64 -76 -77 -88 -89 -99 -100 -118 -120 -127 0
-18 -34 -35 -63 -65 -76 -77 -88 -89 -99 -100 -118 -120 -127 0
-18 -34 -35 -64 -65 -76 -78 -88 -89 -99 -100 -118 -120 -127 0
-18 -34 -35 -64 -65 -77 -78 -88 -90 -99 -100 -118 -120 -127 0
-18 -34 -35 -64 -65 -77 -78 -89 -90 -99 -101 -118 -120 -127 0
-18 -34 -35 -64 -65 -77 -78 -89 -90 -100 -101 -118 -121 -127 0
-17 -33 -34 -63 -64 -76 -77 -88 -89 -99 -100 -119 -120 -128 0
-18 -33 -35 -63 -64 -76 -77 -88 -89 -99 -100 -119 -120 -128 0
-18 -34 -35 -63 -65 -76 -77 -88 -89 -99 -100 -119 -120 -128 0
-18 -34 -35 -64 -65 -76 -78 -88 -89 -99 -100 -119 -120 -128 0
-18 -34 -35 -64 -65 -77 -78 -88 -90 -99 -100 -119 -120 -128 0
-18 -34 -35 -64 -65 -77 -78 -89 -90 -99 -101 -119 -120 -128 0
-18 -34 -35 -64 -65 -77 -78 -89 -90 -100 -101 -119 -121 -128 0
-18 -34 -35 -64 -65 -77 -78 -89 -90 -100 -101 -120 -121 -129 0
-17 -33 -34 -63 -64 -76 -77 -88 -89 -99 -100 -119 -120 -136 0
-18 -33 -35 -63 -64 -76 -77 -88 -89 -99 -100 -119 -120 -136 0
-18 -34 -35 -63 -65 -76 -77 -88 -89 -99 -100 -119 -120 -136 0
-18 -34 -35 -64 -65 -76 -78 -88 -89 -99 -100 -119 -120 -136 0
-18 -34 -35 -64 -65 -77 -78 -88 -90 -99 -100 -119 -120 -136 0
-18 -34 -35 -64 -65 -77 -78 -89 -90 -99 -101 -119 -120 -136 0
-18 -34 -35 -64 -65 -77 -78 -89 -90 -100 -101 -119 -121 -136 0
-18 -34 -35 -64 -65 -77 -78 -89 -90 -100 -101 -120 -121 -137 0
-18 -34 -35 -64 -65 -77 -78 -89 -90 -100 -101 -120 -121 -144 0
-17 -33 -34 -63 -64 -76 -77 -88 -89 -99 -100 -128 -129 -136 0
-18 -33 -35 -63 -64 -76 -77 -88 -89 -99 -100 -128 -129 -136 0
-18 -34 -35 -63 -65 -76 -77 -88 -89 -99 -100 -128 -129 -136 0
-18 -34 -35 -64 -65 -76 -78 -88 -89 -99 -100 -128 -129 -136 0
-18 -34 -35 -64 -65 -77 -78 -88 -90 -99 -100 -128 -129 -136 0
-18 -34 -35 -64 -65 -77 -78 -89 -90 -99 -101 -128 -129 -136 0
-18 -34 -35 -64 -65 -77 -78 -89 -90 -100 -101 -128 -130 -136 0
-18 -34 -35 -64 -65 -77 -78 -89 -90 -100 -101 -129 -130 -137 0
-18 -34 -35 -64 -65 -77 -78 -89 -90 -100 -101 -129 -130 -144 0
-18 -34 -35 -64 -65 -77 -78 -89 -90 -100 -101 -137 -138 -144 0
-16 -32 -33 -62 -63 -75 -76 -87 -88 -109 -110 -118 -119 -127 0
-17 -32 -34 -62 -63 -75 -76 -87 -88 -109 -110 -118 -119 -127 0
-18 -32 -35 -62 -63 -75 -76 -87 -88 -109 -110 -118 -119 -127 0
-17 -33 -34 -62 -64 -75 -76 -87 -88 -109 -110 -118 -119 -127 0
-18 -33 -35 -62 -64 -75 -76 -87 -88 -109 -110 -118 -119 -127 0
-18 -34 -35 -62 -65 -75 -76 -87 -88 -109 -110 -118 -119 -127 0
-17 -33 -34 -63 -64 -75 -77 -87 -88 -109 -110 -118 -119 -127 0
-18 -33 -35 -63 -64 -75 -77 -87 -88 -109 -110 -118 -119 -127 0
-18 -34 -35 -63 -65 -75 -77 -87 -88 -109 -110 -118 -119 -127 0
-18 -34 -35 -64 -65 -75 -78 -87 -88 -109 -110 -118 -119 -127 0
-17 -33 -34 -63 -64 -76 -77 -87 -89 -109 -110 -118 -119 -127 0
-18 -33 -35 -63 -64 -76 -77 -87 -89 -109 -110 -118 -119 -127 0
-18 -34 -35 -63 -65 -76 -77 -87 -89 -109 -110 -118 -119 -127 0
-18 -34 -35 -64 -65 -76 -78 -87 -89 -109 -110 -118 -119 -127 0
-18 -34 -35 -64 -65 -77 -78 -87 -90 -109 -110 -118 -119 -127 0
-17 -33 -34 -63 -64 -76 -77 -88 -89 -109 -111 -118 -119 -127 0
-18 -33 -35 -63 -64 -76 -77 -88 -89 -109 -111 -118 -119 -127 0
-18 -34 -35 -63 -65 -76 -77 -88 -89 -109 -111 -118 -119 -127 0
-18 -34 -35 -64 -65 -76 -78 -88 -89 -109 -111 -118 -119 -127 0
-18 -34 -35 -64 -65 -77 -78 -88 -90 -109 -111 -118 -119 -127 0
-18 -34 -35 -64 -65 -77 -78 -89 -90 -109 -112 -118 -119 -127 0
-17 -33 -34 -63 -64 -76 -77 -88 -89 -110 -111 -118 -120 -127 0
-18 -33 -35 -63 -64 -76 -77 -88 -89 -110 -111 -118 -120 -127 0
-18 -34 -35 -63 -65 -76 -77 -88 -89 -110 -111 -118 -120 -127 0
-18 -34 -35 -64 -65 -76 -78 -88 -89 -110 -111 -118 -120 -127 0
-18 -34 -35 -64 -65 -77 -78 -88 -90 -110 -111 -118 -120 -127 0
-18 -34 -35 -64 -65 -77 -78 -89 -90 -110 -112 -118 -120 -127 0
-18 -34 -35 -64 -65 -77 -78 -89 -90 -111 -112 -118 -121 -127 0
-17 -33 -34 -63 -64 -76 -77 -88 -89 -110 -111 -119 -120 -128 0
-18 -33 -35 -63 -64 -76 -77 -88 -89 -110 -111 -119 -120 -128 0
-18 -34 -35 -63 -65 -76 -77 -88 -89 -110 -111 -119 -120 -128 0
-18 -34 -35 -64 -65 -76 -78 -88 -89 -110 -111 -119 -120 -128 0
-18 -34 -35 -64 -65 -77 -78 -88 -90 -110 -111 -119 -120 -128 0
-18 -34 -35 -64 -65 -77 -78 -89 -90 -110 -112 -119 -120 -128 0
-18 -34 -35 -64 -65 -77 -78 -89 -90 -111 -112 -119 -121 -128 0
-18 -34 -35 -64 -65 -77 -78 -89 -90 -111 -112 -120 -121 -129 0
-17 -33 -34 -63 -64 -76 -77 -88 -89 -110 -111 -119 -120 -136 0
-18 -33 -35 -63 -64 -76 -77 -88 -89 -110 -111 -119 -120 -136 0
-18 -34 -35 -63 -65 -76 -77 -88 -89 -110 -111 -119 -120 -136 0
-18 -34 -35 -64 -65 -76 -78 -88 -89 -110 -111 -119 -120 -136 0
-18 -34 -35 -64 -65 -77 -78 -88 -90 -110 -111 -119 -120 -136 0
-18 -34 -35 -64 -65 -77 -78 -89 -90 -110 -112 -119 -120 -136 0
-18 -34 -35 -64 -65 -77 -78 -89 -90 -111 -112 -119 -121 -136 0
-18 -34 -35 -64 -65 -77 -78 -89 -90 -111 -112 -120 -121 -137 0
-18 -34 -35 -64 -65 -77 -78 -89 -90 -111 -112 -120 -121 -144 0
-17 -33 -34 -63 -64 -76 -77 -88 -89 -110 -111 -128 -129 -136 0
-18 -33 -35 -63 -64 -76 -77 -88 -89 -110 -111 -128 -129 -136 0
-18 -34 -35 -63 -65 -76 -77 -88 -89 -110 -111 -128 -129 -136 0
-18 -34 -35 -64 -65 -76 -78 -88 -89 -110 -111 -128 -129 -136 0
-18 -34 -35 -64 -65 -77 -78 -88 -90 -110 -111 -128 -129 -136 0
-18 -34 -35 -64 -65 -77 -78 -89 -90 -110 -112 -128 -129 -136 0
-18 -34 -35 -64 -65 -77 -78 -89 -90 -111 -112 -128 -130 -136 0
-18 -34 -35 -64 -65 -77 -78 -89 -90 -111 -112 -129 -130 -137 0
-18 -34 -35 -64 -65 -77 -78 -89 -90 -111 -112 -129 -130 -144 0
-18 -34 -35 -64 -65 -77 -78 -89 -90 -111 -112 -137 -138 -144 0
-17 -33 -34 -63 -64 -76 -77 -88 -89 -120 -121 -128 -129 -136 0
-18 -33 -35 -63 -64 -76 -77 -88 -89 -120 -121 -128 -129 -136 0
-18 -34 -35 -63 -65 -76 -77 -88 -89 -120 -121 -128 -129 -136 0
-18 -34 -35 -64 -65 -76 -78 -88 -89 -120 -121 -128 -129 -136 0
-18 -34 -35 -64 -65 -77 -78 -88 -90 -120 -121 -128 -129 -136 0
-18 -34 -35 -64 -65 -77 -78 -89 -90 -120 -122 -128 -129 -136 0
-18 -34 -35 -64 -65 -77 -78 -89 -90 -121 -122 -128 -130 -136 0
-18 -34 -35 -64 -65 -77 -78 -89 -90 -121 -122 -129 -130 -137 0
-18 -34 -35 -64 -65 -77 -78 -89 -90 -121 -122 -129 -130 -144 0
-18 -34 -35 -64 -65 -77 -78 -89 -90 -121 -122 -137 -138 -144 0
-18 -34 -35 -64 -65 -77 -78 -89 -90 -130 -131 -137 -138 -144 0
-16 -32 -33 -62 -63 -75 -76 -99 -100 -109 -110 -118 -119 -127 0
-17 -32 -34 -62 -63 -75 -76 -99 -100 -109 -110 -118 -119 -127 0
-18 -32 -35 -62 -63 -75 -76 -99 -100 -109 -110 -118 -119 -127 0
-17 -33 -34 -62 -64 -75 -76 -99 -100 -109 -110 -118 -119 -127 0
-18 -33 -35 -62 -64 -75 -76 -99 -100 -109 -110 -118 -119 -127 0
-18 -34 -35 -62 -65 -75 -76 -99 -100 -109 -110 -118 -119 -127 0
-17 -33 -34 -63 -64 -75 -77 -99 -100 -109 -110 -118 -119 -127 0
-18 -33 -35 -63 -64 -75 -77 -99 -100 -109 -110 -118 -119 -127 0
-18 -34 -35 -63 -65 -75 -77 -99 -100 -109 -110 -118 -119 -127 0
-18 -34 -35 -64 -65 -75 -78 -99 -100 -109 -110 -118 -119 -127 0
-17 -33 -34 -63 -64 -76 -77 -99 -101 -109 -110 -118 -119 -127 0
-18 -33 -35 -63 -64 -76 -77 -99 -101 -109 -110 -118 -119 -127 0
-18 -34 -35 -63 -65 -76 -77 -99 -101 -109 -110 -118 -119 -127 0
-18 -34 -35 -64 -65 -76 -78 -99 -101 -109 -110 -118 -119 -127 0
-18 -34 -35 -64 -65 -77 -78 -99 -102 -109 -110 -118 -119 -127 0
-17 -33 -34 -63 -64 -76 -77 -100 -101 -109 -111 -118 -119 -127 0
-18 -33 -35 -63 -64 -76 -77 -100 -101 -109 -111 -118 -119 -127 0
-18 -34 -35 -63 -65 -76 -77 -100 -101 -109 -111 -118 -119 -127 0
-18 -34 -35 -64 -65 -76 -78 -100 -101 -109 -111 -118 -119 -127 0
-18 -34 -35 -64 -65 -77 -78 -100 -102 -109 -111 -118 -119 -127 0
-18 -34 -35 -64 -65 -77 -78 -101 -102 -109 -112 -118 -119 -127 0
-17 -33 -34 -63 -64 -76 -77 -100 -101 -110 -111 -118 -120 -127 0
-18 -33 -35 -63 -64 -76 -77 -100 -101 -110 -111 -118 -120 -127 0
-18 -34 -35 -63 -65 -76 -77 -100 -101 -110 -111 -118 -120 -127 0
-18 -34 -35 -64 -65 -76 -78 -100 -101 -110 -111 -118 -120 -127 0
-18 -34 -35 -64 -65 -77 -78 -100 -102 -110 -111 -118 -120 -127 0
-18 -34 -35 -64 -65 -77 -78 -101 -102 -110 -112 -118 -120 -127 0
-18 -34 -35 -64 -65 -77 -78 -101 -102 -111 -112 -118 -121 -127 0
-17 -33 -34 -63 -64 -76 -77 -100 -101 -110 -111 -119 -120 -128 0
-18 -33 -35 -63 -64 -76 -77 -100 -101 -110 -111 -119 -120 -128 0
-18 -34 -35 -63 -65 -76 -77 -100 -101 -110 -111 -119 -120 -128 0
-18 -34 -35 -64 -65 -76 -78 -100 -101 -110 -111 -119 -120 -128 0
-18 -34 -35 -64 -65 -77 -78 -100 -102 -110 -111 -119 -120 -128 0
-18 -34 -35 -64 -65 -77 -78 -101 -102 -110 -112 -119 -120 -128 0
-18 -34 -35 -64 -65 -77 -78 -101 -102 -111 -112 -119 -121 -128 0
-18 -34 -35 -64 -65 -77 -78 -101 -102 -111 -112 -120 -121 -129 0
-17 -33 -34 -63 -64 -76 -77 -100 -101 -110 -111 -119 -120 -136 0
-18 -33 -35 -63 -64 -76 -77 -100 -101 -110 -111 -119 -120 -136 0
-18 -34 -35 -63 -65 -76 -77 -100 -101 -110 -111 -119 -120 -136 0
-18 -34 -35 -64 -65 -76 -78 -100 -101 -110 -111 -119 -120 -136 0
-18 -34 -35 -64 -65 -77 -78 -100 -102 -110 -111 -119 -120 -136 0
-18 -34 -35 -64 -65 -77 -78 -101 -102 -110 -112 -119 -120 -136 0
-18 -34 -35 -64 -65 -77 -78 -101 -102 -111 -112 -119 -121 -136 0
-18 -34 -35 -64 -65 -77 -78 -101 -102 -111 -112 -120 -121 -137 0
-18 -34 -35 -64 -65 -77 -78 -101 -102 -111 -112 -120 -121 -144 0
-17 -33 -34 -63 -64 -76 -77 -100 -101 -110 -111 -128 -129 -136 0
-18 -33 -35 -63 -64 -76 -77 -100 -101 -110 -111 -128 -129 -136 0
-18 -34 -35 -63 -65 -76 -77 -100 -101 -110 -111 -128 -129 -136 0
-18 -34 -35 -64 -65 -76 -78 -100 -101 -110 -111 -128 -129 -136 0
-18 -34 -35 -64 -65 -77 -78 -100 -102 -110 -111 -128 -129 -136 0
-18 -34 -35 -64 -65 -77 -78 -101 -102 -110 -112 -128 -129 -136 0
-18 -34 -35 -64 -65 -77 -78 -101 -102 -111 -112 -128 -130 -136 0
-18 -34 -35 -64 -65 -77 -78 -101 -102 -111 -112 -129 -130 -137 0
-18 -34 -35 -64 -65 -77 -78 -101 -102 -111 -112 -129 -130 -144 0
-18 -34 -35 -64 -65 -77 -78 -101 -102 -111 -112 -137 -138 -144 0
-17 -33 -34 -63 -64 -76 -77 -100 -101 -120 -121 -128 -129 -136 0
-18 -33 -35 -63 -64 -76 -77 -100 -101 -120 -121 -128 -129 -136 0
-18 -34 -35 -63 -65 -76 -77 -100 -101 -120 -121 -128 -129 -136 0
-18 -34 -35 -64 -65 -76 -78 -100 -101 -120 -121 -128 -129 -136 0
-18 -34 -35 -64 -65 -77 -78 -100 -102 -120 -121 -128 -129 -136 0
-18 -34 -35 -64 -65 -77 -78 -101 -102 -120 -122 -128 -129 -136 0
-18 -34 -35 -64 -65 -77 -78 -101 -102 -121 -122 -128 -130 -136 0
-18 -34 -35 -64 -65 -77 -78 -101 -102 -121 -122 -129 -130 -137 0
-18 -34 -35 -64 -65 -77 -78 -101 -102 -121 -122 -129 -130 -144 0
-18 -34 -35 -64 -65 -77 -78 -101 -102 -121 -122 -137 -138 -144 0
-18 -34 -35 -64 -65 -77 -78 -101 -102 -130 -131 -137 -138 -144 0
-17 -33 -34 -63 -64 -76 -77 -111 -112 -120 -121 -128 -129 -136 0
-18 -33 -35 -63 -64 -76 -77 -111 -112 -120 -121 -128 -129 -136 0
-18 -34 -35 -63 -65 -76 -77 -111 -112 -120 -121 -128 -129 -136 0
-18 -34 -35 -64 -65 -76 -78 -111 -112 -120 -121 -128 -129 -136 0
-18 -34 -35 -64 -65 -77 -78 -111 -113 -120 -121 -128 -129 -136 0
-18 -34 -35 -64 -65 -77 -78 -112 -113 -120 -122 -128 -129 -136 0
-18 -34 -35 -64 -65 -77 -78 -112 -113 -121 -122 -128 -130 -136 0
-18 -34 -35 -64 -65 -77 -78 -112 -113 -121 -122 -129 -130 -137 0
-18 -34 -35 -64 -65 -77 -78 -112 -113 -121 -122 -129 -130 -144 0
-18 -34 -35 -64 -65 -77 -78 -112 -113 -121 -122 -137 -138 -144 0
-18 -34 -35 -64 -65 -77 -78 -112 -113 -130 -131 -137 -138 -144 0
-18 -34 -35 -64 -65 -77 -78 -122 -123 -130 -131 -137 -138 -144 0
-16 -32 -33 -62 -63 -88 -89 -99 -100 -109 -110 -118 -119 -127 0
-17 -32 -34 -62 -63 -88 -89 -99 -100 -109 -110 -118 -119 -127 0
-18 -32 -35 -62 -63 -88 -89 -99 -100 -109 -110 -118 -119 -127 0
-17 -33 -34 -62 -64 -88 -89 -99 -100 -109 -110 -118 -119 -127 0
-18 -33 -35 -62 -64 -88 -89 -99 -100 -109 -110 -118 -119 -127 0
-18 -34 -35 -62 -65 -88 -89 -99 -100 -109 -110 -118 -119 -127 0
-17 -33 -34 -63 -64 -88 -90 -99 -100 -109 -110 -118 -119 -127 0
-18 -33 -35 -63 -64 -88 -90 -99 -100 -109 -110 -118 -119 -127 0
-18 -34 -35 -63 -65 -88 -90 -99 -100 -109 -110 -118 -119 -127 0
-18 -34 -35 -64 -65 -88 -91 -99 -100 -109 -110 -118 -119 -127 0
-17 -33 -34 -63 -64 -89 -90 -99 -101 -109 -110 -118 -119 -127 0
-18 -33 -35 -63 -64 -89 -90 -99 -101 -109 -110 -118 -119 -127 0
-18 -34 -35 -63 -65 -89 -90 -99 -101 -109 -110 -118 -119 -127 0
-18 -34 -35 -64 -65 -89 -91 -99 -101 -109 -110 -118 -119 -127 0
-18 -34 -35 -64 -65 -90 -91 -99 -102 -109 -110 -118 -119 -127 0
-17 -33 -34 -63 -64 -89 -90 -100 -101 -109 -111 -118 -119 -127 0
-18 -33 -35 -63 -64 -89 -90 -100 -101 -109 -111 -118 -119 -127 0
-18 -34 -35 -63 -65 -89 -90 -100 -101 -109 -111 -118 -119 -127 0
-18 -34 -35 -64 -65 -89 -91 -100 -101 -109 -111 -118 -119 -127 0
-18 -34 -35 -64 -65 -90 -91 -100 -102 -109 -111 -118 -119 -127 0
-18 -34 -35 -64 -65 -90 -91 -101 -102 -109 -112 -118 -119 -127 0
-17 -33 -34 -63 -64 -89 -90 -100 -101 -110 -111 -118 -120 -127 0
-18 -33 -35 -63 -64 -89 -90 -100 -101 -110 -111 -118 -120 -127 0
-18 -34 -35 -63 -65 -89 -90 -100 -101 -110 -111 -118 -120 -127 0
-18 -34 -35 -64 -65 -89 -91 -100 -101 -110 -111 -118 -120 -127 0
-18 -34 -35 -64 -65 -90 -91 -100 -102 -110 -111 -118 -120 -127 0
-18 -34 -35 -64 -65 -90 -91 -101 -102 -110 -112 -118 -120 -127 0
-18 -34 -35 -64 -65 -90 -91 -101 -102 -111 -112 -118 -121 -127 0
-17 -33 -34 -63 -64 -89 -90 -100 -101 -110 -111 -119 -120 -128 0
-18 -33 -35 -63 -64 -89 -90 -100 -101 -110 -111 -119 -120 -128 0
-18 -34 -35 -63 -65 -89 -90 -100 -101 -110 -111 -119 -120 -128 0
-18 -34 -35 -64 -65 -89 -91 -100 -101 -110 -111 -119 -120 -128 0
-18 -34 -35 -64 -65 -90 -91 -100 -102 -110 -111 -119 -120 -128 0
-18 -34 -35 -64 -65 -90 -91 -101 -102 -110 -112 -119 -120 -128 0
-18 -34 -35 -64 -65 -90 -91 -101 -102 -111 -112 -119 -121 -128 0
-18 -34 -35 -64 -65 -90 -91 -101 -102 -111 -112 -120 -121 -129 0
-17 -33 -34 -63 -64 -89 -90 -100 -101 -110 -111 -119 -120 -136 0
-18 -33 -35 -63 -64 -89 -90 -100 -101 -110 -111 -119 -120 -136 0
-18 -34 -35 -63 -65 -89 -90 -100 -101 -110 -111 -119 -120 -136 0
-18 -34 -35 -64 -65 -89 -91 -100 -101 -110 -111 -119 -120 -136 0
-18 -34 -35 -64 -65 -90 -91 -100 -102 -110 -111 -119 -120 -136 0
-18 -34 -35 -64 -65 -90 -91 -101 -102 -110 -112 -119 -120 -136 0
-18 -34 -35 -64 -65 -90 -91 -101 -102 -111 -112 -119 -121 -136 0
-18 -34 -35 -64 -65 -90 -91 -101 -102 -111 -112 -120 -121 -137 0
-18 -34 -35 -64 -65 -90 -91 -101 -102 -111 -112 -120 -121 -144 0
-17 -33 -34 -63 -64 -89 -90 -100 -101 -110 -111 -128 -129 -136 0
-18 -33 -35 -63 -64 -89 -90 -100 -101 -110 -111 -128 -129 -136 0
-18 -34 -35 -63 -65 -89 -90 -100 -101 -110 -111 -128 -129 -136 0
-18 -34 -35 -64 -65 -89 -91 -100 -101 -110 -111 -128 -129 -136 0
-18 -34 -35 -64 -65 -90 -91 -100 -102 -110 -111 -128 -129 -136 0
-18 -34 -35 -64 -65 -90 -91 -101 -102 -110 -112 -128 -129 -136 0
-18 -34 -35 -64 -65 -90 -91 -101 -102 -111 -112 -128 -130 -136 0
-18 -34 -35 -64 -65 -90 -91 -101 -102 -111 -112 -129 -130 -137 0
-18 -34 -35 -64 -65 -90 -91 -101 -102 -111 -112 -129 -130 -144 0
-18 -34 -35 -64 -65 -90 -91 -101 -102 -111 -112 -137 -138 -144 0
-17 -33 -34 -63 -64 -89 -90 -100 -101 -120 -121 -128 -129 -136 0
-18 -33 -35 -63 -64 -89 -90 -100 -101 -120 -121 -128 -129 -136 0
-18 -34 -35 -63 -65 -89 -90 -100 -101 -120 -121 -128 -129 -136 0
-18 -34 -35 -64 -65 -89 -91 -100 -101 -120 -121 -128 -129 -136 0
-18 -34 -35 -64 -65 -90 -91 -100 -102 -120 -121 -128 -129 -136 0
-18 -34 -35 -64 -65 -90 -91 -101 -102 -120 -122 -128 -129 -136 0
-18 -34 -35 -64 -65 -90 -91 -101 -102 -121 -122 -128 -130 -136 0
-18 -34 -35 -64 -65 -90 -91 -101 -102 -121 -122 -129 -130 -137 0
-18 -34 -35 -64 -65 -90 -91 -101 -102 -121 -122 -129 -130 -144 0
-18 -34 -35 -64 -65 -90 -91 -101 -102 -121 -122 -137 -138 -144 0
-18 -34 -35 -64 -65 -90 -91 -101 -102 -130 -131 -137 -138 -144 0
-17 -33 -34 -63 -64 -89 -90 -111 -112 -120 -121 -128 -129 -136 0
-18 -33 -35 -63 -64 -89 -90 -111 -112 -120 -121 -128 -129 -136 0
-18 -34 -35 -63 -65 -89 -90 -111 -112 -120 -121 -128 -129 -136 0
-18 -34 -35 -64 -65 -89 -91 -111 -112 -120 -121 -128 -129 -136 0
-18 -34 -35 -64 -65 -90 -91 -111 -113 -120 -121 -128 -129 -136 0
-18 -34 -35 -64 -65 -90 -91 -112 -113 -120 -122 -128 -129 -136 0
-18 -34 -35 -64 -65 -90 -91 -112 -113 -121 -122 -128 -130 -136 0
-18 -34 -35 -64 -65 -90 -91 -112 -113 -121 -122 -129 -130 -137 0
-18 -34 -35 -64 -65 -90 -91 -112 -113 -121 -122 -129 -130 -144 0
-18 -34 -35 -64 -65 -90 -91 -112 -113 -121 -122 -137 -138 -144 0
-18 -34 -35 -64 -65 -90 -91 -112 -113 -130 -131 -137 -138 -144 0
-18 -34 -35 -64 -65 -90 -91 -122 -123 -130 -131 -137 -138 -144 0
-17 -33 -34 -63 -64 -101 -102 -111 -112 -120 -121 -128 -129 -136 0
-18 -33 -35 -63 -64 -101 -102 -111 -112 -120 -121 -128 -129 -136 0
-18 -34 -35 -63 -65 -101 -102 -111 -112 -120 -121 -128 -129 -136 0
-18 -34 -35 -64 -65 -101 -103 -111 -112 -120 -121 -128 -129 -136 0
-18 -34 -35 -64 -65 -102 -103 -111 -113 -120 -121 -128 -129 -136 0
-18 -34 -35 -64 -65 -102 -103 -112 -113 -120 -122 -128 -129 -136 0
-18 -34 -35 -64 -65 -102 -103 -112 -113 -121 -122 -128 -130 -136 0
-18 -34 -35 -64 -65 -102 -103 -112 -113 -121 -122 -129 -130 -137 0
-18 -34 -35 -64 -65 -102 -103 -112 -113 -121 -122 -129 -130 -144 0
-18 -34 -35 -64 -65 -102 -103 -112 -113 -121 -122 -137 -138 -144 0
-18 -34 -35 -64 -65 -102 -103 -112 -113 -130 -131 -137 -138 -144 0
-18 -34 -35 -64 -65 -102 -103 -122 -123 -130 -131 -137 -138 -144 0
-18 -34 -35 -64 -65 -113 -114 -122 -123 -130 -131 -137 -138 -144 0
-16 -32 -33 -76 -77 -88 -89 -99 -100 -109 -110 -118 -119 -127 0
-17 -32 -34 -76 -77 -88 -89 -99 -100 -109 -110 -118 -119 -127 0
-18 -32 -35 -76 -77 -88 -89 -99 -100 -109 -110 -118 -119 -127 0
-17 -33 -34 -76 -78 -88 -89 -99 -100 -109 -110 -118 -119 -127 0
-18 -33 -35 -76 -78 -88 -89 -99 -100 -109 -110 -118 -119 -127 0
-18 -34 -35 -76 -79 -88 -89 -99 -100 -109 -110 -118 -119 -127 0
-17 -33 -34 -77 -78 -88 -90 -99 -100 -109 -110 -118 -119 -127 0
-18 -33 -35 -77 -78 -88 -90 -99 -100 -109 -110 -118 -119 -127 0
-18 -34 -35 -77 -79 -88 -90 -99 -100 -109 -110 -118 -119 -127 0
-18 -34 -35 -78 -79 -88 -91 -99 -100 -109 -110 -118 -119 -127 0
-17 -33 -34 -77 -78 -89 -90 -99 -101 -109 -110 -118 -119 -127 0
-18 -33 -35 -77 -78 -89 -90 -99 -101 -109 -110 -118 -119 -127 0
-18 -34 -35 -77 -79 -89 -90 -99 -101 -109 -110 -118 -119 -127 0
-18 -34 -35 -78 -79 -89 -91 -99 -101 -109 -110 -118 -119 -127 0
-18 -34 -35 -78 -79 -90 -91 -99 -102 -109 -110 -118 -119 -127 0
-17 -33 -34 -77 -78 -89 -90 -100 -101 -109 -111 -118 -119 -127 0
-18 -33 -35 -77 -78 -89 -90 -100 -101 -109 -111 -118 -119 -127 0
-18 -34 -35 -77 -79 -89 -90 -100 -101 -109 -111 -118 -119 -127 0
-18 -34 -35 -78 -79 -89 -91 -100 -101 -109 -111 -118 -119 -127 0
-18 -34 -35 -78 -79 -90 -91 -100 -102 -109 -111 -118 -119 -127 0
-18 -34 -35 -78 -79 -90 -91 -101 -102 -109 -112 -118 -119 -127 0
-17 -33 -34 -77 -78 -89 -90 -100 -101 -110 -111 -118 -120 -127 0
-18 -33 -35 -77 -78 -89 -90 -100 -101 -110 -111 -118 -120 -127 0
-18 -34 -35 -77 -79 -89 -90 -100 -101 -110 -111 -118 -120 -127 0
-18 -34 -35 -78 -79 -89 -91 -100 -101 -110 -111 -118 -120 -127 0
-18 -34 -35 -78 -79 -90 -91 -100 -102 -110 -111 -118 -120 -127 0
-18 -34 -35 -78 -79 -90 -91 -101 -102 -110 -112 -118 -120 -127 0
-18 -34 -35 -78 -79 -90 -91 -101 -102 -111 -112 -118 -121 -127 0
-17 -33 -34 -77 -78 -89 -90 -100 -101 -110 -111 -119 -120 -128 0
-18 -33 -35 -77 -78 -89 -90 -100 -101 -110 -111 -119 -120 -128 0
-18 -34 -35 -77 -79 -89 -90 -100 -101 -110 -111 -119 -120 -128 0
-18 -34 -35 -78 -79 -89 -91 -100 -101 -110 -111 -119 -120 -128 0
-18 -34 -35 -78 -79 -90 -91 -100 -102 -110 -111 -119 -120 -128 0
-18 -34 -35 -78 -79 -90 -91 -101 -102 -110 -112 -119 -120 -128 0
-18 -34 -35 -78 -79 -90 -91 -101 -102 -111 -112 -119 -121 -128 0
-18 -34 -35 -78 -79 -90 -91 -101 -102 -111 -112 -120 -121 -129 0
-17 -33 -34 -77 -78 -89 -90 -100 -101 -110 -111 -119 -120 -136 0
-18 -33 -35 -77 -78 -89 -90 -100 -101 -110 -111 -119 -120 -136 0
-18 -34 -35 -77 -79 -89 -90 -100 -101 -110 -111 -119 -120 -136 0
-18 -34 -35 -78 -79 -89 -91 -100 -101 -110 -111 -119 -120 -136 0
-18 -34 -35 -78 -79 -90 -91 -100 -102 -110 -111 -119 -120 -136 0
-18 -34 -35 -78 -79 -90 -91 -101 -102 -110 -112 -119 -120 -136 0
-18 -34 -35 -78 -79 -90 -91 -101 -102 -111 -112 -119 -121 -136 0
-18 -34 -35 -78 -79 -90 -91 -101 -102 -111 -112 -120 -121 -137 0
-18 -34 -35 -78 -79 -90 -91 -101 -102 -111 -112 -120 -121 -144 0
-17 -33 -34 -77 -78 -89 -90 -100 -101 -110 -111 -128 -129 -136 0
-18 -33 -35 -77 -78 -89 -90 -100 -101 -110 -111 -128 -129 -136 0
-18 -34 -35 -77 -79 -89 -90 -100 -101 -110 -111 -128 -129 -136 0
-18 -34 -35 -78 -79 -89 -91 -100 -101 -110 -111 -128 -129 -136 0
-18 -34 -35 -78 -79 -90 -91 -100 -102 -110 -111 -128 -129 -136 0
-18 -34 -35 -78 -79 -90 -91 -101 -102 -110 -112 -128 -129 -136 0
-18 -34 -35 -78 -79 -90 -91 -101 -102 -111 -112 -128 -130 -136 0
-18 -34 -35 -78 -79 -90 -91 -101 -102 -111 -112 -129 -130 -137 0
-18 -34 -35 -78 -79 -90 -91 -101 -102 -111 -112 -129 -130 -144 0
-18 -34 -35 -78 -79 -90 -91 -101 -102 -111 -112 -137 -138 -144 0
-17 -33 -34 -77 -78 -89 -90 -100 -101 -120 -121 -128 -129 -136 0
-18 -33 -35 -77 -78 -89 -90 -100 -101 -120 -121 -128 -129 -136 0
-18 -34 -35 -77 -79 -89 -90 -100 -101 -120 -121 -128 -129 -136 0
-18 -34 -35 -78 -79 -89 -91 -100 -101 -120 -121 -128 -129 -136 0
-18 -34 -35 -78 -79 -90 -91 -100 -102 -120 -121 -128 -129 -136 0
-18 -34 -35 -78 -79 -90 -91 -101 -102 -120 -122 -128 -129 -136 0
-18 -34 -35 -78 -79 -90 -91 -101 -102 -121 -122 -128 -130 -136 0
-18 -34 -35 -78 -79 -90 -91 -101 -102 -121 -122 -129 -130 -137 0
-18 -34 -35 -78 -79 -90 -91 -101 -102 -121 -122 -129 -130 -144 0
-18 -34 -35 -78 -79 -90 -91 -101 -102 -121 -122 -137 -138 -144 0
-18 -34 -35 -78 -79 -90 -91 -101 -102 -130 -131 -137 -138 -144 0
-17 -33 -34 -77 -78 -89 -90 -111 -112 -120 -121 -128 -129 -136 0
-18 -33 -35 -77 -78 -89 -90 -111 -112 -120 -121 -128 -129 -136 0
-18 -34 -35 -77 -79 -89 -90 -111 -112 -120 -121 -128 -129 -136 0
-18 -34 -35 -78 -79 -89 -91 -111 -112 -120 -121 -128 -129 -136 0
-18 -34 -35 -78 -79 -90 -91 -111 -113 -120 -121 -128 -129 -136 0
-18 -34 -35 -78 -79 -90 -91 -112 -113 -120 -122 -128 -129 -136 0
-18 -34 -35 -78 -79 -90 -91 -112 -113 -121 -122 -128 -130 -136 0
-18 -34 -35 -78 -79 -90 -91 -112 -113 -121 -122 -129 -130 -137 0
-18 -34 -35 -78 -79 -90 -91 -112 -113 -121 -122 -129 -130 -144 0
-18 -34 -35 -78 -79 -90 -91 -112 -113 -121 -122 -137 -138 -144 0
-18 -34 -35 -78 -79 -90 -91 -112 -113 -130 -131 -137 -138 -144 0
-18 -34 -35 -78 -79 -90 -91 -122 -123 -130 -131 -137 -138 -144 0
-17 -33 -34 -77 -78 -101 -102 -111 -112 -120 -121 -128 -129 -136 0
-18 -33 -35 -77 -78 -101 -102 -111 -112 -120 -121 -128 -129 -136 0
-18 -34 -35 -77 -79 -101 -102 -111 -112 -120 -121 -128 -129 -136 0
-18 -34 -35 -78 -79 -101 -103 -111 -112 -120 -121 -128 -129 -136 0
-18 -34 -35 -78 -79 -102 -103 -111 -113 -120 -121 -128 -129 -136 0
-18 -34 -35 -78 -79 -102 -103 -112 -113 -120 -122 -128 -129 -136 0
-18 -34 -35 -78 -79 -102 -103 -112 -113 -121 -122 -128 -130 -136 0
-18 -34 -35 -78 -79 -102 -103 -112 -113 -121 -122 -129 -130 -137 0
-18 -34 -35 -78 -79 -102 -103 -112 -113 -121 -122 -129 -130 -144 0
-18 -34 -35 -78 -79 -102 -103 -112 -113 -121 -122 -137 -138 -144 0
-18 -34 -35 -78 -79 -102 -103 -112 -113 -130 -131 -137 -138 -144 0
-18 -34 -35 -78 -79 -102 -103 -122 -123 -130 -131 -137 -138 -144 0
-18 -34 -35 -78 -79 -113 -114 -122 -123 -130 -131 -137 -138 -144 0
-17 -33 -34 -90 -91 -101 -102 -111 -112 -120 -121 -128 -129 -136 0
-18 -33 -35 -90 -91 -101 -102 -111 -112 -120 -121 -128 -129 -136 0
-18 -34 -35 -90 -92 -101 -102 -111 -112 -120 -121 -128 -129 -136 0
-18 -34 -35 -91 -92 -101 -103 -111 -112 -120 -121 -128 -129 -136 0
-18 -34 -35 -91 -92 -102 -103 -111 -113 -120 -121 -128 -129 -136 0
-18 -34 -35 -91 -92 -102 -103 -112 -113 -120 -122 -128 -129 -136 0
-18 -34 -35 -91 -92 -102 -103 -112 -113 -121 -122 -128 -130 -136 0
-18 -34 -35 -91 -92 -102 -103 -112 -113 -121 -122 -129 -130 -137 0
-18 -34 -35 -91 -92 -102 -103 -112 -113 -121 -122 -129 -130 -144 0
-18 -34 -35 -91 -92 -102 -103 -112 -113 -121 -122 -137 -138 -144 0
-18 -34 -35 -91 -92 -102 -103 -112 -113 -130 -131 -137 -138 -144 0
-18 -34 -35 -91 -92 -102 -103 -122 -123 -130 -131 -137 -138 -144 0
-18 -34 -35 -91 -92 -113 -114 -122 -123 -130 -131 -137 -138 -144 0
-18 -34 -35 -103 -104 -113 -114 -122 -123 -130 -131 -137 -138 -144 0
-15 -47 -48 -61 -62 -74 -75 -86 -87 -97 -98 -107 -108 -117 0
-16 -47 -49 -61 -62 -74 -75 -86 -87 -97 -98 -107 -108 -117 0
-17 -47 -50 -61 -62 -74 -75 -86 -87 -97 -98 -107 -108 -117 0
-18 -47 -51 -61 -62 -74 -75 -86 -87 -97 -98 -107 -108 -117 0
-16 -48 -49 -61 -63 -74 -75 -86 -87 -97 -98 -107 -108 -117 0
-17 -48 -50 -61 -63 -74 -75 -86 -87 -97 -98 -107 -108 -117 0
-18 -48 -51 -61 -63 -74 -75 -86 -87 -97 -98 -107 -108 -117 0
-17 -49 -50 -61 -64 -74 -75 -86 -87 -97 -98 -107 -108 -117 0
-18 -49 -51 -61 -64 -74 -75 -86 -87 -97 -98 -107 -108 -117 0
-18 -50 -51 -61 -65 -74 -75 -86 -87 -97 -98 -107 -108 -117 0
-16 -48 -49 -62 -63 -74 -76 -86 -87 -97 -98 -107 -108 -117 0
-17 -48 -50 -62 -63 -74 -76 -86 -87 -97 -98 -107 -108 -117 0
-18 -48 -51 -62 -63 -74 -76 -86 -87 -97 -98 -107 -108 -117 0
-17 -49 -50 -62 -64 -74 -76 -86 -87 -97 -98 -107 -108 -117 0
-18 -49 -51 -62 -64 -74 -76 -86 -87 -97 -98 -107 -108 -117 0
-18 -50 -51 -62 -65 -74 -76 -86 -87 -97 -98 -107 -108 -117 0
-17 -49 -50 -63 -64 -74 -77 -86 -87 -97 -98 -107 -108 -117 0
-18 -49 -51 -63 -64 -74 -77 -86 -87 -97 -98 -107 -108 -117 0
-18 -50 -51 -63 -65 -74 -77 -86 -87 -97 -98 -107 -108 -117 0
-18 -50 -51 -64 -65 -74 -78 -86 -87 -97 -98 -107 -108 -117 0
-16 -48 -49 -62 -63 -75 -76 -86 -88 -97 -98 -107 -108 -117 0
-17 -48 -50 -62 -63 -75 -76 -86 -88 -97 -98 -107 -108 -117 0
-18 -48 -51 -62 -63 -75 -76 -86 -88 -97 -98 -107 -108 -117 0
-17 -49 -50 -62 -64 -75 -76 -86 -88 -97 -98 -107 -108 -117 0
-18 -49 -51 -62 -64 -75 -76 -86 -88 -97 -98 -107 -108 -117 0
-18 -50 -51 -62 -65 -75 -76 -86 -88 -97 -98 -107 -108 -117 0
-17 -49 -50 -63 -64 -75 -77 -86 -88 -97 -98 -107 -108 -117 0
-18 -49 -51 -63 -64 -75 -77 -86 -88 -97 -98 -107 -108 -117 0
-18 -50 -51 -63 -65 -75 -77 -86 -88 -97 -98 -107 -108 -117 0
-18 -50 -51 -64 -65 -75 -78 -86 -88 -97 -98 -107 -108 -117 0
-17 -49 -50 -63 -64 -76 -77 -86 -89 -97 -98 -107 -108 -117 0
-18 -49 -51 -63 -64 -76 -77 -86 -89 -97 -98 -107 -108 -117 0
-18 -50 -51 -63 -65 -76 -77 -86 -89 -97 -98 -107 -108 -117 0
-18 -50 -51 -64 -65 -76 -78 -86 -89 -97 -98 -107 -108 -117 0
-18 -50 -51 -64 -65 -77 -78 -86 -90 -97 -98 -107 -108 -117 0
-16 -48 -49 -62 -63 -75 -76 -87 -88 -97 -99 -107 -108 -117 0
-17 -48 -50 -62 -63 -75 -76 -87 -88 -97 -99 -107 -108 -117 0
-18 -48 -51 -62 -63 -75 -76 -87 -88 -97 -99 -107 -108 -117 0
-17 -49 -50 -62 -64 -75 -76 -87 -88 -97 -99 -107 -108 -117 0
-18 -49 -51 -62 -64 -75 -76 -87 -88 -97 -99 -107 -108 -117 0
-18 -50 -51 -62 -65 -75 -76 -87 -88 -97 -99 -107 -108 -117 0
-17 -49 -50 -63 -64 -75 -77 -87 -88 -97 -99 -107 -108 -117 0
-18 -49 -51 -63 -64 -75 -77 -87 -88 -97 -99 -107 -108 -117 0
-18 -50 -51 -63 -65 -75 -77 -87 -88 -97 -99 -107 -108 -117 0
-18 -50 -51 -64 -65 -75 -78 -87 -88 -97 -99 -107 -108 -117 0
-17 -49 -50 -63 -64 -76 -77 -87 -89 -97 -99 -107 -108 -117 0
-18 -49 -51 -63 -64 -76 -77 -87 -89 -97 -99 -107 -108 -117 0
-18 -50 -51 -63 -65 -76 -77 -87 -89 -97 -99 -107 -108 -117 0
-18 -50 -51 -64 -65 -76 -78 -87 -89 -97 -99 -107 -108 -117 0
-18 -50 -51 -64 -65 -77 -78 -87 -90 -97 -99 -107 -108 -117 0
-17 -49 -50 -63 -64 -76 -77 -88 -89 -97 -100 -107 -108 -117 0
-18 -49 -51 -63 -64 -76 -77 -88 -89 -97 -100 -107 -108 -117 0
-18 -50 -51 -63 -65 -76 -77 -88 -89 -97 -100 -107 -108 -117 0
-18 -50 -51 -64 -65 -76 -78 -88 -89 -97 -100 -107 -108 -117 0
-18 -50 -51 -64 -65 -77 -78 -88 -90 -97 -100 -107 -108 -117 0
-18 -50 -51 -64 -65 -77 -78 -89 -90 -97 -101 -107 -108 -117 0
-16 -48 -49 -62 -63 -75 -76 -87 -88 -98 -99 -107 -109 -117 0
-17 -48 -50 -62 -63 -75 -76 -87 -88 -98 -99 -107 -109 -117 0
-18 -48 -51 -62 -63 -75 -76 -87 -88 -98 -99 -107 -109 -117 0
-17 -49 -50 -62 -64 -75 -76 -87 -88 -98 -99 -107 -109 -117 0
-18 -49 -51 -62 -64 -75 -76 -87 -88 -98 -99 -107 -109 -117 0
-18 -50 -51 -62 -65 -75 -76 -87 -88 -98 -99 -107 -109 -117 0
-17 -49 -50 -63 -64 -75 -77 -87 -88 -98 -99 -107 -109 -117 0
-18 -49 -51 -63 -64 -75 -77 -87 -88 -98 -99 -107 -109 -117 0
-18 -50 -51 -63 -65 -75 -77 -87 -88 -98 -99 -107 -109 -117 0
-18 -50 -51 -64 -65 -75 -78 -87 -88 -98 -99 -107 -109 -117 0
-17 -49 -50 -63 -64 -76 -77 -87 -89 -98 -99 -107 -109 -117 0
-18 -49 -51 -63 -64 -76 -77 -87 -89 -98 -99 -107 -109 -117 0
-18 -50 -51 -63 -65 -76 -77 -87 -89 -98 -99 -107 -109 -117 0
-18 -50 -51 -64 -65 -76 -78 -87 -89 -98 -99 -107 -109 -117 0
-18 -50 -51 -64 -65 -77 -78 -87 -90 -98 -99 -107 -109 -117 0
-17 -49 -50 -63 -64 -76 -77 -88 -89 -98 -100 -107 -109 -117 0
-18 -49 -51 -63 -64 -76 -77 -88 -89 -98 -100 -107 -109 -117 0
-18 -50 -51 -63 -65 -76 -77 -88 -89 -98 -100 -107 -109 -117 0
-18 -50 -51 -64 -65 -76 -78 -88 -89 -98 -100 -107 -109 -117 0
-18 -50 -51 -64 -65 -77 -78 -88 -90 -98 -100 -107 -109 -117 0
-18 -50 -51 -64 -65 -77 -78 -89 -90 -98 -101 -107 -109 -117 0
-17 -49 -50 -63 -64 -76 -77 -88 -89 -99 -100 -107 -110 -117 0
-18 -49 -51 -63 -64 -76 -77 -88 -89 -99 -100 -107 -110 -117 0
-18 -50 -51 -63 -65 -76 -77 -88 -89 -99 -100 -107 -110 -117 0
-18 -50 -51 -64 -65 -76 -78 -88 -89 -99 -100 -107 -110 -117 0
-18 -50 -51 -64 -65 -77 -78 -88 -90 -99 -100 -107 -110 -117 0
-18 -50 -51 -64 -65 -77 -78 -89 -90 -99 -101 -107 -110 -117 0
-18 -50 -51 -64 -65 -77 -78 -89 -90 -100 -101 -107 -111 -117 0
-16 -48 -49 -62 -63 -75 -76 -87 -88 -98 -99 -108 -109 -118 0
-17 -48 -50 -62 -63 -75 -76 -87 -88 -98 -99 -108 -109 -118 0
-18 -48 -51 -62 -63 -75 -76 -87 -88 -98 -99 -108 -109 -118 0
-17 -49 -50 -62 -64 -75 -76 -87 -88 -98 -99 -108 -109 -118 0
-18 -49 -51 -62 -64 -75 -76 -87 -88 -98 -99 -108 -109 -118 0
-18 -50 -51 -62 -65 -75 -76 -87 -88 -98 -99 -108 -109 -118 0
-17 -49 -50 -63 -64 -75 -77 -87 -88 -98 -99 -108 -109 -118 0
-18 -49 -51 -63 -64 -75 -77 -87 -88 -98 -99 -108 -109 -118 0
-18 -50 -51 -63 -65 -75 -77 -87 -88 -98 -99 -108 -109 -118 0
-18 -50 -51 -64 -65 -75 -78 -87 -88 -98 -99 -108 -109 -118 0
-17 -49 -50 -63 -64 -76 -77 -87 -89 -98 -99 -108 -109 -118 0
-18 -49 -51 -63 -64 -76 -77 -87 -89 -98 -99 -108 -109 -118 0
-18 -50 -51 -63 -65 -76 -77 -87 -89 -98 -99 -108 -109 -118 0
-18 -50 -51 -64 -65 -76 -78 -87 -89 -98 -99 -108 -109 -118 0
-18 -50 -51 -64 -65 -77 -78 -87 -90 -98 -99 -108 -109 -118 0
-17 -49 -50 -63 -64 -76 -77 -88 -89 -98 -100 -108 -109 -118 0
-18 -49 -51 -63 -64 -76 -77 -88 -89 -98 -100 -108 -109 -118 0
-18 -50 -51 -63 -65 -76 -77 -88 -89 -98 -100 -108 -109 -118 0
-18 -50 -51 -64 -65 -76 -78 -88 -89 -98 -100 -108 -109 -118 0
-18 -50 -51 -64 -65 -77 -78 -88 -90 -98 -100 -108 -109 -118 0
-18 -50 -51 -64 -65 -77 -78 -89 -90 -98 -101 -108 -109 -118 0
-17 -49 -50 -63 -64 -76 -77 -88 -89 -99 -100 -108 -110 -118 0
-18 -49 -51 -63 -64 -76 -77 -88 -89 -99 -100 -108 -110 -118 0
-18 -50 -51 -63 -65 -76 -77 -88 -89 -99 -100 -108 -110 -118 0
-18 -50 -51 -64 -65 -76 -78 -88 -89 -99 -100 -108 -110 -118 0
-18 -50 -51 -64 -65 -77 -78 -88 -90 -99 -100 -108 -110 -118 0
-18 -50 -51 -64 -65 -77 -78 -89 -90 -99 -101 -108 -110 -118 0
-18 -50 -51 -64 -65 -77 -78 -89 -90 -100 -101 -108 -111 -118 0
-17 -49 -50 -63 -64 -76 -77 -88 -89 -99 -100 -109 -110 -119 0
-18 -49 -51 -63 -64 -76 -77 -88 -89 -99 -100 -109 -110 -119 0
-18 -50 -51 -63 -65 -76 -77 -88 -89 -99 -100 -109 -110 -119 0
-18 -50 -51 -64 -65 -76 -78 -88 -89 -99 -100 -109 -110 -119 0
-18 -50 -51 -64 -65 -77 -78 -88 -90 -99 -100 -109 -110 -119 0
-18 -50 -51 -64 -65 -77 -78 -89 -90 -99 -101 -109 -110 -119 0
-18 -50 -51 -64 -65 -77 -78 -89 -90 -100 -101 -109 -111 -119 0
-18 -50 -51 -64 -65 -77 -78 -89 -90 -100 -101 -110 -111 -120 0
-16 -48 -49 -62 -63 -75 -76 -87 -88 -98 -99 -108 -109 -127 0
-17 -48 -50 -62 -63 -75 -76 -87 -88 -98 -99 -108 -109 -127 0
-18 -48 -51 -62 -63 -75 -76 -87 -88 -98 -99 -108 -109 -127 0
-17 -49 -50 -62 -64 -75 -76 -87 -88 -98 -99 -108 -109 -127 0
-18 -49 -51 -62 -64 -75 -76 -87 -88 -98 -99 -108 -109 -127 0
-18 -50 -51 -62 -65 -75 -76 -87 -88 -98 -99 -108 -109 -127 0
-17 -49 -50 -63 -64 -75 -77 -87 -88 -98 -99 -108 -109 -127 0
-18 -49 -51 -63 -64 -75 -77 -87 -88 -98 -99 -108 -109 -127 0
-18 -50 -51 -63 -65 -75 -77 -87 -88 -98 -99 -108 -109 -127 0
-18 -50 -51 -64 -65 -75 -78 -87 -88 -98 -99 -108 -109 -127 0
-17 -49 -50 -63 -64 -76 -77 -87 -89 -98 -99 -108 -109 -127 0
-18 -49 -51 -63 -64 -76 -77 -87 -89 -98 -99 -108 -109 -127 0
-18 -50 -51 -63 -65 -76 -77 -87 -89 -98 -99 -108 -109 -127 0
-18 -50 -51 -64 -65 -76 -78 -87 -89 -98 -99 -108 -109 -127 0
-18 -50 -51 -64 -65 -77 -78 -87 -90 -98 -99 -108 -109 -127 0
-17 -49 -50 -63 -64 -76 -77 -88 -89 -98 -100 -108 -109 -127 0
-18 -49 -51 -63 -64 -76 -77 -88 -89 -98 -100 -108 -109 -127 0
-18 -50 -51 -63 -65 -76 -77 -88 -89 -98 -100 -108 -109 -127 0
-18 -50 -51 -64 -65 -76 -78 -88 -89 -98 -100 -108 -109 -127 0
-18 -50 -51 -64 -65 -77 -78 -88 -90 -98 -100 -108 -109 -127 0
-18 -50 -51 -64 -65 -77 -78 -89 -90 -98 -101 -108 -109 -127 0
-17 -49 -50 -63 -64 -76 -77 -88 -89 -99 -100 -108 -110 -127 0
-18 -49 -51 -63 -64 -76 -77 -88 -89 -99 -100 -108 -110 -127 0
-18 -50 -51 -63 -65 -76 -77 -88 -89 -99 -100 -108 -110 -127 0
-18 -50 -51 -64 -65 -76 -78 -88 -89 -99 -100 -108 -110 -127 0
-18 -50 -51 -64 -65 -77 -78 -88 -90 -99 -100 -108 -110 -127 0
-18 -50 -51 -64 -65 -77 -78 -89 -90 -99 -101 -108 -110 -127 0
-18 -50 -51 -64 -65 -77 -78 -89 -90 -100 -101 -108 -111 -127 0
-17 -49 -50 -63 -64 -76 -77 -88 -89 -99 -100 -109 -110 -128 0
-18 -49 -51 -63 -64 -76 -77 -88 -89 -99 -100 -109 -110 -128 0
-18 -50 -51 -63 -65 -76 -77 -88 -89 -99 -100 -109 -110 -128 0
-18 -50 -51 -64 -65 -76 -78 -88 -89 -99 -100 -109 -110 -128 0
-18 -50 -51 -64 -65 -77 -78 -88 -90 -99 -100 -109 -110 -128 0
-18 -50 -51 -64 -65 -77 -78 -89 -90 -99 -101 -109 -110 -128 0
-18 -50 -51 -64 -65 -77 -78 -89 -90 -100 -101 -109 -111 -128 0
-18 -50 -51 -64 -65 -77 -78 -89 -90 -100 -101 -110 -111 -129 0
-17 -49 -50 -63 -64 -76 -77 -88 -89 -99 -100 -109 -110 -136 0
-18 -49 -51 -63 -64 -76 -77 -88 -89 -99 -100 -109 -110 -136 0
-18 -50 -51 -63 -65 -76 -77 -88 -89 -99 -100 -109 -110 -136 0
-18 -50 -51 -64 -65 -76 -78 -88 -89 -99 -100 -109 -110 -136 0
-18 -50 -51 -64 -65 -77 -78 -88 -90 -99 -100 -109 -110 -136 0
-18 -50 -51 -64 -65 -77 -78 -89 -90 -99 -101 -109 -110 -136 0
-18 -50 -51 -64 -65 -77 -78 -89 -90 -100 -101 -109 -111 -136 0
-18 -50 -51 -64 -65 -77 -78 -89 -90 -100 -101 -110 -111 -137 0
-18 -50 -51 -64 -65 -77 -78 -89 -90 -100 -101 -110 -111 -144 0
-16 -48 -49 -62 -63 -75 -76 -87 -88 -98 -99 -118 -119 -127 0
-17 -48 -50 -62 -63 -75 -76 -87 -88 -98 -99 -118 -119 -127 0
-18 -48 -51 -62 -63 -75 -76 -87 -88 -98 -99 -118 -119 -127 0
-17 -49 -50 -62 -64 -75 -76 -87 -88 -98 -99 -118 -119 -127 0
-18 -49 -51 -62 -64 -75 -76 -87 -88 -98 -99 -118 -119 -127 0
-18 -50 -51 -62 -65 -75 -76 -87 -88 -98 -99 -118 -119 -127 0
-17 -49 -50 -63 -64 -75 -77 -87 -88 -98 -99 -118 -119 -127 0
-18 -49 -51 -63 -64 -75 -77 -87 -88 -98 -99 -118 -119 -127 0
-18 -50 -51 -63 -65 -75 -77 -87 -88 -98 -99 -118 -119 -127 0
-18 -50 -51 -64 -65 -75 -78 -87 -88 -98 -99 -118 -119 -127 0
-17 -49 -50 -63 -64 -76 -77 -87 -89 -98 -99 -118 -119 -127 0
-18 -49 -51 -63 -64 -76 -77 -87 -89 -98 -99 -118 -119 -127 0
-18 -50 -51 -63 -65 -76 -77 -87 -89 -98 -99 -118 -119 -127 0
-18 -50 -51 -64 -65 -76 -78 -87 -89 -98 -99 -118 -119 -127 0
-18 -50 -51 -64 -65 -77 -78 -87 -90 -98 -99 -118 -119 -127 0
-17 -49 -50 -63 -64 -76 -77 -88 -89 -98 -100 -118 -119 -127 0
-18 -49 -51 -63 -64 -76 -77 -88 -89 -98 -100 -118 -119 -127 0
-18 -50 -51 -63 -65 -76 -77 -88 -89 -98 -100 -118 -119 -127 0
-18 -50 -51 -64 -65 -76 -78 -88 -89 -98 -100 -118 -119 -127 0
-18 -50 -51 -64 -65 -77 -78 -88 -90 -98 -100 -118 -119 -127 0
-18 -50 -51 -64 -65 -77 -78 -89 -90 -98 -101 -118 -119 -127 0
-17 -49 -50 -63 -64 -76 -77 -88 -89 -99 -100 -118 -120 -127 0
-18 -49 -51 -63 -64 -76 -77 -88 -89 -99 -100 -118 -120 -127 0
-18 -50 -51 -63 -65 -76 -77 -88 -89 -99 -100 -118 -120 -127 0
-18 -50 -51 -64 -65 -76 -78 -88 -89 -99 -100 -118 -120 -127 0
-18 -50 -51 -64 -65 -77 -78 -88 -90 -99 -100 -118 -120 -127 0
-18 -50 -51 -64 -65 -77 -78 -89 -90 -99 -101 -118 -120 -127 0
-18 -50 -51 -64 -65 -77 -78 -89 -90 -100 -101 -118 -121 -127 0
-17 -49 -50 -63 -64 -76 -77 -88 -89 -99 -100 -119 -120 -128 0
-18 -49 -51 -63 -64 -76 -77 -88 -89 -99 -100 -119 -120 -128 0
-18 -50 -51 -63 -65 -76 -77 -88 -89 -99 -100 -119 -120 -128 0
-18 -50 -51 -64 -65 -76 -78 -88 -89 -99 -100 -119 -120 -128 0
-18 -50 -51 -64 -65 -77 -78 -88 -90 -99 -100 -119 -120 -128 0
-18 -50 -51 -64 -65 -77 -78 -89 -90 -99 -101 -119 -120 -128 0
-18 -50 -51 -64 -65 -77 -78 -89 -90 -100 -101 -119 -121 -128 0
-18 -50 -51 -64 -65 -77 -78 -89 -90 -100 -101 -120 -121 -129 0
-17 -49 -50 -63 -64 -76 -77 -88 -89 -99 -100 -119 -120 -136 0
-18 -49 -51 -63 -64 -76 -77 -88 -89 -99 -100 -119 -120 -136 0
-18 -50 -51 -63 -65 -76 -77 -88 -89 -99 -100 -119 -120 -136 0
-18 -50 -51 -64 -65 -76 -78 -88 -89 -99 -100 -119 -120 -136 0
-18 -50 -51 -64 -65 -77 -78 -88 -90 -99 -100 -119 -120 -136 0
-18 -50 -51 -64 -65 -77 -78 -89 -90 -99 -101 -119 -120 -136 0
-18 -50 -51 -64 -65 -77 -78 -89 -90 -100 -101 -119 -121 -136 0
-18 -50 -51 -64 -65 -77 -78 -89 -90 -100 -101 -120 -121 -137 0
-18 -50 -51 -64 -65 -77 -78 -89 -90 -100 -101 -120 -121 -144 0
-17 -49 -50 -63 -64 -76 -77 -88 -89 -99 -100 -128 -129 -136 0
-18 -49 -51 -63 -64 -76 -77 -88 -89 -99 -100 -128 -129 -136 0
-18 -50 -51 -63 -65 -76 -77 -88 -89 -99 -100 -128 -129 -136 0
-18 -50 -51 -64 -65 -76 -78 -88 -89 -99 -100 -128 -129 -136 0
-18 -50 -51 -64 -65 -77 -78 -88 -90 -99 -100 -128 -129 -136 0
-18 -50 -51 -64 -65 -77 -78 -89 -90 -99 -101 -128 -129 -136 0
-18 -50 -51 -64 -65 -77 -78 -89 -90 -100 -101 -128 -130 -136 0
-18 -50 -51 -64 -65 -77 -78 -89 -90 -100 -101 -129 -130 -137 0
-18 -50 -51 -64 -65 -77 -78 -89 -90 -100 -101 -129 -130 -144 0
-18 -50 -51 -64 -65 -77 -78 -89 -90 -100 -101 -137 -138 -144 0
-16 -48 -49 -62 -63 -75 -76 -87 -88 -109 -110 -118 -119 -127 0
-17 -48 -50 -62 -63 -75 -76 -87 -88 -109 -110 -118 -119 -127 0
-18 -48 -51 -62 -63 -75 -76 -87 -88 -109 -110 -118 -119 -127 0
-17 -49 -50 -62 -64 -75 -76 -87 -88 -109 -110 -118 -119 -127 0
-18 -49 -51 -62 -64 -75 -76 -87 -88 -109 -110 -118 -119 -127 0
-18 -50 -51 -62 -65 -75 -76 -87 -88 -109 -110 -118 -119 -127 0
-17 -49 -50 -63 -64 -75 -77 -87 -88 -109 -110 -118 -119 -127 0
-18 -49 -51 -63 -64 -75 -77 -87 -88 -109 -110 -118 -119 -127 0
-18 -50 -51 -63 -65 -75 -77 -87 -88 -109 -110 -118 -119 -127 0
-18 -50 -51 -64 -65 -75 -78 -87 -88 -109 -110 -118 -119 -127 0
-17 -49 -50 -63 -64 -76 -77 -87 -89 -109 -110 -118 -119 -127 0
-18 -49 -51 -63 -64 -76 -77 -87 -89 -109 -110 -118 -119 -127 0
-18 -50 -51 -63 -65 -76 -77 -87 -89 -109 -110 -118 -119 -127 0
-18 -50 -51 -64 -65 -76 -78 -87 -89 -109 -110 -118 -119 -127 0
-18 -50 -51 -64 -65 -77 -78 -87 -90 -109 -110 -118 -119 -127 0
-17 -49 -50 -63 -64 -76 -77 -88 -89 -109 -111 -118 -119 -127 0
-18 -49 -51 -63 -64 -76 -77 -88 -89 -109 -111 -118 -119 -127 0
-18 -50 -51 -63 -65 -76 -77 -88 -89 -109 -111 -118 -119 -127 0
-18 -50 -51 -64 -65 -76 -78 -88 -89 -109 -111 -118 -119 -127 0
-18 -50 -51 -64 -65 -77 -78 -88 -90 -109 -111 -118 -119 -127 0
-18 -50 -51 -64 -65 -77 -78 -89 -90 -109 -112 -118 -119 -127 0
-17 -49 -50 -63 -64 -76 -77 -88 -89 -110 -111 -118 -120 -127 0
-18 -49 -51 -63 -64 -76 -77 -88 -89 -110 -111 -118 -120 -127 0
-18 -50 -51 -63 -65 -76 -77 -88 -89 -110 -111 -118 -120 -127 0
-18 -50 -51 -64 -65 -76 -78 -88 -89 -110 -111 -118 -120 -127 0
-18 -50 -51 -64 -65 -77 -78 -88 -90 -110 -111 -118 -120 -127 0
-18 -50 -51 -64 -65 -77 -78 -89 -90 -110 -112 -118 -120 -127 0
-18 -50 -51 -64 -65 -77 -78 -89 -90 -111 -112 -118 -121 -127 0
-17 -49 -50 -63 -64 -76 -77 -88 -89 -110 -111 -119 -120 -128 0
-18 -49 -51 -63 -64 -76 -77 -88 -89 -110 -111 -119 -120 -128 0
-18 -50 -51 -63 -65 -76 -77 -88 -89 -110 -111 -119 -120 -128 0
-18 -50 -51 -64 -65 -76 -78 -88 -89 -110 -111 -119 -120 -128 0
-18 -50 -51 -64 -65 -77 -78 -88 -90 -110 -111 -119 -120 -128 0
-18 -50 -51 -64 -65 -77 -78 -89 -90 -110 -112 -119 -120 -128 0
-18 -50 -51 -64 -65 -77 -78 -89 -90 -111 -112 -119 -121 -128 0
-18 -50 -51 -64 -65 -77 -78 -89 -90 -111 -112 -120 -121 -129 0
-17 -49 -50 -63 -64 -76 -77 -88 -89 -110 -111 -119 -120 -136 0
-18 -49 -51 -63 -64 -76 -77 -88 -89 -110 -111 -119 -120 -136 0
-18 -50 -51 -63 -65 -76 -77 -88 -89 -110 -111 -119 -120 -136 0
-18 -50 -51 -64 -65 -76 -78 -88 -89 -110 -111 -119 -120 -136 0
-18 -50 -51 -64 -65 -77 -78 -88 -90 -110 -111 -119 -120 -136 0
-18 -50 -51 -64 -65 -77 -78 -89 -90 -110 -112 -119 -120 -136 0
-18 -50 -51 -64 -65 -77 -78 -89 -90 -111 -112 -119 -121 -136 0
-18 -50 -51 -64 -65 -77 -78 -89 -90 -111 -112 -120 -121 -137 0
-18 -50 -51 -64 -65 -77 -78 -89 -90 -111 -112 -120 -121 -144 0
-17 -49 -50 -63 -64 -76 -77 -88 -89 -110 -111 -128 -129 -136 0
-18 -49 -51 -63 -64 -76 -77 -88 -89 -110 -111 -128 -129 -136 0
-18 -50 -51 -63 -65 -76 -77 -88 -89 -110 -111 -128 -129 -136 0
-18 -50 -51 -64 -65 -76 -78 -88 -89 -110 -111 -128 -129 -136 0
-18 -50 -51 -64 -65 -77 -78 -88 -90 -110 -111 -128 -129 -136 0
-18 -50 -51 -64 -65 -77 -78 -89 -90 -110 -112 -128 -129 -136 0
-18 -50 -51 -64 -65 -77 -78 -89 -90 -111 -112 -128 -130 -136 0
-18 -50 -51 -64 -65 -77 -78 -89 -90 -111 -112 -129 -130 -137 0
-18 -50 -51 -64 -65 -77 -78 -89 -90 -111 -112 -129 -130 -144 0
-18 -50 -51 -64 -65 -77 -78 -89 -90 -111 -112 -137 -138 -144 0
-17 -49 -50 -63 -64 -76 -77 -88 -89 -120 -121 -128 -129 -136 0
-18 -49 -51 -63 -64 -76 -77 -88 -89 -120 -121 -128 -129 -136 0
-18 -50 -51 -63 -65 -76 -77 -88 -89 -120 -121 -128 -129 -136 0
-18 -50 -51 -64 -65 -76 -78 -88 -89 -120 -121 -128 -129 -136 0
-18 -50 -51 -64 -65 -77 -78 -88 -90 -120 -121 -128 -129 -136 0
-18 -50 -51 -64 -65 -77 -78 -89 -90 -120 -122 -128 -129 -136 0
-18 -50 -51 -64 -65 -77 -78 -89 -90 -121 -122 -128 -130 -136 0
-18 -50 -51 -64 -65 -77 -78 -89 -90 -121 -122 -129 -130 -137 0
-18 -50 -51 -64 -65 -77 -78 -89 -90 -121 -122 -129 -130 -144 0
-18 -50 -51 -64 -65 -77 -78 -89 -90 -121 -122 -137 -138 -144 0
-18 -50 -51 -64 -65 -77 -78 -89 -90 -130 -131 -137 -138 -144 0
-16 -48 -49 -62 -63 -75 -76 -99 -100 -109 -110 -118 -119 -127 0
-17 -48 -50 -62 -63 -75 -76 -99 -100 -109 -110 -118 -119 -127 0
-18 -48 -51 -62 -63 -75 -76 -99 -100 -109 -110 -118 -119 -127 0
-17 -49 -50 -62 -64 -75 -76 -99 -100 -109 -110 -118 -119 -127 0
-18 -49 -51 -62 -64 -75 -76 -99 -100 -109 -110 -118 -119 -127 0
-18 -50 -51 -62 -65 -75 -76 -99 -100 -109 -110 -118 -119 -127 0
-17 -49 -50 -63 -64 -75 -77 -99 -100 -109 -110 -118 -119 -127 0
-18 -49 -51 -63 -64 -75 -77 -99 -100 -109 -110 -118 -119 -127 0
-18 -50 -51 -63 -65 -75 -77 -99 -100 -109 -110 -118 -119 -127 0
-18 -50 -51 -64 -65 -75 -78 -99 -100 -109 -110 -118 -119 -127 0
-17 -49 -50 -63 -64 -76 -77 -99 -101 -109 -110 -118 -119 -127 0
-18 -49 -51 -63 -64 -76 -77 -99 -101 -109 -110 -118 -119 -127 0
-18 -50 -51 -63 -65 -76 -77 -99 -101 -109 -110 -118 -119 -127 0
-18 -50 -51 -64 -65 -76 -78 -99 -101 -109 -110 -118 -119 -127 0
-18 -50 -51 -64 -65 -77 -78 -99 -102 -109 -110 -118 -119 -127 0
-17 -49 -50 -63 -64 -76 -77 -100 -101 -109 -111 -118 -119 -127 0
-18 -49 -51 -63 -64 -76 -77 -100 -101 -109 -111 -118 -119 -127 0
-18 -50 -51 -63 -65 -76 -77 -100 -101 -109 -111 -118 -119 -127 0
-18 -50 -51 -64 -65 -76 -78 -100 -101 -109 -111 -118 -119 -127 0
-18 -50 -51 -64 -65 -77 -78 -100 -102 -109 -111 -118 -119 -127 0
-18 -50 -51 -64 -65 -77 -78 -101 -102 -109 -112 -118 -119 -127 0
-17 -49 -50 -63 -64 -76 -77 -100 -101 -110 -111 -118 -120 -127 0
-18 -49 -51 -63 -64 -76 -77 -100 -101 -110 -111 -118 -120 -127 0
-18 -50 -51 -63 -65 -76 -77 -100 -101 -110 -111 -118 -120 -127 0
-18 -50 -51 -64 -65 -76 -78 -100 -101 -110 -111 -118 -120 -127 0
-18 -50 -51 -64 -65 -77 -78 -100 -102 -110 -111 -118 -120 -127 0
-18 -50 -51 -64 -65 -77 -78 -101 -102 -110 -112 -118 -120 -127 0
-18 -50 -51 -64 -65 -77 -78 -101 -102 -111 -112 -118 -121 -127 0
-17 -49 -50 -63 -64 -76 -77 -100 -101 -110 -111 -119 -120 -128 0
-18 -49 -51 -63 -64 -76 -77 -100 -101 -110 -111 -119 -120 -128 0
-18 -50 -51 -63 -65 -76 -77 -100 -101 -110 -111 -119 -120 -128 0
-18 -50 -51 -64 -65 -76 -78 -100 -101 -110 -111 -119 -120 -128 0
-18 -50 -51 -64 -65 -77 -78 -100 -102 -110 -111 -119 -120 -128 0
-18 -50 -51 -64 -65 -77 -78 -101 -102 -110 -112 -119 -120 -128 0
-18 -50 -51 -64 -65 -77 -78 -101 -102 -111 -112 -119 -121 -128 0
-18 -50 -51 -64 -65 -77 -78 -101 -102 -111 -112 -120 -121 -129 0
-17 -49 -50 -63 -64 -76 -77 -100 -101 -110 -111 -119 -120 -136 0
-18 -49 -51 -63 -64 -76 -77 -100 -101 -110 -111 -119 -120 -136 0
-18 -50 -51 -63 -65 -76 -77 -100 -101 -110 -111 -119 -120 -136 0
-18 -50 -51 -64 -65 -76 -78 -100 -101 -110 -111 -119 -120 -136 0
-18 -50 -51 -64 -65 -77 -78 -100 -102 -110 -111 -119 -120 -136 0
-18 -50 -51 -64 -65 -77 -78 -101 -102 -110 -112 -119 -120 -136 0
-18 -50 -51 -64 -65 -77 -78 -101 -102 -111 -112 -119 -121 -136 0
-18 -50 -51 -64 -65 -77 -78 -101 -102 -111 -112 -120 -121 -137 0
-18 -50 -51 -64 -65 -77 -78 -101 -102 -111 -112 -120 -121 -144 0
-17 -49 -50 -63 -64 -76 -77 -100 -101 -110 -111 -128 -129 -136 0
-18 -49 -51 -63 -64 -76 -77 -100 -101 -110 -111 -128 -129 -136 0
-18 -50 -51 -63 -65 -76 -77 -100 -101 -110 -111 -128 -129 -136 0
-18 -50 -51 -64 -65 -76 -78 -100 -101 -110 -111 -128 -129 -136 0
-18 -50 -51 -64 -65 -77 -78 -100 -102 -110 -111 -128 -129 -136 0
-18 -50 -51 -64 -65 -77 -78 -101 -102 -110 -112 -128 -129 -136 0
-18 -50 -51 -64 -65 -77 -78 -101 -102 -111 -112 -128 -130 -136 0
-18 -50 -51 -64 -65 -77 -78 -101 -102 -111 -112 -129 -130 -137 0
-18 -50 -51 -64 -65 -77 -78 -101 -102 -111 -112 -129 -130 -144 0
-18 -50 -51 -64 -65 -77 -78 -101 -102 -111 -112 -137 -138 -144 0
-17 -49 -50 -63 -64 -76 -77 -100 -101 -120 -121 -128 -129 -136 0
-18 -49 -51 -63 -64 -76 -77 -100 -101 -120 -121 -128 -129 -136 0
-18 -50 -51 -63 -65 -76 -77 -100 -101 -120 -121 -128 -129 -136 0
-18 -50 -51 -64 -65 -76 -78 -100 -101 -120 -121 -128 -129 -136 0
-18 -50 -51 -64 -65 -77 -78 -100 -102 -120 -121 -128 -129 -136 0
-18 -50 -51 -64 -65 -77 -78 -101 -102 -120 -122 -128 -129 -136 0
-18 -50 -51 -64 -65 -77 -78 -101 -102 -121 -122 -128 -130 -136 0
-18 -50 -51 -64 -65 -77 -78 -101 -102 -121 -122 -129 -130 -137 0
-18 -50 -51 -64 -65 -77 -78 -101 -102 -121 -122 -129 -130 -144 0
-18 -50 -51 -64 -65 -77 -78 -101 -102 -121 -122 -137 -138 -144 0
-18 -50 -51 -64 -65 -77 -78 -101 -102 -130 -131 -137 -138 -144 0
-17 -49 -50 -63 -64 -76 -77 -111 -112 -120 -121 -128 -129 -136 0
-18 -49 -51 -63 -64 -76 -77 -111 -112 -120 -121 -128 -129 -136 0
-18 -50 -51 -63 -65 -76 -77 -111 -112 -120 -121 -128 -129 -136 0
-18 -50 -51 -64 -65 -76 -78 -111 -112 -120 -121 -128 -129 -136 0
-18 -50 -51 -64 -65 -77 -78 -111 -113 -120 -121 -128 -129 -136 0
-18 -50 -51 -64 -65 -77 -78 -112 -113 -120 -122 -128 -129 -136 0
-18 -50 -51 -64 -65 -77 -78 -112 -113 -121 -122 -128 -130 -136 0
-18 -50 -51 -64 -65 -77 -78 -112 -113 -121 -122 -129 -130 -137 0
-18 -50 -51 -64 -65 -77 -78 -112 -113 -121 -122 -129 -130 -144 0
-18 -50 -51 -64 -65 -77 -78 -112 -113 -121 -122 -137 -138 -144 0
-18 -50 -51 -64 -65 -77 -78 -112 -113 -130 -131 -137 -138 -144 0
-18 -50 -51 -64 -65 -77 -78 -122 -123 -130 -131 -137 -138 -144 0
-16 -48 -49 -62 -63 -88 -89 -99 -100 -109 -110 -118 -119 -127 0
-17 -48 -50 -62 -63 -88 -89 -99 -100 -109 -110 -118 -119 -127 0
-18 -48 -51 -62 -63 -88 -89 -99 -100 -109 -110 -118 -119 -127 0
-17 -49 -50 -62 -64 -88 -89 -99 -100 -109 -110 -118 -119 -127 0
-18 -49 -51 -62 -64 -88 -89 -99 -100 -109 -110 -118 -119 -127 0
-18 -50 -51 -62 -65 -88 -89 -99 -100 -109 -110 -118 -119 -127 0
-17 -49 -50 -63 -64 -88 -90 -99 -100 -109 -110 -118 -119 -127 0
-18 -49 -51 -63 -64 -88 -90 -99 -100 -109 -110 -118 -119 -127 0
-18 -50 -51 -63 -65 -88 -90 -99 -100 -109 -110 -118 -119 -127 0
-18 -50 -51 -64 -65 -88 -91 -99 -100 -109 -110 -118 -119 -127 0
-17 -49 -50 -63 -64 -89 -90 -99 -101 -109 -110 -118 -119 -127 0
-18 -49 -51 -63 -64 -89 -90 -99 -101 -109 -110 -118 -119 -127 0
-18 -50 -51 -63 -65 -89 -90 -99 -101 -109 -110 -118 -119 -127 0
-18 -50 -51 -64 -65 -89 -91 -99 -101 -109 -110 -118 -119 -127 0
-18 -50 -51 -64 -65 -90 -91 -99 -102 -109 -110 -118 -119 -127 0
-17 -49 -50 -63 -64 -89 -90 -100 -101 -109 -111 -118 -119 -127 0
-18 -49 -51 -63 -64 -89 -90 -100 -101 -109 -111 -118 -119 -127 0
-18 -50 -51 -63 -65 -89 -90 -100 -101 -109 -111 -118 -119 -127 0
-18 -50 -51 -64 -65 -89 -91 -100 -101 -109 -111 -118 -119 -127 0
-18 -50 -51 -64 -65 -90 -91 -100 -102 -109 -111 -118 -119 -127 0
-18 -50 -51 -64 -65 -90 -91 -101 -102 -109 -112 -118 -119 -127 0
-17 -49 -50 -63 -64 -89 -90 -100 -101 -110 -111 -118 -120 -127 0
-18 -49 -51 -63 -64 -89 -90 -100 -101 -110 -111 -118 -120 -127 0
-18 -50 -51 -63 -65 -89 -90 -100 -101 -110 -111 -118 -120 -127 0
-18 -50 -51 -64 -65 -89 -91 -100 -101 -110 -111 -118 -120 -127 0
-18 -50 -51 -64 -65 -90 -91 -100 -102 -110 -111 -118 -120 -127 0
-18 -50 -51 -64 -65 -90 -91 -101 -102 -110 -112 -118 -120 -127 0
-18 -50 -51 -64 -65 -90 -91 -101 -102 -111 -112 -118 -121 -127 0
-17 -49 -50 -63 -64 -89 -90 -100 -101 -110 -111 -119 -120 -128 0
-18 -49 -51 -63 -64 -89 -90 -100 -101 -110 -111 -119 -120 -128 0
-18 -50 -51 -63 -65 -89 -90 -100 -101 -110 -111 -119 -120 -128 0
-18 -50 -51 -64 -65 -89 -91 -100 -101 -110 -111 -119 -120 -128 0
-18 -50 -51 -64 -65 -90 -91 -100 -102 -110 -111 -119 -120 -128 0
-18 -50 -51 -64 -65 -90 -91 -101 -102 -110 -112 -119 -120 -128 0
-18 -50 -51 -64 -65 -90 -91 -101 -102 -111 -112 -119 -121 -128 0
-18 -50 -51 -64 -65 -90 -91 -101 -102 -111 -112 -120 -121 -129 0
-17 -49 -50 -63 -64 -89 -90 -100 -101 -110 -111 -119 -120 -136 0
-18 -49 -51 -63 -64 -89 -90 -100 -101 -110 -111 -119 -120 -136 0
-18 -50 -51 -63 -65 -89 -90 -100 -101 -110 -111 -119 -120 -136 0
-18 -50 -51 -64 -65 -89 -91 -100 -101 -110 -111 -119 -120 -136 0
-18 -50 -51 -64 -65 -90 -91 -100 -102 -110 -111 -119 -120 -136 0
-18 -50 -51 -64 -65 -90 -91 -101 -102 -110 -112 -119 -120 -136 0
-18 -50 -51 -64 -65 -90 -91 -101 -102 -111 -112 -119 -121 -136 0
-18 -50 -51 -64 -65 -90 -91 -101 -102 -111 -112 -120 -121 -137 0
-18 -50 -51 -64 -65 -90 -91 -101 -102 -111 -112 -120 -121 -144 0
-17 -49 -50 -63 -64 -89 -90 -100 -101 -110 -111 -128 -129 -136 0
-18 -49 -51 -63 -64 -89 -90 -100 -101 -110 -111 -128 -129 -136 0
-18 -50 -51 -63 -65 -89 -90 -100 -101 -110 -111 -128 -129 -136 0
-18 -50 -51 -64 -65 -89 -91 -100 -101 -110 -111 -128 -129 -136 0
-18 -50 -51 -64 -65 -90 -91 -100 -102 -110 -111 -128 -129 -136 0
-18 -50 -51 -64 -65 -90 -91 -101 -102 -110 -112 -128 -129 -136 0
-18 -50 -51 -64 -65 -90 -91 -101 -102 -111 -112 -128 -130 -136 0
-18 -50 -51 -64 -65 -90 -91 -101 -102 -111 -112 -129 -130 -137 0
-18 -50 -51 -64 -65 -90 -91 -101 -102 -111 -112 -129 -130 -144 0
-18 -50 -51 -64 -65 -90 -91 -101 -102 -111 -112 -137 -138 -144 0
-17 -49 -50 -63 -64 -89 -90 -100 -101 -120 -121 -128 -129 -136 0
-18 -49 -51 -63 -64 -89 -90 -100 -101 -120 -121 -128 -129 -136 0
-18 -50 -51 -63 -65 -89 -90 -100 -101 -120 -121 -128 -129 -136 0
-18 -50 -51 -64 -65 -89 -91 -100 -101 -120 -121 -128 -129 -136 0
-18 -50 -51 -64 -65 -90 -91 -100 -102 -120 -121 -128 -129 -136 0
-18 -50 -51 -64 -65 -90 -91 -101 -102 -120 -122 -128 -129 -136 0
-18 -50 -51 -64 -65 -90 -91 -101 -102 -121 -122 -128 -130 -136 0
-18 -50 -51 -64 -65 -90 -91 -101 -102 -121 -122 -129 -130 -137 0
-18 -50 -51 -64 -65 -90 -91 -101 -102 -121 -122 -129 -130 -144 0
-18 -50 -51 -64 -65 -90 -91 -101 -102 -121 -122 -137 -138 -144 0
-18 -50 -51 -64 -65 -90 -91 -101 -102 -130 -131 -137 -138 -144 0
-17 -49 -50 -63 -64 -89 -90 -111 -112 -120 -121 -128 -129 -136 0
-18 -49 -51 -63 -64 -89 -90 -111 -112 -120 -121 -128 -129 -136 0
-18 -50 -51 -63 -65 -89 -90 -111 -112 -120 -121 -128 -129 -136 0
-18 -50 -51 -64 -65 -89 -91 -111 -112 -120 -121 -128 -129 -136 0
-18 -50 -51 -64 -65 -90 -91 -111 -113 -120 -121 -128 -129 -136 0
-18 -50 -51 -64 -65 -90 -91 -112 -113 -120 -122 -128 -129 -136 0
-18 -50 -51 -64 -65 -90 -91 -112 -113 -121 -122 -128 -130 -136 0
-18 -50 -51 -64 -65 -90 -91 -112 -113 -121 -122 -129 -130 -137 0
-18 -50 -51 -64 -65 -90 -91 -112 -113 -121 -122 -129 -130 -144 0
-18 -50 -51 -64 -65 -90 -91 -112 -113 -121 -122 -137 -138 -144 0
-18 -50 -51 -64 -65 -90 -91 -112 -113 -130 -131 -137 -138 -144 0
-18 -50 -51 -64 -65 -90 -91 -122 -123 -130 -131 -137 -138 -144 0
-17 -49 -50 -63 -64 -101 -102 -111 -112 -120 -121 -128 -129 -136 0
-18 -49 -51 -63 -64 -101 -102 -111 -112 -120 -121 -128 -129 -136 0
-18 -50 -51 -63 -65 -101 -102 -111 -112 -120 -121 -128 -129 -136 0
-18 -50 -51 -64 -65 -101 -103 -111 -112 -120 -121 -128 -129 -136 0
-18 -50 -51 -64 -65 -102 -103 -111 -113 -120 -121 -128 -129 -136 0
-18 -50 -51 -64 -65 -102 -103 -112 -113 -120 -122 -128 -129 -136 0
-18 -50 -51 -64 -65 -102 -103 -112 -113 -121 -122 -128 -130 -136 0
-18 -50 -51 -64 -65 -102 -103 -112 -113 -121 -122 -129 -130 -137 0
-18 -50 -51 -64 -65 -102 -103 -112 -113 -121 -122 -129 -130 -144 0
-18 -50 -51 -64 -65 -102 -103 -112 -113 -121 -122 -137 -138 -144 0
-18 -50 -51 -64 -65 -102 -103 -112 -113 -130 -131 -137 -138 -144 0
-18 -50 -51 -64 -65 -102 -103 -122 -123 -130 -131 -137 -138 -144 0
-18 -50 -51 -64 -65 -113 -114 -122 -123 -130 -131 -137 -138 -144 0
-16 -48 -49 -76 -77 -88 -89 -99 -100 -109 -110 -118 -119 -127 0
-17 -48 -50 -76 -77 -88 -89 -99 -100 -109 -110 -118 -119 -127 0
-18 -48 -51 -76 -77 -88 -89 -99 -100 -109 -110 -118 -119 -127 0
-17 -49 -50 -76 -78 -88 -89 -99 -100 -109 -110 -118 -119 -127 0
-18 -49 -51 -76 -78 -88 -89 -99 -100 -109 -110 -118 -119 -127 0
-18 -50 -51 -76 -79 -88 -89 -99 -100 -109 -110 -118 -119 -127 0
-17 -49 -50 -77 -78 -88 -90 -99 -100 -109 -110 -118 -119 -127 0
-18 -49 -51 -77 -78 -88 -90 -99 -100 -109 -110 -118 -119 -127 0
-18 -50 -51 -77 -79 -88 -90 -99 -100 -109 -110 -118 -119 -127 0
-18 -50 -51 -78 -79 -88 -91 -99 -100 -109 -110 -118 -119 -127 0
-17 -49 -50 -77 -78 -89 -90 -99 -101 -109 -110 -118 -119 -127 0
-18 -49 -51 -77 -78 -89 -90 -99 -101 -109 -110 -118 -119 -127 0
-18 -50 -51 -77 -79 -89 -90 -99 -101 -109 -110 -118 -119 -127 0
-18 -50 -51 -78 -79 -89 -91 -99 -101 -109 -110 -118 -119 -127 0
-18 -50 -51 -78 -79 -90 -91 -99 -102 -109 -110 -118 -119 -127 0
-17 -49 -50 -77 -78 -89 -90 -100 -101 -109 -111 -118 -119 -127 0
-18 -49 -51 -77 -78 -89 -90 -100 -101 -109 -111 -118 -119 -127 0
-18 -50 -51 -77 -79 -89 -90 -100 -101 -109 -111 -118 -119 -127 0
-18 -50 -51 -78 -79 -89 -91 -100 -101 -109 -111 -118 -119 -127 0
-18 -50 -51 -78 -79 -90 -91 -100 -102 -109 -111 -118 -119 -127 0
-18 -50 -51 -78 -79 -90 -91 -101 -102 -109 -112 -118 -119 -127 0
-17 -49 -50 -77 -78 -89 -90 -100 -101 -110 -111 -118 -120 -127 0
-18 -49 -51 -77 -78 -89 -90 -100 -101 -110 -111 -118 -120 -127 0
-18 -50 -51 -77 -79 -89 -90 -100 -101 -110 -111 -118 -120 -127 0
-18 -50 -51 -78 -79 -89 -91 -100 -101 -110 -111 -118 -120 -127 0
-18 -50 -51 -78 -79 -90 -91 -100 -102 -110 -111 -118 -120 -127 0
-18 -50 -51 -78 -79 -90 -91 -101 -102 -110 -112 -118 -120 -127 0
-18 -50 -51 -78 -79 -90 -91 -101 -102 -111 -112 -118 -121 -127 0
-17 -49 -50 -77 -78 -89 -90 -100 -101 -110 -111 -119 -120 -128 0
-18 -49 -51 -77 -78 -89 -90 -100 -101 -110 -111 -119 -120 -128 0
-18 -50 -51 -77 -79 -89 -90 -100 -101 -110 -111 -119 -120 -128 0
-18 -50 -51 -78 -79 -89 -91 -100 -101 -110 -111 -119 -120 -128 0
-18 -50 -51 -78 -79 -90 -91 -100 -102 -110 -111 -119 -120 -128 0
-18 -50 -51 -78 -79 -90 -91 -101 -102 -110 -112 -119 -120 -128 0
-18 -50 -51 -78 -79 -90 -91 -101 -102 -111 -112 -119 -121 -128 0
-18 -50 -51 -78 -79 -90 -91 -101 -102 -111 -112 -120 -121 -129 0
-17 -49 -50 -77 -78 -89 -90 -100 -101 -110 -111 -119 -120 -136 0
-18 -49 -51 -77 -78 -89 -90 -100 -101 -110 -111 -119 -120 -136 0
-18 -50 -51 -77 -79 -89 -90 -100 -101 -110 -111 -119 -120 -136 0
-18 -50 -51 -78 -79 -89 -91 -100 -101 -110 -111 -119 -120 -136 0
-18 -50 -51 -78 -79 -90 -91 -100 -102 -110 -111 -119 -120 -136 0
-18 -50 -51 -78 -79 -90 -91 -101 -102 -110 -112 -119 -120 -136 0
-18 -50 -51 -78 -79 -90 -91 -101 -102 -111 -112 -119 -121 -136 0
-18 -50 -51 -78 -79 -90 -91 -101 -102 -111 -112 -120 -121 -137 0
-18 -50 -51 -78 -79 -90 -91 -101 -102 -111 -112 -120 -121 -144 0
-17 -49 -50 -77 -78 -89 -90 -100 -101 -110 -111 -128 -129 -136 0
-18 -49 -51 -77 -78 -89 -90 -100 -101 -110 -111 -128 -129 -136 0
-18 -50 -51 -77 -79 -89 -90 -100 -101 -110 -111 -128 -129 -136 0
-18 -50 -51 -78 -79 -89 -91 -100 -101 -110 -111 -128 -129 -136 0
-18 -50 -51 -78 -79 -90 -91 -100 -102 -110 -111 -128 -129 -136 0
-18 -50 -51 -78 -79 -90 -91 -101 -102 -110 -112 -128 -129 -136 0
-18 -50 -51 -78 -79 -90 -91 -101 -102 -111 -112 -128 -130 -136 0
-18 -50 -51 -78 -79 -90 -91 -101 -102 -111 -112 -129 -130 -137 0
-18 -50 -51 -78 -79 -90 -91 -101 -102 -111 -112 -129 -130 -144 0
-18 -50 -51 -78 -79 -90 -91 -101 -102 -111 -112 -137 -138 -144 0
-17 -49 -50 -77 -78 -89 -90 -100 -101 -120 -121 -128 -129 -136 0
-18 -49 -51 -77 -78 -89 -90 -100 -101 -120 -121 -128 -129 -136 0
-18 -50 -51 -77 -79 -89 -90 -100 -101 -120 -121 -128 -129 -136 0
-18 -50 -51 -78 -79 -89 -91 -100 -101 -120 -121 -128 -129 -136 0
-18 -50 -51 -78 -79 -90 -91 -100 -102 -120 -121 -128 -129 -136 0
-18 -50 -51 -78 -79 -90 -91 -101 -102 -120 -122 -128 -129 -136 0
-18 -50 -51 -78 -79 -90 -91 -101 -102 -121 -122 -128 -130 -136 0
-18 -50 -51 -78 -79 -90 -91 -101 -102 -121 -122 -129 -130 -137 0
-18 -50 -51 -78 -79 -90 -91 -101 -102 -121 -122 -129 -130 -144 0
-18 -50 -51 -78 -79 -90 -91 -101 -102 -121 -122 -137 -138 -144 0
-18 -50 -51 -78 -79 -90 -91 -101 -102 -130 -131 -137 -138 -144 0
-17 -49 -50 -77 -78 -89 -90 -111 -112 -120 -121 -128 -129 -136 0
-18 -49 -51 -77 -78 -89 -90 -111 -112 -120 -121 -128 -129 -136 0
-18 -50 -51 -77 -79 -89 -90 -111 -112 -120 -121 -128 -129 -136 0
-18 -50 -51 -78 -79 -89 -91 -111 -112 -120 -121 -128 -129 -136 0
-18 -50 -51 -78 -79 -90 -91 -111 -113 -120 -121 -128 -129 -136 0
-18 -50 -51 -78 -79 -90 -91 -112 -113 -120 -122 -128 -129 -136 0
-18 -50 -51 -78 -79 -90 -91 -112 -113 -121 -122 -128 -130 -136 0
-18 -50 -51 -78 -79 -90 -91 -112 -113 -121 -122 -129 -130 -137 0
-18 -50 -51 -78 -79 -90 -91 -112 -113 -121 -122 -129 -130 -144 0
-18 -50 -51 -78 -79 -90 -91 -112 -113 -121 -122 -137 -138 -144 0
-18 -50 -51 -78 -79 -90 -91 -112 -113 -130 -131 -137 -138 -144 0
-18 -50 -51 -78 -79 -90 -91 -122 -123 -130 -131 -137 -138 -144 0
-17 -49 -50 -77 -78 -101 -102 -111 -112 -120 -121 -128 -129 -136 0
-18 -49 -51 -77 -78 -101 -102 -111 -112 -120 -121 -128 -129 -136 0
-18 -50 -51 -77 -79 -101 -102 -111 -112 -120 -121 -128 -129 -136 0
-18 -50 -51 -78 -79 -101 -103 -111 -112 -120 -121 -128 -129 -136 0
-18 -50 -51 -78 -79 -102 -103 -111 -113 -120 -121 -128 -129 -136 0
-18 -50 -51 -78 -79 -102 -103 -112 -113 -120 -122 -128 -129 -136 0
-18 -50 -51 -78 -79 -102 -103 -112 -113 -121 -122 -128 -130 -136 0
-18 -50 -51 -78 -79 -102 -103 -112 -113 -121 -122 -129 -130 -137 0
-18 -50 -51 -78 -79 -102 -103 -112 -113 -121 -122 -129 -130 -144 0
-18 -50 -51 -78 -79 -102 -103 -112 -113 -121 -122 -137 -138 -144 0
-18 -50 -51 -78 -79 -102 -103 -112 -113 -130 -131 -137 -138 -144 0
-18 -50 -51 -78 -79 -102 -103 -122 -123 -130 -131 -137 -138 -144 0
-18 -50 -51 -78 -79 -113 -114 -122 -123 -130 -131 -137 -138 -144 0
-17 -49 -50 -90 -91 -101 -102 -111 -112 -120 -121 -128 -129 -136 0
-18 -49 -51 -90 -91 -101 -102 -111 -112 -120 -121 -128 -129 -136 0
-18 -50 -51 -90 -92 -101 -102 -111 -112 -120 -121 -128 -129 -136 0
-18 -50 -51 -91 -92 -101 -103 -111 -112 -120 -121 -128 -129 -136 0
-18 -50 -51 -91 -92 -102 -103 -111 -113 -120 -121 -128 -129 -136 0
-18 -50 -51 -91 -92 -102 -103 -112 -113 -120 -122 -128 -129 -136 0
-18 -50 -51 -91 -92 -102 -103 -112 -113 -121 -122 -128 -130 -136 0
-18 -50 -51 -91 -92 -102 -103 -112 -113 -121 -122 -129 -130 -137 0
-18 -50 -51 -91 -92 -102 -103 -112 -113 -121 -122 -129 -130 -144 0
-18 -50 -51 -91 -92 -102 -103 -112 -113 -121 -122 -137 -138 -144 0
-18 -50 -51 -91 -92 -102 -103 -112 -113 -130 -131 -137 -138 -144 0
-18 -50 -51 -91 -92 -102 -103 -122 -123 -130 -131 -137 -138 -144 0
-18 -50 -51 -91 -92 -113 -114 -122 -123 -130 -131 -137 -138 -144 0
-18 -50 -51 -103 -104 -113 -114 -122 -123 -130 -131 -137 -138 -144 0
-16 -63 -64 -76 -77 -88 -89 -99 -100 -109 -110 -118 -119 -127 0
-17 -63 -65 -76 -77 -88 -89 -99 -100 -109 -110 -118 -119 -127 0
-18 -63 -66 -76 -77 -88 -89 -99 -100 -109 -110 -118 -119 -127 0
-17 -64 -65 -76 -78 -88 -89 -99 -100 -109 -110 -118 -119 -127 0
-18 -64 -66 -76 -78 -88 -89 -99 -100 -109 -110 -118 -119 -127 0
-18 -65 -66 -76 -79 -88 -89 -99 -100 -109 -110 -118 -119 -127 0
-17 -64 -65 -77 -78 -88 -90 -99 -100 -109 -110 -118 -119 -127 0
-18 -64 -66 -77 -78 -88 -90 -99 -100 -109 -110 -118 -119 -127 0
-18 -65 -66 -77 -79 -88 -90 -99 -100 -109 -110 -118 -119 -127 0
-18 -65 -66 -78 -79 -88 -91 -99 -100 -109 -110 -118 -119 -127 0
-17 -64 -65 -77 -78 -89 -90 -99 -101 -109 -110 -118 -119 -127 0
-18 -64 -66 -77 -78 -89 -90 -99 -101 -109 -110 -118 -119 -127 0
-18 -65 -66 -77 -79 -89 -90 -99 -101 -109 -110 -118 -119 -127 0
-18 -65 -66 -78 -79 -89 -91 -99 -101 -109 -110 -118 -119 -127 0
-18 -65 -66 -78 -79 -90 -91 -99 -102 -109 -110 -118 -119 -127 0
-17 -64 -65 -77 -78 -89 -90 -100 -101 -109 -111 -118 -119 -127 0
-18 -64 -66 -77 -78 -89 -90 -100 -101 -109 -111 -118 -119 -127 0
-18 -65 -66 -77 -79 -89 -90 -100 -101 -109 -111 -118 -119 -127 0
-18 -65 -66 -78 -79 -89 -91 -100 -101 -109 -111 -118 -119 -127 0
-18 -65 -66 -78 -79 -90 -91 -100 -102 -109 -111 -118 -119 -127 0
-18 -65 -66 -78 -79 -90 -91 -101 -102 -109 -112 -118 -119 -127 0
-17 -64 -65 -77 -78 -89 -90 -100 -101 -110 -111 -118 -120 -127 0
-18 -64 -66 -77 -78 -89 -90 -100 -101 -110 -111 -118 -120 -127 0
-18 -65 -66 -77 -79 -89 -90 -100 -101 -110 -111 -118 -120 -127 0
-18 -65 -66 -78 -79 -89 -91 -100 -101 -110 -111 -118 -120 -127 0
-18 -65 -66 -78 -79 -90 -91 -100 -102 -110 -111 -118 -120 -127 0
-18 -65 -66 -78 -79 -90 -91 -101 -102 -110 -112 -118 -120 -127 0
-18 -65 -66 -78 -79 -90 -91 -101 -102 -111 -112 -118 -121 -127 0
-17 -64 -65 -77 -78 -89 -90 -100 -101 -110 -111 -119 -120 -128 0
-18 -64 -66 -77 -78 -89 -90 -100 -101 -110 -111 -119 -120 -128 0
-18 -65 -66 -77 -79 -89 -90 -100 -101 -110 -111 -119 -120 -128 0
-18 -65 -66 -78 -79 -89 -91 -100 -101 -110 -111 -119 -120 -128 0
-18 -65 -66 -78 -79 -90 -91 -100 -102 -110 -111 -119 -120 -128 0
-18 -65 -66 -78 -79 -90 -91 -101 -102 -110 -112 -119 -120 -128 0
-18 -65 -66 -78 -79 -90 -91 -101 -102 -111 -112 -119 -121 -128 0
-18 -65 -66 -78 -79 -90 -91 -101 -102 -111 -112 -120 -121 -129 0
-17 -64 -65 -77 -78 -89 -90 -100 -101 -110 -111 -119 -120 -136 0
-18 -64 -66 -77 -78 -89 -90 -100 -101 -110 -111 -119 -120 -136 0
-18 -65 -66 -77 -79 -89 -90 -100 -101 -110 -111 -119 -120 -136 0
-18 -65 -66 -78 -79 -89 -91 -100 -101 -110 -111 -119 -120 -136 0
-18 -65 -66 -78 -79 -90 -91 -100 -102 -110 -111 -119 -120 -136 0
-18 -65 -66 -78 -79 -90 -91 -101 -102 -110 -112 -119 -120 -136 0
-18 -65 -66 -78 -79 -90 -91 -101 -102 -111 -112 -119 -121 -136 0
-18 -65 -66 -78 -79 -90 -91 -101 -102 -111 -112 -120 -121 -137 0
-18 -65 -66 -78 -79 -90 -91 -101 -102 -111 -112 -120 -121 -144 0
-17 -64 -65 -77 -78 -89 -90 -100 -101 -110 -111 -128 -129 -136 0
-18 -64 -66 -77 -78 -89 -90 -100 -101 -110 -111 -128 -129 -136 0
-18 -65 -66 -77 -79 -89 -90 -100 -101 -110 -111 -128 -129 -136 0
-18 -65 -66 -78 -79 -89 -91 -100 -101 -110 -111 -128 -129 -136 0
-18 -65 -66 -78 -79 -90 -91 -100 -102 -110 -111 -128 -129 -136 0
-18 -65 -66 -78 -79 -90 -91 -101 -102 -110 -112 -128 -129 -136 0
-18 -65 -66 -78 -79 -90 -91 -101 -102 -111 -112 -128 -130 -136 0
-18 -65 -66 -78 -79 -90 -91 -101 -102 -111 -112 -129 -130 -137 0
-18 -65 -66 -78 -79 -90 -91 -101 -102 -111 -112 -129 -130 -144 0
-18 -65 -66 -78 -79 -90 -91 -101 -102 -111 -112 -137 -138 -144 0
-17 -64 -65 -77 -78 -89 -90 -100 -101 -120 -121 -128 -129 -136 0
-18 -64 -66 -77 -78 -89 -90 -100 -101 -120 -121 -128 -129 -136 0
-18 -65 -66 -77 -79 -89 -90 -100 -101 -120 -121 -128 -129 -136 0
-18 -65 -66 -78 -79 -89 -91 -100 -101 -120 -121 -128 -129 -136 0
-18 -65 -66 -78 -79 -90 -91 -100 -102 -120 -121 -128 -129 -136 0
-18 -65 -66 -78 -79 -90 -91 -101 -102 -120 -122 -128 -129 -136 0
-18 -65 -66 -78 -79 -90 -91 -101 -102 -121 -122 -128 -130 -136 0
-18 -65 -66 -78 -79 -90 -91 -101 -102 -121 -122 -129 -130 -137 0
-18 -65 -66 -78 -79 -90 -91 -101 -102 -121 -122 -129 -130 -144 0
-18 -65 -66 -78 -79 -90 -91 -101 -102 -121 -122 -137 -138 -144 0
-18 -65 -66 -78 -79 -90 -91 -101 -102 -130 -131 -137 -138 -144 0
-17 -64 -65 -77 -78 -89 -90 -111 -112 -120 -121 -128 -129 -136 0
-18 -64 -66 -77 -78 -89 -90 -111 -112 -120 -121 -128 -129 -136 0
-18 -65 -66 -77 -79 -89 -90 -111 -112 -120 -121 -128 -129 -136 0
-18 -65 -66 -78 -79 -89 -91 -111 -112 -120 -121 -128 -129 -136 0
-18 -65 -66 -78 -79 -90 -91 -111 -113 -120 -121 -128 -129 -136 0
-18 -65 -66 -78 -79 -90 -91 -112 -113 -120 -122 -128 -129 -136 0
-18 -65 -66 -78 -79 -90 -91 -112 -113 -121 -122 -128 -130 -136 0
-18 -65 -66 -78 -79 -90 -91 -112 -113 -121 -122 -129 -130 -137 0
-18 -65 -66 -78 -79 -90 -91 -112 -113 -121 -122 -129 -130 -144 0
-18 -65 -66 -78 -79 -90 -91 -112 -113 -121 -122 -137 -138 -144 0
-18 -65 -66 -78 -79 -90 -91 -112 -113 -130 -131 -137 -138 -144 0
-18 -65 -66 -78 -79 -90 -91 -122 -123 -130 -131 -137 -138 -144 0
-17 -64 -65 -77 -78 -101 -102 -111 -112 -120 -121 -128 -129 -136 0
-18 -64 -66 -77 -78 -101 -102 -111 -112 -120 -121 -128 -129 -136 0
-18 -65 -66 -77 -79 -101 -102 -111 -112 -120 -121 -128 -129 -136 0
-18 -65 -66 -78 -79 -101 -103 -111 -112 -120 -121 -128 -129 -136 0
-18 -65 -66 -78 -79 -102 -103 -111 -113 -120 -121 -128 -129 -136 0
-18 -65 -66 -78 -79 -102 -103 -112 -113 -120 -122 -128 -129 -136 0
-18 -65 -66 -78 -79 -102 -103 -112 -113 -121 -122 -128 -130 -136 0
-18 -65 -66 -78 -79 -102 -103 -112 -113 -121 -122 -129 -130 -137 0
-18 -65 -66 -78 -79 -102 -103 -112 -113 -121 -122 -129 -130 -144 0
-18 -65 -66 -78 -79 -102 -103 -112 -113 -121 -122 -137 -138 -144 0
-18 -65 -66 -78 -79 -102 -103 -112 -113 -130 -131 -137 -138 -144 0
-18 -65 -66 -78 -79 -102 -103 -122 -123 -130 -131 -137 -138 -144 0
-18 -65 -66 -78 -79 -113 -114 -122 -123 -130 -131 -137 -138 -144 0
-17 -64 -65 -90 -91 -101 -102 -111 -112 -120 -121 -128 -129 -136 0
-18 -64 -66 -90 -91 -101 -102 -111 -112 -120 -121 -128 -129 -136 0
-18 -65 -66 -90 -92 -101 -102 -111 -112 -120 -121 -128 -129 -136 0
-18 -65 -66 -91 -92 -101 -103 -111 -112 -120 -121 -128 -129 -136 0
-18 -65 -66 -91 -92 -102 -103 -111 -113 -120 -121 -128 -129 -136 0
-18 -65 -66 -91 -92 -102 -103 -112 -113 -120 -122 -128 -129 -136 0
-18 -65 -66 -91 -92 -102 -103 -112 -113 -121 -122 -128 -130 -136 0
-18 -65 -66 -91 -92 -102 -103 -112 -113 -121 -122 -129 -130 -137 0
-18 -65 -66 -91 -92 -102 -103 -112 -113 -121 -122 -129 -130 -144 0
-18 -65 -66 -91 -92 -102 -103 -112 -113 -121 -122 -137 -138 -144 0
-18 -65 -66 -91 -92 -102 -103 -112 -113 -130 -131 -137 -138 -144 0
-18 -65 -66 -91 -92 -102 -103 -122 -123 -130 -131 -137 -138 -144 0
-18 -65 -66 -91 -92 -113 -114 -122 -123 -130 -131 -137 -138 -144 0
-18 -65 -66 -103 -104 -113 -114 -122 -123 -130 -131 -137 -138 -144 0
-17 -78 -79 -90 -91 -101 -102 -111 -112 -120 -121 -128 -129 -136 0
-18 -78 -80 -90 -91 -101 -102 -111 -112 -120 -121 -128 -129 -136 0
-18 -79 -80 -90 -92 -101 -102 -111 -112 -120 -121 -128 -129 -136 0
-18 -79 -80 -91 -92 -101 -103 -111 -112 -120 -121 -128 -129 -136 0
-18 -79 -80 -91 -92 -102 -103 -111 -113 -120 -121 -128 -129 -136 0
-18 -79 -80 -91 -92 -102 -103 -112 -113 -120 -122 -128 -129 -136 0
-18 -79 -80 -91 -92 -102 -103 -112 -113 -121 -122 -128 -130 -136 0
-18 -79 -80 -91 -92 -102 -103 -112 -113 -121 -122 -129 -130 -137 0
-18 -79 -80 -91 -92 -102 -103 -112 -113 -121 -122 -129 -130 -144 0
-18 -79 -80 -91 -92 -102 -103 -112 -113 -121 -122 -137 -138 -144 0
-18 -79 -80 -91 -92 -102 -103 -112 -113 -130 -131 -137 -138 -144 0
-18 -79 -80 -91 -92 -102 -103 -122 -123 -130 -131 -137 -138 -144 0
-18 -79 -80 -91 -92 -113 -114 -122 -123 -130 -131 -137 -138 -144 0
-18 -79 -80 -103 -104 -113 -114 -122 -123 -130 -131 -137 -138 -144 0
-18 -92 -93 -103 -104 -113 -114 -122 -123 -130 -131 -137 -138 -144 0
-32 -47 -48 -61 -62 -74 -75 -86 -87 -97 -98 -107 -108 -117 0
-33 -47 -49 -61 -62 -74 -75 -86 -87 -97 -98 -107 -108 -117 0
-34 -47 -50 -61 -62 -74 -75 -86 -87 -97 -98 -107 -108 -117 0
-35 -47 -51 -61 -62 -74 -75 -86 -87 -97 -98 -107 -108 -117 0
-33 -48 -49 -61 -63 -74 -75 -86 -87 -97 -98 -107 -108 -117 0
-34 -48 -50 -61 -63 -74 -75 -86 -87 -97 -98 -107 -108 -117 0
-35 -48 -51 -61 -63 -74 -75 -86 -87 -97 -98 -107 -108 -117 0
-34 -49 -50 -61 -64 -74 -75 -86 -87 -97 -98 -107 -108 -117 0
-35 -49 -51 -61 -64 -74 -75 -86 -87 -97 -98 -107 -108 -117 0
-35 -50 -51 -61 -65 -74 -75 -86 -87 -97 -98 -107 -108 -117 0
-33 -48 -49 -62 -63 -74 -76 -86 -87 -97 -98 -107 -108 -117 0
-34 -48 -50 -62 -63 -74 -76 -86 -87 -97 -98 -107 -108 -117 0
-35 -48 -51 -62 -63 -74 -76 -86 -87 -97 -98 -107 -108 -117 0
-34 -49 -50 -62 -64 -74 -76 -86 -87 -97 -98 -107 -108 -117 0
-35 -49 -51 -62 -64 -74 -76 -86 -87 -97 -98 -107 -108 -117 0
-35 -50 -51 -62 -65 -74 -76 -86 -87 -97 -98 -107 -108 -117 0
-34 -49 -50 -63 -64 -74 -77 -86 -87 -97 -98 -107 -108 -117 0
-35 -49 -51 -63 -64 -74 -77 -86 -87 -97 -98 -107 -108 -117 0
-35 -50 -51 -63 -65 -74 -77 -86 -87 -97 -98 -107 -108 -117 0
-35 -50 -51 -64 -65 -74 -78 -86 -87 -97 -98 -107 -108 -117 0
-33 -48 -49 -62 -63 -75 -76 -86 -88 -97 -98 -107 -108 -117 0
-34 -48 -50 -62 -63 -75 -76 -86 -88 -97 -98 -107 -108 -117 0
-35 -48 -51 -62 -63 -75 -76 -86 -88 -97 -98 -107 -108 -117 0
-34 -49 -50 -62 -64 -75 -76 -86 -88 -97 -98 -107 -108 -117 0
-35 -49 -51 -62 -64 -75 -76 -86 -88 -97 -98 -107 -108 -117 0
-35 -50 -51 -62 -65 -75 -76 -86 -88 -97 -98 -107 -108 -117 0
-34 -49 -50 -63 -64 -75 -77 -86 -88 -97 -98 -107 -108 -117 0
-35 -49 -51 -63 -64 -75 -77 -86 -88 -97 -98 -107 -108 -117 0
-35 -50 -51 -63 -65 -75 -77 -86 -88 -97 -98 -107 -108 -117 0
-35 -50 -51 -64 -65 -75 -78 -86 -88 -97 -98 -107 -108 -117 0
-34 -49 -50 -63 -64 -76 -77 -86 -89 -97 -98 -107 -108 -117 0
-35 -49 -51 -63 -64 -76 -77 -86 -89 -97 -98 -107 -108 -117 0
-35 -50 -51 -63 -65 -76 -77 -86 -89 -97 -98 -107 -108 -117 0
-35 -50 -51 -64 -65 -76 -78 -86 -89 -97 -98 -107 -108 -117 0
-35 -50 -51 -64 -65 -77 -78 -86 -90 -97 -98 -107 -108 -117 0
-33 -48 -49 -62 -63 -75 -76 -87 -88 -97 -99 -107 -108 -117 0
-34 -48 -50 -62 -63 -75 -76 -87 -88 -97 -99 -107 -108 -117 0
-35 -48 -51 -62 -63 -75 -76 -87 -88 -97 -99 -107 -108 -117 0
-34 -49 -50 -62 -64 -75 -76 -87 -88 -97 -99 -107 -108 -117 0
-35 -49 -51 -62 -64 -75 -76 -87 -88 -97 -99 -107 -108 -117 0
-35 -50 -51 -62 -65 -75 -76 -87 -88 -97 -99 -107 -108 -117 0
-34 -49 -50 -63 -64 -75 -77 -87 -88 -97 -99 -107 -108 -117 0
-35 -49 -51 -63 -64 -75 -77 -87 -88 -97 -99 -107 -108 -117 0
-35 -50 -51 -63 -65 -75 -77 -87 -88 -97 -99 -107 -108 -117 0
-35 -50 -51 -64 -65 -75 -78 -87 -88 -97 -99 -107 -108 -117 0
-34 -49 -50 -63 -64 -76 -77 -87 -89 -97 -99 -107 -108 -117 0
-35 -49 -51 -63 -64 -76 -77 -87 -89 -97 -99 -107 -108 -117 0
-35 -50 -51 -63 -65 -76 -77 -87 -89 -97 -99 -107 -108 -117 0
-35 -50 -51 -64 -65 -76 -78 -87 -89 -97 -99 -107 -108 -117 0
-35 -50 -51 -64 -65 -77 -78 -87 -90 -97 -99 -107 -108 -117 0
-34 -49 -50 -63 -64 -76 -77 -88 -89 -97 -100 -107 -108 -117 0
-35 -49 -51 -63 -64 -76 -77 -88 -89 -97 -100 -107 -108 -117 0
-35 -50 -51 -63 -65 -76 -77 -88 -89 -97 -100 -107 -108 -117 0
-35 -50 -51 -64 -65 -76 -78 -88 -89 -97 -100 -107 -108 -117 0
-35 -50 -51 -64 -65 -77 -78 -88 -90 -97 -100 -107 -108 -117 0
-35 -50 -51 -64 -65 -77 -78 -89 -90 -97 -101 -107 -108 -117 0
-33 -48 -49 -62 -63 -75 -76 -87 -88 -98 -99 -107 -109 -117 0
-34 -48 -50 -62 -63 -75 -76 -87 -88 -98 -99 -107 -109 -117 0
-35 -48 -51 -62 -63 -75 -76 -87 -88 -98 -99 -107 -109 -117 0
-34 -49 -50 -62 -64 -75 -76 -87 -88 -98 -99 -107 -109 -117 0
-35 -49 -51 -62 -64 -75 -76 -87 -88 -98 -99 -107 -109 -117 0
-35 -50 -51 -62 -65 -75 -76 -87 -88 -98 -99 -107 -109 -117 0
-34 -49 -50 -63 -64 -75 -77 -87 -88 -98 -99 -107 -109 -117 0
-35 -49 -51 -63 -64 -75 -77 -87 -88 -98 -99 -107 -109 -117 0
-35 -50 -51 -63 -65 -75 -77 -87 -88 -98 -99 -107 -109 -117 0
-35 -50 -51 -64 -65 -75 -78 -87 -88 -98 -99 -107 -109 -117 0
-34 -49 -50 -63 -64 -76 -77 -87 -89 -98 -99 -107 -109 -117 0
-35 -49 -51 -63 -64 -76 -77 -87 -89 -98 -99 -107 -109 -117 0
-35 -50 -51 -63 -65 -76 -77 -87 -89 -98 -99 -107 -109 -117 0
-35 -50 -51 -64 -65 -76 -78 -87 -89 -98 -99 -107 -109 -117 0
-35 -50 -51 -64 -65 -77 -78 -87 -90 -98 -99 -107 -109 -117 0
-34 -49 -50 -63 -64 -76 -77 -88 -89 -98 -100 -107 -109 -117 0
-35 -49 -51 -63 -64 -76 -77 -88 -89 -98 -100 -107 -109 -117 0
-35 -50 -51 -63 -65 -76 -77 -88 -89 -98 -100 -107 -109 -117 0
-35 -50 -51 -64 -65 -76 -78 -88 -89 -98 -100 -107 -109 -117 0
-35 -50 -51 -64 -65 -77 -78 -88 -90 -98 -100 -107 -109 -117 0
-35 -50 -51 -64 -65 -77 -78 -89 -90 -98 -101 -107 -109 -117 0
-34 -49 -50 -63 -64 -76 -77 -88 -89 -99 -100 -107 -110 -117 0
-35 -49 -51 -63 -64 -76 -77 -88 -89 -99 -100 -107 -110 -117 0
-35 -50 -51 -63 -65 -76 -77 -88 -89 -99 -100 -107 -110 -117 0
-35 -50 -51 -64 -65 -76 -78 -88 -89 -99 -100 -107 -110 -117 0
-35 -50 -51 -64 -65 -77 -78 -88 -90 -99 -100 -107 -110 -117 0
-35 -50 -51 -64 -65 -77 -78 -89 -90 -99 -101 -107 -110 -117 0
-35 -50 -51 -64 -65 -77 -78 -89 -90 -100 -101 -107 -111 -117 0
-33 -48 -49 -62 -63 -75 -76 -87 -88 -98 -99 -108 -109 -118 0
-34 -48 -50 -62 -63 -75 -76 -87 -88 -98 -99 -108 -109 -118 0
-35 -48 -51 -62 -63 -75 -76 -87 -88 -98 -99 -108 -109 -118 0
-34 -49 -50 -62 -64 -75 -76 -87 -88 -98 -99 -108 -109 -118 0
-35 -49 -51 -62 -64 -75 -76 -87 -88 -98 -99 -108 -109 -118 0
-35 -50 -51 -62 -65 -75 -76 -87 -88 -98 -99 -108 -109 -118 0
-34 -49 -50 -63 -64 -75 -77 -87 -88 -98 -99 -108 -109 -118 0
-35 -49 -51 -63 -64 -75 -77 -87 -88 -98 -99 -108 -109 -118 0
-35 -50 -51 -63 -65 -75 -77 -87 -88 -98 -99 -108 -109 -118 0
-35 -50 -51 -64 -65 -75 -78 -87 -88 -98 -99 -108 -109 -118 0
-34 -49 -50 -63 -64 -76 -77 -87 -89 -98 -99 -108 -109 -118 0
-35 -49 -51 -63 -64 -76 -77 -87 -89 -98 -99 -108 -109 -118 0
-35 -50 -51 -63 -65 -76 -77 -87 -89 -98 -99 -108 -109 -118 0
-35 -50 -51 -64 -65 -76 -78 -87 -89 -98 -99 -108 -109 -118 0
-35 -50 -51 -64 -65 -77 -78 -87 -90 -98 -99 -108 -109 -118 0
-34 -49 -50 -63 -64 -76 -77 -88 -89 -98 -100 -108 -109 -118 0
-35 -49 -51 -63 -64 -76 -77 -88 -89 -98 -100 -108 -109 -118 0
-35 -50 -51 -63 -65 -76 -77 -88 -89 -98 -100 -108 -109 -118 0
-35 -50 -51 -64 -65 -76 -78 -88 -89 -98 -100 -108 -109 -118 0
-35 -50 -51 -64 -65 -77 -78 -88 -90 -98 -100 -108 -109 -118 0
-35 -50 -51 -64 -65 -77 -78 -89 -90 -98 -101 -108 -109 -118 0
-34 -49 -50 -63 -64 -76 -77 -88 -89 -99 -100 -108 -110 -118 0
-35 -49 -51 -63 -64 -76 -77 -88 -89 -99 -100 -108 -110 -118 0
-35 -50 -51 -63 -65 -76 -77 -88 -89 -99 -100 -108 -110 -118 0
-35 -50 -51 -64 -65 -76 -78 -88 -89 -99 -100 -108 -110 -118 0
-35 -50 -51 -64 -65 -77 -78 -88 -90 -99 -100 -108 -110 -118 0
-35 -50 -51 -64 -65 -77 -78 -89 -90 -99 -101 -108 -110 -118 0
-35 -50 -51 -64 -65 -77 -78 -89 -90 -100 -101 -108 -111 -118 0
-34 -49 -50 -63 -64 -76 -77 -88 -89 -99 -100 -109 -110 -119 0
-35 -49 -51 -63 -64 -76 -77 -88 -89 -99 -100 -109 -110 -119 0
-35 -50 -51 -63 -65 -76 -77 -88 -89 -99 -100 -109 -110 -119 0
-35 -50 -51 -64 -65 -76 -78 -88 -89 -99 -100 -109 -110 -119 0
-35 -50 -51 -64 -65 -77 -78 -88 -90 -99 -100 -109 -110 -119 0
-35 -50 -51 -64 -65 -77 -78 -89 -90 -99 -101 -109 -110 -119 0
-35 -50 -51 -64 -65 -77 -78 -89 -90 -100 -101 -109 -111 -119 0
-35 -50 -51 -64 -65 -77 -78 -89 -90 -100 -101 -110 -111 -120 0
-33 -48 -49 -62 -63 -75 -76 -87 -88 -98 -99 -108 -109 -127 0
-34 -48 -50 -62 -63 -75 -76 -87 -88 -98 -99 -108 -109 -127 0
-35 -48 -51 -62 -63 -75 -76 -87 -88 -98 -99 -108 -109 -127 0
-34 -49 -50 -62 -64 -75 -76 -87 -88 -98 -99 -108 -109 -127 0
-35 -49 -51 -62 -64 -75 -76 -87 -88 -98 -99 -108 -109 -127 0
-35 -50 -51 -62 -65 -75 -76 -87 -88 -98 -99 -108 -109 -127 0
-34 -49 -50 -63 -64 -75 -77 -87 -88 -98 -99 -108 -109 -127 0
-35 -49 -51 -63 -64 -75 -77 -87 -88 -98 -99 -108 -109 -127 0
-35 -50 -51 -63 -65 -75 -77 -87 -88 -98 -99 -108 -109 -127 0
-35 -50 -51 -64 -65 -75 -78 -87 -88 -98 -99 -108 -109 -127 0
-34 -49 -50 -63 -64 -76 -77 -87 -89 -98 -99 -108 -109 -127 0
-35 -49 -51 -63 -64 -76 -77 -87 -89 -98 -99 -108 -109 -127 0
-35 -50 -51 -63 -65 -76 -77 -87 -89 -98 -99 -108 -109 -127 0
-35 -50 -51 -64 -65 -76 -78 -87 -89 -98 -99 -108 -109 -127 0
-35 -50 -51 -64 -65 -77 -78 -87 -90 -98 -99 -108 -109 -127 0
-34 -49 -50 -63 -64 -76 -77 -88 -89 -98 -100 -108 -109 -127 0
-35 -49 -51 -63 -64 -76 -77 -88 -89 -98 -100 -108 -109 -127 0
-35 -50 -51 -63 -65 -76 -77 -88 -89 -98 -100 -108 -109 -127 0
-35 -50 -51 -64 -65 -76 -78 -88 -89 -98 -100 -108 -109 -127 0
-35 -50 -51 -64 -65 -77 -78 -88 -90 -98 -100 -108 -109 -127 0
-35 -50 -51 -64 -65 -77 -78 -89 -90 -98 -101 -108 -109 -127 0
-34 -49 -50 -63 -64 -76 -77 -88 -89 -99 -100 -108 -110 -127 0
-35 -49 -51 -63 -64 -76 -77 -88 -89 -99 -100 -108 -110 -127 0
-35 -50 -51 -63 -65 -76 -77 -88 -89 -99 -100 -108 -110 -127 0
-35 -50 -51 -64 -65 -76 -78 -88 -89 -99 -100 -108 -110 -127 0
-35 -50 -51 -64 -65 -77 -78 -88 -90 -99 -100 -108 -110 -127 0
-35 -50 -51 -64 -65 -77 -78 -89 -90 -99 -101 -108 -110 -127 0
-35 -50 -51 -64 -65 -77 -78 -89 -90 -100 -101 -108 -111 -127 0
-34 -49 -50 -63 -64 -76 -77 -88 -89 -99 -100 -109 -110 -128 0
-35 -49 -51 -63 -64 -76 -77 -88 -89 -99 -100 -109 -110 -128 0
-35 -50 -51 -63 -65 -76 -77 -88 -89 -99 -100 -109 -110 -128 0
-35 -50 -51 -64 -65 -76 -78 -88 -89 -99 -100 -109 -110 -128 0
-35 -50 -51 -64 -65 -77 -78 -88 -90 -99 -100 -109 -110 -128 0
-35 -50 -51 -64 -65 -77 -78 -89 -90 -99 -101 -109 -110 -128 0
-35 -50 -51 -64 -65 -77 -78 -89 -90 -100 -101 -109 -111 -128 0
-35 -50 -51 -64 -65 -77 -78 -89 -90 -100 -101 -110 -111 -129 0
-34 -49 -50 -63 -64 -76 -77 -88 -89 -99 -100 -109 -110 -136 0
-35 -49 -51 -63 -64 -76 -77 -88 -89 -99 -100 -109 -110 -136 0
-35 -50 -51 -63 -65 -76 -77 -88 -89 -99 -100 -109 -110 -136 0
-35 -50 -51 -64 -65 -76 -78 -88 -89 -99 -100 -109 -110 -136 0
-35 -50 -51 -64 -65 -77 -78 -88 -90 -99 -100 -109 -110 -136 0
-35 -50 -51 -64 -65 -77 -78 -89 -90 -99 -101 -109 -110 -136 0
-35 -50 -51 -64 -65 -77 -78 -89 -90 -100 -101 -109 -111 -136 0
-35 -50 -51 -64 -65 -77 -78 -89 -90 -100 -101 -110 -111 -137 0
-35 -50 -51 -64 -65 -77 -78 -89 -90 -100 -101 -110 -111 -144 0
-33 -48 -49 -62 -63 -75 -76 -87 -88 -98 -99 -118 -119 -127 0
-34 -48 -50 -62 -63 -75 -76 -87 -88 -98 -99 -118 -119 -127 0
-35 -48 -51 -62 -63 -75 -76 -87 -88 -98 -99 -118 -119 -127 0
-34 -49 -50 -62 -64 -75 -76 -87 -88 -98 -99 -118 -119 -127 0
-35 -49 -51 -62 -64 -75 -76 -87 -88 -98 -99 -118 -119 -127 0
-35 -50 -51 -62 -65 -75 -76 -87 -88 -98 -99 -118 -119 -127 0
-34 -49 -50 -63 -64 -75 -77 -87 -88 -98 -99 -118 -119 -127 0
-35 -49 -51 -63 -64 -75 -77 -87 -88 -98 -99 -118 -119 -127 0
-35 -50 -51 -63 -65 -75 -77 -87 -88 -98 -99 -118 -119 -127 0
-35 -50 -51 -64 -65 -75 -78 -87 -88 -98 -99 -118 -119 -127 0
-34 -49 -50 -63 -64 -76 -77 -87 -89 -98 -99 -118 -119 -127 0
-35 -49 -51 -63 -64 -76 -77 -87 -89 -98 -99 -118 -119 -127 0
-35 -50 -51 -63 -65 -76 -77 -87 -89 -98 -99 -118 -119 -127 0
-35 -50 -51 -64 -65 -76 -78 -87 -89 -98 -99 -118 -119 -127 0
-35 -50 -51 -64 -65 -77 -78 -87 -90 -98 -99 -118 -119 -127 0
-34 -49 -50 -63 -64 -76 -77 -88 -89 -98 -100 -118 -119 -127 0
-35 -49 -51 -63 -64 -76 -77 -88 -89 -98 -100 -118 -119 -127 0
-35 -50 -51 -63 -65 -76 -77 -88 -89 -98 -100 -118 -119 -127 0
-35 -50 -51 -64 -65 -76 -78 -88 -89 -98 -100 -118 -119 -127 0
-35 -50 -51 -64 -65 -77 -78 -88 -90 -98 -100 -118 -119 -127 0
-35 -50 -51 -64 -65 -77 -78 -89 -90 -98 -101 -118 -119 -127 0
-34 -49 -50 -63 -64 -76 -77 -88 -89 -99 -100 -118 -120 -127 0
-35 -49 -51 -63 -64 -76 -77 -88 -89 -99 -100 -118 -120 -127 0
-35 -50 -51 -63 -65 -76 -77 -88 -89 -99 -100 -118 -120 -127 0
-35 -50 -51 -64 -65 -76 -78 -88 -89 -99 -100 -118 -120 -127 0
-35 -50 -51 -64 -65 -77 -78 -88 -90 -99 -100 -118 -120 -127 0
-35 -50 -51 -64 -65 -77 -78 -89 -90 -99 -101 -118 -120 -127 0
-35 -50 -51 -64 -65 -77 -78 -89 -90 -100 -101 -118 -121 -127 0
-34 -49 -50 -63 -64 -76 -77 -88 -89 -99 -100 -119 -120 -128 0
-35 -49 -51 -63 -64 -76 -77 -88 -89 -99 -100 -119 -120 -128 0
-35 -50 -51 -63 -65 -76 -77 -88 -89 -99 -100 -119 -120 -128 0
-35 -50 -51 -64 -65 -76 -78 -88 -89 -99 -100 -119 -120 -128 0
-35 -50 -51 -64 -65 -77 -78 -88 -90 -99 -100 -119 -120 -128 0
-35 -50 -51 -64 -65 -77 -78 -89 -90 -99 -101 -119 -120 -128 0
-35 -50 -51 -64 -65 -77 -78 -89 -90 -100 -101 -119 -121 -128 0
-35 -50 -51 -64 -65 -77 -78 -89 -90 -100 -101 -120 -121 -129 0
-34 -49 -50 -63 -64 -76 -77 -88 -89 -99 -100 -119 -120 -136 0
-35 -49 -51 -63 -64 -76 -77 -88 -89 -99 -100 -119 -120 -136 0
-35 -50 -51 -63 -65 -76 -77 -88 -89 -99 -100 -119 -120 -136 0
-35 -50 -51 -64 -65 -76 -78 -88 -89 -99 -100 -119 -120 -136 0
-35 -50 -51 -64 -65 -77 -78 -88 -90 -99 -100 -119 -120 -136 0
-35 -50 -51 -64 -65 -77 -78 -89 -90 -99 -101 -119 -120 -136 0
-35 -50 -51 -64 -65 -77 -78 -89 -90 -100 -101 -119 -121 -136 0
-35 -50 -51 -64 -65 -77 -78 -89 -90 -100 -101 -120 -121 -137 0
-35 -50 -51 -64 -65 -77 -78 -89 -90 -100 -101 -120 -121 -144 0
-34 -49 -50 -63 -64 -76 -77 -88 -89 -99 -100 -128 -129 -136 0
-35 -49 -51 -63 -64 -76 -77 -88 -89 -99 -100 -128 -129 -136 0
-35 -50 -51 -63 -65 -76 -77 -88 -89 -99 -100 -128 -129 -136 0
-35 -50 -51 -64 -65 -76 -78 -88 -89 -99 -100 -128 -129 -136 0
-35 -50 -51 -64 -65 -77 -78 -88 -90 -99 -100 -128 -129 -136 0
-35 -50 -51 -64 -65 -77 -78 -89 -90 -99 -101 -128 -129 -136 0
-35 -50 -51 -64 -65 -77 -78 -89 -90 -100 -101 -128 -130 -136 0
-35 -50 -51 -64 -65 -77 -78 -89 -90 -100 -101 -129 -130 -137 0
-35 -50 -51 -64 -65 -77 -78 -89 -90 -100 -101 -129 -130 -144 0
-35 -50 -51 -64 -65 -77 -78 -89 -90 -100 -101 -137 -138 -144 0
-33 -48 -49 -62 -63 -75 -76 -87 -88 -109 -110 -118 -119 -127 0
-34 -48 -50 -62 -63 -75 -76 -87 -88 -109 -110 -118 -119 -127 0
-35 -48 -51 -62 -63 -75 -76 -87 -88 -109 -110 -118 -119 -127 0
-34 -49 -50 -62 -64 -75 -76 -87 -88 -109 -110 -118 -119 -127 0
-35 -49 -51 -62 -64 -75 -76 -87 -88 -109 -110 -118 -119 -127 0
-35 -50 -51 -62 -65 -75 -76 -87 -88 -109 -110 -118 -119 -127 0
-34 -49 -50 -63 -64 -75 -77 -87 -88 -109 -110 -118 -119 -127 0
-35 -49 -51 -63 -64 -75 -77 -87 -88 -109 -110 -118 -119 -127 0
-35 -50 -51 -63 -65 -75 -77 -87 -88 -109 -110 -118 -119 -127 0
-35 -50 -51 -64 -65 -75 -78 -87 -88 -109 -110 -118 -119 -127 0
-34 -49 -50 -63 -64 -76 -77 -87 -89 -109 -110 -118 -119 -127 0
-35 -49 -51 -63 -64 -76 -77 -87 -89 -109 -110 -118 -119 -127 0
-35 -50 -51 -63 -65 -76 -77 -87 -89 -109 -110 -118 -119 -127 0
-35 -50 -51 -64 -65 -76 -78 -87 -89 -109 -110 -118 -119 -127 0
-35 -50 -51 -64 -65 -77 -78 -87 -90 -109 -110 -118 -119 -127 0
-34 -49 -50 -63 -64 -76 -77 -88 -89 -109 -111 -118 -119 -127 0
-35 -49 -51 -63 -64 -76 -77 -88 -89 -109 -111 -118 -119 -127 0
-35 -50 -51 -63 -65 -76 -77 -88 -89 -109 -111 -118 -119 -127 0
-35 -50 -51 -64 -65 -76 -78 -88 -89 -109 -111 -118 -119 -127 0
-35 -50 -51 -64 -65 -77 -78 -88 -90 -109 -111 -118 -119 -127 0
-35 -50 -51 -64 -65 -77 -78 -89 -90 -109 -112 -118 -119 -127 0
-34 -49 -50 -63 -64 -76 -77 -88 -89 -110 -111 -118 -120 -127 0
-35 -49 -51 -63 -64 -76 -77 -88 -89 -110 -111 -118 -120 -127 0
-35 -50 -51 -63 -65 -76 -77 -88 -89 -110 -111 -118 -120 -127 0
-35 -50 -51 -64 -65 -76 -78 -88 -89 -110 -111 -118 -120 -127 0
-35 -50 -51 -64 -65 -77 -78 -88 -90 -110 -111 -118 -120 -127 0
-35 -50 -51 -64 -65 -77 -78 -89 -90 -110 -112 -118 -120 -127 0
-35 -50 -51 -64 -65 -77 -78 -89 -90 -111 -112 -118 -121 -127 0
-34 -49 -50 -63 -64 -76 -77 -88 -89 -110 -111 -119 -120 -128 0
-35 -49 -51 -63 -64 -76 -77 -88 -89 -110 -111 -119 -120 -128 0
-35 -50 -51 -63 -65 -76 -77 -88 -89 -110 -111 -119 -120 -128 0
-35 -50 -51 -64 -65 -76 -78 -88 -89 -110 -111 -119 -120 -128 0
-35 -50 -51 -64 -65 -77 -78 -88 -90 -110 -111 -119 -120 -128 0
-35 -50 -51 -64 -65 -77 -78 -89 -90 -110 -112 -119 -120 -128 0
-35 -50 -51 -64 -65 -77 -78 -89 -90 -111 -112 -119 -121 -128 0
-35 -50 -51 -64 -65 -77 -78 -89 -90 -111 -112 -120 -121 -129 0
-34 -49 -50 -63 -64 -76 -77 -88 -89 -110 -111 -119 -120 -136 0
-35 -49 -51 -63 -64 -76 -77 -88 -89 -110 -111 -119 -120 -136 0
-35 -50 -51 -63 -65 -76 -77 -88 -89 -110 -111 -119 -120 -136 0
-35 -50 -51 -64 -65 -76 -78 -88 -89 -110 -111 -119 -120 -136 0
-35 -50 -51 -64 -65 -77 -78 -88 -90 -110 -111 -119 -120 -136 0
-35 -50 -51 -64 -65 -77 -78 -89 -90 -110 -112 -119 -120 -136 0
-35 -50 -51 -64 -65 -77 -78 -89 -90 -111 -112 -119 -121 -136 0
-35 -50 -51 -64 -65 -77 -78 -89 -90 -111 -112 -120 -121 -137 0
-35 -50 -51 -64 -65 -77 -78 -89 -90 -111 -112 -120 -121 -144 0
-34 -49 -50 -63 -64 -76 -77 -88 -89 -110 -111 -128 -129 -136 0
-35 -49 -51 -63 -64 -76 -77 -88 -89 -110 -111 -128 -129 -136 0
-35 -50 -51 -63 -65 -76 -77 -88 -89 -110 -111 -128 -129 -136 0
-35 -50 -51 -64 -65 -76 -78 -88 -89 -110 -111 -128 -129 -136 0
-35 -50 -51 -64 -65 -77 -78 -88 -90 -110 -111 -128 -129 -136 0
-35 -50 -51 -64 -65 -77 -78 -89 -90 -110 -112 -128 -129 -136 0
-35 -50 -51 -64 -65 -77 -78 -89 -90 -111 -112 -128 -130 -136 0
-35 -50 -51 -64 -65 -77 -78 -89 -90 -111 -112 -129 -130 -137 0
-35 -50 -51 -64 -65 -77 -78 -89 -90 -111 -112 -129 -130 -144 0
-35 -50 -51 -64 -65 -77 -78 -89 -90 -111 -112 -137 -138 -144 0
-34 -49 -50 -63 -64 -76 -77 -88 -89 -120 -121 -128 -129 -136 0
-35 -49 -51 -63 -64 -76 -77 -88 -89 -120 -121 -128 -129 -136 0
-35 -50 -51 -63 -65 -76 -77 -88 -89 -120 -121 -128 -129 -136 0
-35 -50 -51 -64 -65 -76 -78 -88 -89 -120 -121 -128 -129 -136 0
-35 -50 -51 -64 -65 -77 -78 -88 -90 -120 -121 -128 -129 -136 0
-35 -50 -51 -64 -65 -77 -78 -89 -90 -120 -122 -128 -129 -136 0
-35 -50 -51 -64 -65 -77 -78 -89 -90 -121 -122 -128 -130 -136 0
-35 -50 -51 -64 -65 -77 -78 -89 -90 -121 -122 -129 -130 -137 0
-35 -50 -51 -64 -65 -77 -78 -89 -90 -121 -122 -129 -130 -144 0
-35 -50 -51 -64 -65 -77 -78 -89 -90 -121 -122 -137 -138 -144 0
-35 -50 -51 -64 -65 -77 -78 -89 -90 -130 -131 -137 -138 -144 0
-33 -48 -49 -62 -63 -75 -76 -99 -100 -109 -110 -118 -119 -127 0
-34 -48 -50 -62 -63 -75 -76 -99 -100 -109 -110 -118 -119 -127 0
-35 -48 -51 -62 -63 -75 -76 -99 -100 -109 -110 -118 -119 -127 0
-34 -49 -50 -62 -64 -75 -76 -99 -100 -109 -110 -118 -119 -127 0
-35 -49 -51 -62 -64 -75 -76 -99 -100 -109 -110 -118 -119 -127 0
-35 -50 -51 -62 -65 -75 -76 -99 -100 -109 -110 -118 -119 -127 0
-34 -49 -50 -63 -64 -75 -77 -99 -100 -109 -110 -118 -119 -127 0
-35 -49 -51 -63 -64 -75 -77 -99 -100 -109 -110 -118 -119 -127 0
-35 -50 -51 -63 -65 -75 -77 -99 -100 -109 -110 -118 -119 -127 0
-35 -50 -51 -64 -65 -75 -78 -99 -100 -109 -110 -118 -119 -127 0
-34 -49 -50 -63 -64 -76 -77 -99 -101 -109 -110 -118 -119 -127 0
-35 -49 -51 -63 -64 -76 -77 -99 -101 -109 -110 -118 -119 -127 0
-35 -50 -51 -63 -65 -76 -77 -99 -101 -109 -110 -118 -119 -127 0
-35 -50 -51 -64 -65 -76 -78 -99 -101 -109 -110 -118 -119 -127 0
-35 -50 -51 -64 -65 -77 -78 -99 -102 -109 -110 -118 -119 -127 0
-34 -49 -50 -63 -64 -76 -77 -100 -101 -109 -111 -118 -119 -127 0
-35 -49 -51 -63 -64 -76 -77 -100 -101 -109 -111 -118 -119 -127 0
-35 -50 -51 -63 -65 -76 -77 -100 -101 -109 -111 -118 -119 -127 0
-35 -50 -51 -64 -65 -76 -78 -100 -101 -109 -111 -118 -119 -127 0
-35 -50 -51 -64 -65 -77 -78 -100 -102 -109 -111 -118 -119 -127 0
-35 -50 -51 -64 -65 -77 -78 -101 -102 -109 -112 -118 -119 -127 0
-34 -49 -50 -63 -64 -76 -77 -100 -101 -110 -111 -118 -120 -127 0
-35 -49 -51 -63 -64 -76 -77 -100 -101 -110 -111 -118 -120 -127 0
-35 -50 -51 -63 -65 -76 -77 -100 -101 -110 -111 -118 -120 -127 0
-35 -50 -51 -64 -65 -76 -78 -100 -101 -110 -111 -118 -120 -127 0
-35 -50 -51 -64 -65 -77 -78 -100 -102 -110 -111 -118 -120 -127 0
-35 -50 -51 -64 -65 -77 -78 -101 -102 -110 -112 -118 -120 -127 0
-35 -50 -51 -64 -65 -77 -78 -101 -102 -111 -112 -118 -121 -127 0
-34 -49 -50 -63 -64 -76 -77 -100 -101 -110 -111 -119 -120 -128 0
-35 -49 -51 -63 -64 -76 -77 -100 -101 -110 -111 -119 -120 -128 0
-35 -50 -51 -63 -65 -76 -77 -100 -101 -110 -111 -119 -120 -128 0
-35 -50 -51 -64 -65 -76 -78 -100 -101 -110 -111 -119 -120 -128 0
-35 -50 -51 -64 -65 -77 -78 -100 -102 -110 -111 -119 -120 -128 0
-35 -50 -51 -64 -65 -77 -78 -101 -102 -110 -112 -119 -120 -128 0
-35 -50 -51 -64 -65 -77 -78 -101 -102 -111 -112 -119 -121 -128 0
-35 -50 -51 -64 -65 -77 -78 -101 -102 -111 -112 -120 -121 -129 0
-34 -49 -50 -63 -64 -76 -77 -100 -101 -110 -111 -119 -120 -136 0
-35 -49 -51 -63 -64 -76 -77 -100 -101 -110 -111 -119 -120 -136 0
-35 -50 -51 -63 -65 -76 -77 -100 -101 -110 -111 -119 -120 -136 0
-35 -50 -51 -64 -65 -76 -78 -100 -101 -110 -111 -119 -120 -136 0
-35 -50 -51 -64 -65 -77 -78 -100 -102 -110 -111 -119 -120 -136 0
-35 -50 -51 -64 -65 -77 -78 -101 -102 -110 -112 -119 -120 -136 0
-35 -50 -51 -64 -65 -77 -78 -101 -102 -111 -112 -119 -121 -136 0
-35 -50 -51 -64 -65 -77 -78 -101 -102 -111 -112 -120 -121 -137 0
-35 -50 -51 -64 -65 -77 -78 -101 -102 -111 -112 -120 -121 -144 0
-34 -49 -50 -63 -64 -76 -77 -100 -101 -110 -111 -128 -129 -136 0
-35 -49 -51 -63 -64 -76 -77 -100 -101 -110 -111 -128 -129 -136 0
-35 -50 -51 -63 -65 -76 -77 -100 -101 -110 -111 -128 -129 -136 0
-35 -50 -51 -64 -65 -76 -78 -100 -101 -110 -111 -128 -129 -136 0
-35 -50 -51 -64 -65 -77 -78 -100 -102 -110 -111 -128 -129 -136 0
-35 -50 -51 -64 -65 -77 -78 -101 -102 -110 -112 -128 -129 -136 0
-35 -50 -51 -64 -65 -77 -78 -101 -102 -111 -112 -128 -130 -136 0
-35 -50 -51 -64 -65 -77 -78 -101 -102 -111 -112 -129 -130 -137 0
-35 -50 -51 -64 -65 -77 -78 -101 -102 -111 -112 -129 -130 -144 0
-35 -50 -51 -64 -65 -77 -78 -101 -102 -111 -112 -137 -138 -144 0
-34 -49 -50 -63 -64 -76 -77 -100 -101 -120 -121 -128 -129 -136 0
-35 -49 -51 -63 -64 -76 -77 -100 -101 -120 -121 -128 -129 -136 0
-35 -50 -51 -63 -65 -76 -77 -100 -101 -120 -121 -128 -129 -136 0
-35 -50 -51 -64 -65 -76 -78 -100 -101 -120 -121 -128 -129 -136 0
-35 -50 -51 -64 -65 -77 -78 -100 -102 -120 -121 -128 -129 -136 0
-35 -50 -51 -64 -65 -77 -78 -101 -102 -120 -122 -128 -129 -136 0
-35 -50 -51 -64 -65 -77 -78 -101 -102 -121 -122 -128 -130 -136 0
-35 -50 -51 -64 -65 -77 -78 -101 -102 -121 -122 -129 -130 -137 0
-35 -50 -51 -64 -65 -77 -78 -101 -102 -121 -122 -129 -130 -144 0
-35 -50 -51 -64 -65 -77 -78 -101 -102 -121 -122 -137 -138 -144 0
-35 -50 -51 -64 -65 -77 -78 -101 -102 -130 -131 -137 -138 -144 0
-34 -49 -50 -63 -64 -76 -77 -111 -112 -120 -121 -128 -129 -136 0
-35 -49 -51 -63 -64 -76 -77 -111 -112 -120 -121 -128 -129 -136 0
-35 -50 -51 -63 -65 -76 -77 -111 -112 -120 -121 -128 -129 -136 0
-35 -50 -51 -64 -65 -76 -78 -111 -112 -120 -121 -128 -129 -136 0
-35 -50 -51 -64 -65 -77 -78 -111 -113 -120 -121 -128 -129 -136 0
-35 -50 -51 -64 -65 -77 -78 -112 -113 -120 -122 -128 -129 -136 0
-35 -50 -51 -64 -65 -77 -78 -112 -113 -121 -122 -128 -130 -136 0
-35 -50 -51 -64 -65 -77 -78 -112 -113 -121 -122 -129 -130 -137 0
-35 -50 -51 -64 -65 -77 -78 -112 -113 -121 -122 -129 -130 -144 0
-35 -50 -51 -64 -65 -77 -78 -112 -113 -121 -122 -137 -138 -144 0
-35 -50 -51 -64 -65 -77 -78 -112 -113 -130 -131 -137 -138 -144 0
-35 -50 -51 -64 -65 -77 -78 -122 -123 -130 -131 -137 -138 -144 0
-33 -48 -49 -62 -63 -88 -89 -99 -100 -109 -110 -118 -119 -127 0
-34 -48 -50 -62 -63 -88 -89 -99 -100 -109 -110 -118 -119 -127 0
-35 -48 -51 -62 -63 -88 -89 -99 -100 -109 -110 -118 -119 -127 0
-34 -49 -50 -62 -64 -88 -89 -99 -100 -109 -110 -118 -119 -127 0
-35 -49 -51 -62 -64 -88 -89 -99 -100 -109 -110 -118 -119 -127 0
-35 -50 -51 -62 -65 -88 -89 -99 -100 -109 -110 -118 -119 -127 0
-34 -49 -50 -63 -64 -88 -90 -99 -100 -109 -110 -118 -119 -127 0
-35 -49 -51 -63 -64 -88 -90 -99 -100 -109 -110 -118 -119 -127 0
-35 -50 -51 -63 -65 -88 -90 -99 -100 -109 -110 -118 -119 -127 0
-35 -50 -51 -64 -65 -88 -91 -99 -100 -109 -110 -118 -119 -127 0
-34 -49 -50 -63 -64 -89 -90 -99 -101 -109 -110 -118 -119 -127 0
-35 -49 -51 -63 -64 -89 -90 -99 -101 -109 -110 -118 -119 -127 0
-35 -50 -51 -63 -65 -89 -90 -99 -101 -109 -110 -118 -119 -127 0
-35 -50 -51 -64 -65 -89 -91 -99 -101 -109 -110 -118 -119 -127 0
-35 -50 -51 -64 -65 -90 -91 -99 -102 -109 -110 -118 -119 -127 0
-34 -49 -50 -63 -64 -89 -90 -100 -101 -109 -111 -118 -119 -127 0
-35 -49 -51 -63 -64 -89 -90 -100 -101 -109 -111 -118 -119 -127 0
-35 -50 -51 -63 -65 -89 -90 -100 -101 -109 -111 -118 -119 -127 0
-35 -50 -51 -64 -65 -89 -91 -100 -101 -109 -111 -118 -119 -127 0
-35 -50 -51 -64 -65 -90 -91 -100 -102 -109 -111 -118 -119 -127 0
-35 -50 -51 -64 -65 -90 -91 -101 -102 -109 -112 -118 -119 -127 0
-34 -49 -50 -63 -64 -89 -90 -100 -101 -110 -111 -118 -120 -127 0
-35 -49 -51 -63 -64 -89 -90 -100 -101 -110 -111 -118 -120 -127 0
-35 -50 -51 -63 -65 -89 -90 -100 -101 -110 -111 -118 -120 -127 0
-35 -50 -51 -64 -65 -89 -91 -100 -101 -110 -111 -118 -120 -127 0
-35 -50 -51 -64 -65 -90 -91 -100 -102 -110 -111 -118 -120 -127 0
-35 -50 -51 -64 -65 -90 -91 -101 -102 -110 -112 -118 -120 -127 0
-35 -50 -51 -64 -65 -90 -91 -101 -102 -111 -112 -118 -121 -127 0
-34 -49 -50 -63 -64 -89 -90 -100 -101 -110 -111 -119 -120 -128 0
-35 -49 -51 -63 -64 -89 -90 -100 -101 -110 -111 -119 -120 -128 0
-35 -50 -51 -63 -65 -89 -90 -100 -101 -110 -111 -119 -120 -128 0
-35 -50 -51 -64 -65 -89 -91 -100 -101 -110 -111 -119 -120 -128 0
-35 -50 -51 -64 -65 -90 -91 -100 -102 -110 -111 -119 -120 -128 0
-35 -50 -51 -64 -65 -90 -91 -101 -102 -110 -112 -119 -120 -128 0
-35 -50 -51 -64 -65 -90 -91 -101 -102 -111 -112 -119 -121 -128 0
-35 -50 -51 -64 -65 -90 -91 -101 -102 -111 -112 -120 -121 -129 0
-34 -49 -50 -63 -64 -89 -90 -100 -101 -110 -111 -119 -120 -136 0
-35 -49 -51 -63 -64 -89 -90 -100 -101 -110 -111 -119 -120 -136 0
-35 -50 -51 -63 -65 -89 -90 -100 -101 -110 -111 -119 -120 -136 0
-35 -50 -51 -64 -65 -89 -91 -100 -101 -110 -111 -119 -120 -136 0
-35 -50 -51 -64 -65 -90 -91 -100 -102 -110 -111 -119 -120 -136 0
-35 -50 -51 -64 -65 -90 -91 -101 -102 -110 -112 -119 -120 -136 0
-35 -50 -51 -64 -65 -90 -91 -101 -102 -111 -112 -119 -121 -136 0
-35 -50 -51 -64 -65 -90 -91 -101 -102 -111 -112 -120 -121 -137 0
-35 -50 -51 -64 -65 -90 -91 -101 -102 -111 -112 -120 -121 -144 0
-34 -49 -50 -63 -64 -89 -90 -100 -101 -110 -111 -128 -129 -136 0
-35 -49 -51 -63 -64 -89 -90 -100 -101 -110 -111 -128 -129 -136 0
-35 -50 -51 -63 -65 -89 -90 -100 -101 -110 -111 -128 -129 -136 0
-35 -50 -51 -64 -65 -89 -91 -100 -101 -110 -111 -128 -129 -136 0
-35 -50 -51 -64 -65 -90 -91 -100 -102 -110 -111 -128 -129 -136 0
-35 -50 -51 -64 -65 -90 -91 -101 -102 -110 -112 -128 -129 -136 0
-35 -50 -51 -64 -65 -90 -91 -101 -102 -111 -112 -128 -130 -136 0
-35 -50 -51 -64 -65 -90 -91 -101 -102 -111 -112 -129 -130 -137 0
-35 -50 -51 -64 -65 -90 -91 -101 -102 -111 -112 -129 -130 -144 0
-35 -50 -51 -64 -65 -90 -91 -101 -102 -111 -112 -137 -138 -144 0
-34 -49 -50 -63 -64 -89 -90 -100 -101 -120 -121 -128 -129 -136 0
-35 -49 -51 -63 -64 -89 -90 -100 -101 -120 -121 -128 -129 -136 0
-35 -50 -51 -63 -65 -89 -90 -100 -101 -120 -121 -128 -129 -136 0
-35 -50 -51 -64 -65 -89 -91 -100 -101 -120 -121 -128 -129 -136 0
-35 -50 -51 -64 -65 -90 -91 -100 -102 -120 -121 -128 -129 -136 0
-35 -50 -51 -64 -65 -90 -91 -101 -102 -120 -122 -128 -129 -136 0
-35 -50 -51 -64 -65 -90 -91 -101 -102 -121 -122 -128 -130 -136 0
-35 -50 -51 -64 -65 -90 -91 -101 -102 -121 -122 -129 -130 -137 0
-35 -50 -51 -64 -65 -90 -91 -101 -102 -121 -122 -129 -130 -144 0
-35 -50 -51 -64 -65 -90 -91 -101 -102 -121 -122 -137 -138 -144 0
-35 -50 -51 -64 -65 -90 -91 -101 -102 -130 -131 -137 -138 -144 0
-34 -49 -50 -63 -64 -89 -90 -111 -112 -120 -121 -128 -129 -136 0
-35 -49 -51 -63 -64 -89 -90 -111 -112 -120 -121 -128 -129 -136 0
-35 -50 -51 -63 -65 -89 -90 -111 -112 -120 -121 -128 -129 -136 0
-35 -50 -51 -64 -65 -89 -91 -111 -112 -120 -121 -128 -129 -136 0
-35 -50 -51 -64 -65 -90 -91 -111 -113 -120 -121 -128 -129 -136 0
-35 -50 -51 -64 -65 -90 -91 -112 -113 -120 -122 -128 -129 -136 0
-35 -50 -51 -64 -65 -90 -91 -112 -113 -121 -122 -128 -130 -136 0
-35 -50 -51 -64 -65 -90 -91 -112 -113 -121 -122 -129 -130 -137 0
-35 -50 -51 -64 -65 -90 -91 -112 -113 -121 -122 -129 -130 -144 0
-35 -50 -51 -64 -65 -90 -91 -112 -113 -121 -122 -137 -138 -144 0
-35 -50 -51 -64 -65 -90 -91 -112 -113 -130 -131 -137 -138 -144 0
-35 -50 -51 -64 -65 -90 -91 -122 -123 -130 -131 -137 -138 -144 0
-34 -49 -50 -63 -64 -101 -102 -111 -112 -120 -121 -128 -129 -136 0
-35 -49 -51 -63 -64 -101 -102 -111 -112 -120 -121 -128 -129 -136 0
-35 -50 -51 -63 -65 -101 -102 -111 -112 -120 -121 -128 -129 -136 0
-35 -50 -51 -64 -65 -101 -103 -111 -112 -120 -121 -128 -129 -136 0
-35 -50 -51 -64 -65 -102 -103 -111 -113 -120 -121 -128 -129 -136 0
-35 -50 -51 -64 -65 -102 -103 -112 -113 -120 -122 -128 -129 -136 0
-35 -50 -51 -64 -65 -102 -103 -112 -113 -121 -122 -128 -130 -136 0
-35 -50 -51 -64 -65 -102 -103 -112 -113 -121 -122 -129 -130 -137 0
-35 -50 -51 -64 -65 -102 -103 -112 -113 -121 -122 -129 -130 -144 0
-35 -50 -51 -64 -65 -102 -103 -112 -113 -121 -122 -137 -138 -144 0
-35 -50 -51 -64 -65 -102 -103 -112 -113 -130 -131 -137 -138 -144 0
-35 -50 -51 -64 -65 -102 -103 -122 -123 -130 -131 -137 -138 -144 0
-35 -50 -51 -64 -65 -113 -114 -122 -123 -130 -131 -137 -138 -144 0
-33 -48 -49 -76 -77 -88 -89 -99 -100 -109 -110 -118 -119 -127 0
-34 -48 -50 -76 -77 -88 -89 -99 -100 -109 -110 -118 -119 -127 0
-35 -48 -51 -76 -77 -88 -89 -99 -100 -109 -110 -118 -119 -127 0
-34 -49 -50 -76 -78 -88 -89 -99 -100 -109 -110 -118 -119 -127 0
-35 -49 -51 -76 -78 -88 -89 -99 -100 -109 -110 -118 -119 -127 0
-35 -50 -51 -76 -79 -88 -89 -99 -100 -109 -110 -118 -119 -127 0
-34 -49 -50 -77 -78 -88 -90 -99 -100 -109 -110 -118 -119 -127 0
-35 -49 -51 -77 -78 -88 -90 -99 -100 -109 -110 -118 -119 -127 0
-35 -50 -51 -77 -79 -88 -90 -99 -100 -109 -110 -118 -119 -127 0
-35 -50 -51 -78 -79 -88 -91 -99 -100 -109 -110 -118 -119 -127 0
-34 -49 -50 -77 -78 -89 -90 -99 -101 -109 -110 -118 -119 -127 0
-35 -49 -51 -77 -78 -89 -90 -99 -101 -109 -110 -118 -119 -127 0
-35 -50 -51 -77 -79 -89 -90 -99 -101 -109 -110 -118 -119 -127 0
-35 -50 -51 -78 -79 -89 -91 -99 -101 -109 -110 -118 -119 -127 0
-35 -50 -51 -78 -79 -90 -91 -99 -102 -109 -110 -118 -119 -127 0
-34 -49 -50 -77 -78 -89 -90 -100 -101 -109 -111 -118 -119 -127 0
-35 -49 -51 -77 -78 -89 -90 -100 -101 -109 -111 -118 -119 -127 0
-35 -50 -51 -77 -79 -89 -90 -100 -101 -109 -111 -118 -119 -127 0
-35 -50 -51 -78 -79 -89 -91 -100 -101 -109 -111 -118 -119 -127 0
-35 -50 -51 -78 -79 -90 -91 -100 -102 -109 -111 -118 -119 -127 0
-35 -50 -51 -78 -79 -90 -91 -101 -102 -109 -112 -118 -119 -127 0
-34 -49 -50 -77 -78 -89 -90 -100 -101 -110 -111 -118 -120 -127 0
-35 -49 -51 -77 -78 -89 -90 -100 -101 -110 -111 -118 -120 -127 0
-35 -50 -51 -77 -79 -89 -90 -100 -101 -110 -111 -118 -120 -127 0
-35 -50 -51 -78 -79 -89 -91 -100 -101 -110 -111 -118 -120 -127 0
-35 -50 -51 -78 -79 -90 -91 -100 -102 -110 -111 -118 -120 -127 0
-35 -50 -51 -78 -79 -90 -91 -101 -102 -110 -112 -118 -120 -127 0
-35 -50 -51 -78 -79 -90 -91 -101 -102 -111 -112 -118 -121 -127 0
-34 -49 -50 -77 -78 -89 -90 -100 -101 -110 -111 -119 -120 -128 0
-35 -49 -51 -77 -78 -89 -90 -100 -101 -110 -111 -119 -120 -128 0
-35 -50 -51 -77 -79 -89 -90 -100 -101 -110 -111 -119 -120 -128 0
-35 -50 -51 -78 -79 -89 -91 -100 -101 -110 -111 -119 -120 -128 0
-35 -50 -51 -78 -79 -90 -91 -100 -102 -110 -111 -119 -120 -128 0
-35 -50 -51 -78 -79 -90 -91 -101 -102 -110 -112 -119 -120 -128 0
-35 -50 -51 -78 -79 -90 -91 -101 -102 -111 -112 -119 -121 -128 0
-35 -50 -51 -78 -79 -90 -91 -101 -102 -111 -112 -120 -121 -129 0
-34 -49 -50 -77 -78 -89 -90 -100 -101 -110 -111 -119 -120 -136 0
-35 -49 -51 -77 -78 -89 -90 -100 -101 -110 -111 -119 -120 -136 0
-35 -50 -51 -77 -79 -89 -90 -100 -101 -110 -111 -119 -120 -136 0
-35 -50 -51 -78 -79 -89 -91 -100 -101 -110 -111 -119 -120 -136 0
-35 -50 -51 -78 -79 -90 -91 -100 -102 -110 -111 -119 -120 -136 0
-35 -50 -51 -78 -79 -90 -91 -101 -102 -110 -112 -119 -120 -136 0
-35 -50 -51 -78 -79 -90 -91 -101 -102 -111 -112 -119 -121 -136 0
-35 -50 -51 -78 -79 -90 -91 -101 -102 -111 -112 -120 -121 -137 0
-35 -50 -51 -78 -79 -90 -91 -101 -102 -111 -112 -120 -121 -144 0
-34 -49 -50 -77 -78 -89 -90 -100 -101 -110 -111 -128 -129 -136 0
-35 -49 -51 -77 -78 -89 -90 -100 -101 -110 -111 -128 -129 -136 0
-35 -50 -51 -77 -79 -89 -90 -100 -101 -110 -111 -128 -129 -136 0
-35 -50 -51 -78 -79 -89 -91 -100 -101 -110 -111 -128 -129 -136 0
-35 -50 -51 -78 -79 -90 -91 -100 -102 -110 -111 -128 -129 -136 0
-35 -50 -51 -78 -79 -90 -91 -101 -102 -110 -112 -128 -129 -136 0
-35 -50 -51 -78 -79 -90 -91 -101 -102 -111 -112 -128 -130 -136 0
-35 -50 -51 -78 -79 -90 -91 -101 -102 -111 -112 -129 -130 -137 0
-35 -50 -51 -78 -79 -90 -91 -101 -102 -111 -112 -129 -130 -144 0
-35 -50 -51 -78 -79 -90 -91 -101 -102 -111 -112 -137 -138 -144 0
-34 -49 -50 -77 -78 -89 -90 -100 -101 -120 -121 -128 -129 -136 0
-35 -49 -51 -77 -78 -89 -90 -100 -101 -120 -121 -128 -129 -136 0
-35 -50 -51 -77 -79 -89 -90 -100 -101 -120 -121 -128 -129 -136 0
-35 -50 -51 -78 -79 -89 -91 -100 -101 -120 -121 -128 -129 -136 0
-35 -50 -51 -78 -79 -90 -91 -100 -102 -120 -121 -128 -129 -136 0
-35 -50 -51 -78 -79 -90 -91 -101 -102 -120 -122 -128 -129 -136 0
-35 -50 -51 -78 -79 -90 -91 -101 -102 -121 -122 -128 -130 -136 0
-35 -50 -51 -78 -79 -90 -91 -101 -102 -121 -122 -129 -130 -137 0
-35 -50 -51 -78 -79 -90 -91 -101 -102 -121 -122 -129 -130 -144 0
-35 -50 -51 -78 -79 -90 -91 -101 -102 -121 -122 -137 -138 -144 0
-35 -50 -51 -78 -79 -90 -91 -101 -102 -130 -131 -137 -138 -144 0
-34 -49 -50 -77 -78 -89 -90 -111 -112 -120 -121 -128 -129 -136 0
-35 -49 -51 -77 -78 -89 -90 -111 -112 -120 -121 -128 -129 -136 0
-35 -50 -51 -77 -79 -89 -90 -111 -112 -120 -121 -128 -129 -136 0
-35 -50 -51 -78 -79 -89 -91 -111 -112 -120 -121 -128 -129 -136 0
-35 -50 -51 -78 -79 -90 -91 -111 -113 -120 -121 -128 -129 -136 0
-35 -50 -51 -78 -79 -90 -91 -112 -113 -120 -122 -128 -129 -136 0
-35 -50 -51 -78 -79 -90 -91 -112 -113 -121 -122 -128 -130 -136 0
-35 -50 -51 -78 -79 -90 -91 -112 -113 -121 -122 -129 -130 -137 0
-35 -50 -51 -78 -79 -90 -91 -112 -113 -121 -122 -129 -130 -144 0
-35 -50 -51 -78 -79 -90 -91 -112 -113 -121 -122 -137 -138 -144 0
-35 -50 -51 -78 -79 -90 -91 -112 -113 -130 -131 -137 -138 -144 0
-35 -50 -51 -78 -79 -90 -91 -122 -123 -130 -131 -137 -138 -144 0
-34 -49 -50 -77 -78 -101 -102 -111 -112 -120 -121 -128 -129 -136 0
-35 -49 -51 -77 -78 -101 -102 -111 -112 -120 -121 -128 -129 -136 0
-35 -50 -51 -77 -79 -101 -102 -111 -112 -120 -121 -128 -129 -136 0
-35 -50 -51 -78 -79 -101 -103 -111 -112 -120 -121 -128 -129 -136 0
-35 -50 -51 -78 -79 -102 -103 -111 -113 -120 -121 -128 -129 -136 0
-35 -50 -51 -78 -79 -102 -103 -112 -113 -120 -122 -128 -129 -136 0
-35 -50 -51 -78 -79 -102 -103 -112 -113 -121 -122 -128 -130 -136 0
-35 -50 -51 -78 -79 -102 -103 -112 -113 -121 -122 -129 -130 -137 0
-35 -50 -51 -78 -79 -102 -103 -112 -113 -121 -122 -129 -130 -144 0
-35 -50 -51 -78 -79 -102 -103 -112 -113 -121 -122 -137 -138 -144 0
-35 -50 -51 -78 -79 -102 -103 -112 -113 -130 -131 -137 -138 -144 0
-35 -50 -51 -78 -79 -102 -103 -122 -123 -130 -131 -137 -138 -144 0
-35 -50 -51 -78 -79 -113 -114 -122 -123 -130 -131 -137 -138 -144 0
-34 -49 -50 -90 -91 -101 -102 -111 -112 -120 -121 -128 -129 -136 0
-35 -49 -51 -90 -91 -101 -102 -111 -112 -120 -121 -128 -129 -136 0
-35 -50 -51 -90 -92 -101 -102 -111 -112 -120 -121 -128 -129 -136 0
-35 -50 -51 -91 -92 -101 -103 -111 -112 -120 -121 -128 -129 -136 0
-35 -50 -51 -91 -92 -102 -103 -111 -113 -120 -121 -128 -129 -136 0
-35 -50 -51 -91 -92 -102 -103 -112 -113 -120 -122 -128 -129 -136 0
-35 -50 -51 -91 -92 -102 -103 -112 -113 -121 -122 -128 -130 -136 0
-35 -50 -51 -91 -92 -102 -103 -112 -113 -121 -122 -129 -130 -137 0
-35 -50 -51 -91 -92 -102 -103 -112 -113 -121 -122 -129 -130 -144 0
-35 -50 -51 -91 -92 -102 -103 -112 -113 -121 -122 -137 -138 -144 0
-35 -50 -51 -91 -92 -102 -103 -112 -113 -130 -131 -137 -138 -144 0
-35 -50 -51 -91 -92 -102 -103 -122 -123 -130 -131 -137 -138 -144 0
-35 -50 -51 -91 -92 -113 -114 -122 -123 -130 -131 -137 -138 -144 0
-35 -50 -51 -103 -104 -113 -114 -122 -123 -130 -131 -137 -138 -144 0
-33 -63 -64 -76 -77 -88 -89 -99 -100 -109 -110 -118 -119 -127 0
-34 -63 -65 -76 -77 -88 -89 -99 -100 -109 -110 -118 -119 -127 0
-35 -63 -66 -76 -77 -88 -89 -99 -100 -109 -110 -118 -119 -127 0
-34 -64 -65 -76 -78 -88 -89 -99 -100 -109 -110 -118 -119 -127 0
-35 -64 -66 -76 -78 -88 -89 -99 -100 -109 -110 -118 -119 -127 0
-35 -65 -66 -76 -79 -88 -89 -99 -100 -109 -110 -118 -119 -127 0
-34 -64 -65 -77 -78 -88 -90 -99 -100 -109 -110 -118 -119 -127 0
-35 -64 -66 -77 -78 -88 -90 -99 -100 -109 -110 -118 -119 -127 0
-35 -65 -66 -77 -79 -88 -90 -99 -100 -109 -110 -118 -119 -127 0
-35 -65 -66 -78 -79 -88 -91 -99 -100 -109 -110 -118 -119 -127 0
-34 -64 -65 -77 -78 -89 -90 -99 -101 -109 -110 -118 -119 -127 0
-35 -64 -66 -77 -78 -89 -90 -99 -101 -109 -110 -118 -119 -127 0
-35 -65 -66 -77 -79 -89 -90 -99 -101 -109 -110 -118 -119 -127 0
-35 -65 -66 -78 -79 -89 -91 -99 -101 -109 -110 -118 -119 -127 0
-35 -65 -66 -78 -79 -90 -91 -99 -102 -109 -110 -118 -119 -127 0
-34 -64 -65 -77 -78 -89 -90 -100 -101 -109 -111 -118 -119 -127 0
-35 -64 -66 -77 -78 -89 -90 -100 -101 -109 -111 -118 -119 -127 0
-35 -65 -66 -77 -79 -89 -90 -100 -101 -109 -111 -118 -119 -127 0
-35 -65 -66 -78 -79 -89 -91 -100 -101 -109 -111 -118 -119 -127 0
-35 -65 -66 -78 -79 -90 -91 -100 -102 -109 -111 -118 -119 -127 0
-35 -65 -66 -78 -79 -90 -91 -101 -102 -109 -112 -118 -119 -127 0
-34 -64 -65 -77 -78 -89 -90 -100 -101 -110 -111 -118 -120 -127 0
-35 -64 -66 -77 -78 -89 -90 -100 -101 -110 -111 -118 -120 -127 0
-35 -65 -66 -77 -79 -89 -90 -100 -101 -110 -111 -118 -120 -127 0
-35 -65 -66 -78 -79 -89 -91 -100 -101 -110 -111 -118 -120 -127 0
-35 -65 -66 -78 -79 -90 -91 -100 -102 -110 -111 -118 -120 -127 0
-35 -65 -66 -78 -79 -90 -91 -101 -102 -110 -112 -118 -120 -127 0
-35 -65 -66 -78 -79 -90 -91 -101 -102 -111 -112 -118 -121 -127 0
-34 -64 -65 -77 -78 -89 -90 -100 -101 -110 -111 -119 -120 -128 0
-35 -64 -66 -77 -78 -89 -90 -100 -101 -110 -111 -119 -120 -128 0
-35 -65 -66 -77 -79 -89 -90 -100 -101 -110 -111 -119 -120 -128 0
-35 -65 -66 -78 -79 -89 -91 -100 -101 -110 -111 -119 -120 -128 0
-35 -65 -66 -78 -79 -90 -91 -100 -102 -110 -111 -119 -120 -128 0
-35 -65 -66 -78 -79 -90 -91 -101 -102 -110 -112 -119 -120 -128 0
-35 -65 -66 -78 -79 -90 -91 -101 -102 -111 -112 -119 -121 -128 0
-35 -65 -66 -78 -79 -90 -91 -101 -102 -111 -112 -120 -121 -129 0
-34 -64 -65 -77 -78 -89 -90 -100 -101 -110 -111 -119 -120 -136 0
-35 -64 -66 -77 -78 -89 -90 -100 -101 -110 -111 -119 -120 -136 0
-35 -65 -66 -77 -79 -89 -90 -100 -101 -110 -111 -119 -120 -136 0
-35 -65 -66 -78 -79 -89 -91 -100 -101 -110 -111 -119 -120 -136 0
-35 -65 -66 -78 -79 -90 -91 -100 -102 -110 -111 -119 -120 -136 0
-35 -65 -66 -78 -79 -90 -91 -101 -102 -110 -112 -119 -120 -136 0
-35 -65 -66 -78 -79 -90 -91 -101 -102 -111 -112 -119 -121 -136 0
-35 -65 -66 -78 -79 -90 -91 -101 -102 -111 -112 -120 -121 -137 0
-35 -65 -66 -78 -79 -90 -91 -101 -102 -111 -112 -120 -121 -144 0
-34 -64 -65 -77 -78 -89 -90 -100 -101 -110 -111 -128 -129 -136 0
-35 -64 -66 -77 -78 -89 -90 -100 -101 -110 -111 -128 -129 -136 0
-35 -65 -66 -77 -79 -89 -90 -100 -101 -110 -111 -128 -129 -136 0
-35 -65 -66 -78 -79 -89 -91 -100 -101 -110 -111 -128 -129 -136 0
-35 -65 -66 -78 -79 -90 -91 -100 -102 -110 -111 -128 -129 -136 0
-35 -65 -66 -78 -79 -90 -91 -101 -102 -110 -112 -128 -129 -136 0
-35 -65 -66 -78 -79 -90 -91 -101 -102 -111 -112 -128 -130 -136 0
-35 -65 -66 -78 -79 -90 -91 -101 -102 -111 -112 -129 -130 -137 0
-35 -65 -66 -78 -79 -90 -91 -101 -102 -111 -112 -129 -130 -144 0
-35 -65 -66 -78 -79 -90 -91 -101 -102 -111 -112 -137 -138 -144 0
-34 -64 -65 -77 -78 -89 -90 -100 -101 -120 -121 -128 -129 -136 0
-35 -64 -66 -77 -78 -89 -90 -100 -101 -120 -121 -128 -129 -136 0
-35 -65 -66 -77 -79 -89 -90 -100 -101 -120 -121 -128 -129 -136 0
-35 -65 -66 -78 -79 -89 -91 -100 -101 -120 -121 -128 -129 -136 0
-35 -65 -66 -78 -79 -90 -91 -100 -102 -120 -121 -128 -129 -136 0
-35 -65 -66 -78 -79 -90 -91 -101 -102 -120 -122 -128 -129 -136 0
-35 -65 -66 -78 -79 -90 -91 -101 -102 -121 -122 -128 -130 -136 0
-35 -65 -66 -78 -79 -90 -91 -101 -102 -121 -122 -129 -130 -137 0
-35 -65 -66 -78 -79 -90 -91 -101 -102 -121 -122 -129 -130 -144 0
-35 -65 -66 -78 -79 -90 -91 -101 -102 -121 -122 -137 -138 -144 0
-35 -65 -66 -78 -79 -90 -91 -101 -102 -130 -131 -137 -138 -144 0
-34 -64 -65 -77 -78 -89 -90 -111 -112 -120 -121 -128 -129 -136 0
-35 -64 -66 -77 -78 -89 -90 -111 -112 -120 -121 -128 -129 -136 0
-35 -65 -66 -77 -79 -89 -90 -111 -112 -120 -121 -128 -129 -136 0
-35 -65 -66 -78 -79 -89 -91 -111 -112 -120 -121 -128 -129 -136 0
-35 -65 -66 -78 -79 -90 -91 -111 -113 -120 -121 -128 -129 -136 0
-35 -65 -66 -78 -79 -90 -91 -112 -113 -120 -122 -128 -129 -136 0
-35 -65 -66 -78 -79 -90 -91 -112 -113 -121 -122 -128 -130 -136 0
-35 -65 -66 -78 -79 -90 -91 -112 -113 -121 -122 -129 -130 -137 0
-35 -65 -66 -78 -79 -90 -91 -112 -113 -121 -122 -129 -130 -144 0
-35 -65 -66 -78 -79 -90 -91 -112 -113 -121 -122 -137 -138 -144 0
-35 -65 -66 -78 -79 -90 -91 -112 -113 -130 -131 -137 -138 -144 0
-35 -65 -66 -78 -79 -90 -91 -122 -123 -130 -131 -137 -138 -144 0
-34 -64 -65 -77 -78 -101 -102 -111 -112 -120 -121 -128 -129 -136 0
-35 -64 -66 -77 -78 -101 -102 -111 -112 -120 -121 -128 -129 -136 0
-35 -65 -66 -77 -79 -101 -102 -111 -112 -120 -121 -128 -129 -136 0
-35 -65 -66 -78 -79 -101 -103 -111 -112 -120 -121 -128 -129 -136 0
-35 -65 -66 -78 -79 -102 -103 -111 -113 -120 -121 -128 -129 -136 0
-35 -65 -66 -78 -79 -102 -103 -112 -113 -120 -122 -128 -129 -136 0
-35 -65 -66 -78 -79 -102 -103 -112 -113 -121 -122 -128 -130 -136 0
-35 -65 -66 -78 -79 -102 -103 -112 -113 -121 -122 -129 -130 -137 0
-35 -65 -66 -78 -79 -102 -103 -112 -113 -121 -122 -129 -130 -144 0
-35 -65 -66 -78 -79 -102 -103 -112 -113 -121 -122 -137 -138 -144 0
-35 -65 -66 -78 -79 -102 -103 -112 -113 -130 -131 -137 -138 -144 0
-35 -65 -66 -78 -79 -102 -103 -122 -123 -130 -131 -137 -138 -144 0
-35 -65 -66 -78 -79 -113 -114 -122 -123 -130 -131 -137 -138 -144 0
-34 -64 -65 -90 -91 -101 -102 -111 -112 -120 -121 -128 -129 -136 0
-35 -64 -66 -90 -91 -101 -102 -111 -112 -120 -121 -128 -129 -136 0
-35 -65 -66 -90 -92 -101 -102 -111 -112 -120 -121 -128 -129 -136 0
-35 -65 -66 -91 -92 -101 -103 -111 -112 -120 -121 -128 -129 -136 0
-35 -65 -66 -91 -92 -102 -103 -111 -113 -120 -121 -128 -129 -136 0
-35 -65 -66 -91 -92 -102 -103 -112 -113 -120 -122 -128 -129 -136 0
-35 -65 -66 -91 -92 -102 -103 -112 -113 -121 -122 -128 -130 -136 0
-35 -65 -66 -91 -92 -102 -103 -112 -113 -121 -122 -129 -130 -137 0
-35 -65 -66 -91 -92 -102 -103 -112 -113 -121 -122 -129 -130 -144 0
-35 -65 -66 -91 -92 -102 -103 -112 -113 -121 -122 -137 -138 -144 0
-35 -65 -66 -91 -92 -102 -103 -112 -113 -130 -131 -137 -138 -144 0
-35 -65 -66 -91 -92 -102 -103 -122 -123 -130 -131 -137 -138 -144 0
-35 -65 -66 -91 -92 -113 -114 -122 -123 -130 -131 -137 -138 -144 0
-35 -65 -66 -103 -104 -113 -114 -122 -123 -130 -131 -137 -138 -144 0
-34 -78 -79 -90 -91 -101 -102 -111 -112 -120 -121 -128 -129 -136 0
-35 -78 -80 -90 -91 -101 -102 -111 -112 -120 -121 -128 -129 -136 0
-35 -79 -80 -90 -92 -101 -102 -111 -112 -120 -121 -128 -129 -136 0
-35 -79 -80 -91 -92 -101 -103 -111 -112 -120 -121 -128 -129 -136 0
-35 -79 -80 -91 -92 -102 -103 -111 -113 -120 -121 -128 -129 -136 0
-35 -79 -80 -91 -92 -102 -103 -112 -113 -120 -122 -128 -129 -136 0
-35 -79 -80 -91 -92 -102 -103 -112 -113 -121 -122 -128 -130 -136 0
-35 -79 -80 -91 -92 -102 -103 -112 -113 -121 -122 -129 -130 -137 0
-35 -79 -80 -91 -92 -102 -103 -112 -113 -121 -122 -129 -130 -144 0
-35 -79 -80 -91 -92 -102 -103 -112 -113 -121 -122 -137 -138 -144 0
-35 -79 -80 -91 -92 -102 -103 -112 -113 -130 -131 -137 -138 -144 0
-35 -79 -80 -91 -92 -102 -103 -122 -123 -130 -131 -137 -138 -144 0
-35 -79 -80 -91 -92 -113 -114 -122 -123 -130 -131 -137 -138 -144 0
-35 -79 -80 -103 -104 -113 -114 -122 -123 -130 -131 -137 -138 -144 0
-35 -92 -93 -103 -104 -113 -114 -122 -123 -130 -131 -137 -138 -144 0
-49 -63 -64 -76 -77 -88 -89 -99 -100 -109 -110 -118 -119 -127 0
-50 -63 -65 -76 -77 -88 -89 -99 -100 -109 -110 -118 -119 -127 0
-51 -63 -66 -76 -77 -88 -89 -99 -100 -109 -110 -118 -119 -127 0
-50 -64 -65 -76 -78 -88 -89 -99 -100 -109 -110 -118 -119 -127 0
-51 -64 -66 -76 -78 -88 -89 -99 -100 -109 -110 -118 -119 -127 0
-51 -65 -66 -76 -79 -88 -89 -99 -100 -109 -110 -118 -119 -127 0
-50 -64 -65 -77 -78 -88 -90 -99 -100 -109 -110 -118 -119 -127 0
-51 -64 -66 -77 -78 -88 -90 -99 -100 -109 -110 -118 -119 -127 0
-51 -65 -66 -77 -79 -88 -90 -99 -100 -109 -110 -118 -119 -127 0
-51 -65 -66 -78 -79 -88 -91 -99 -100 -109 -110 -118 -119 -127 0
-50 -64 -65 -77 -78 -89 -90 -99 -101 -109 -110 -118 -119 -127 0
-51 -64 -66 -77 -78 -89 -90 -99 -101 -109 -110 -118 -119 -127 0
-51 -65 -66 -77 -79 -89 -90 -99 -101 -109 -110 -118 -119 -127 0
-51 -65 -66 -78 -79 -89 -91 -99 -101 -109 -110 -118 -119 -127 0
-51 -65 -66 -78 -79 -90 -91 -99 -102 -109 -110 -118 -119 -127 0
-50 -64 -65 -77 -78 -89 -90 -100 -101 -109 -111 -118 -119 -127 0
-51 -64 -66 -77 -78 -89 -90 -100 -101 -109 -111 -118 -119 -127 0
-51 -65 -66 -77 -79 -89 -90 -100 -101 -109 -111 -118 -119 -127 0
-51 -65 -66 -78 -79 -89 -91 -100 -101 -109 -111 -118 -119 -127 0
-51 -65 -66 -78 -79 -90 -91 -100 -102 -109 -111 -118 -119 -127 0
-51 -65 -66 -78 -79 -90 -91 -101 -102 -109 -112 -118 -119 -127 0
-50 -64 -65 -77 -78 -89 -90 -100 -101 -110 -111 -118 -120 -127 0
-51 -64 -66 -77 -78 -89 -90 -100 -101 -110 -111 -118 -120 -127 0
-51 -65 -66 -77 -79 -89 -90 -100 -101 -110 -111 -118 -120 -127 0
-51 -65 -66 -78 -79 -89 -91 -100 -101 -110 -111 -118 -120 -127 0
-51 -65 -66 -78 -79 -90 -91 -100 -102 -110 -111 -118 -120 -127 0
-51 -65 -66 -78 -79 -90 -91 -101 -102 -110 -112 -118 -120 -127 0
-51 -65 -66 -78 -79 -90 -91 -101 -102 -111 -112 -118 -121 -127 0
-50 -64 -65 -77 -78 -89 -90 -100 -101 -110 -111 -119 -120 -128 0
-51 -64 -66 -77 -78 -89 -90 -100 -101 -110 -111 -119 -120 -128 0
-51 -65 -66 -77 -79 -89 -90 -100 -101 -110 -111 -119 -120 -128 0
-51 -65 -66 -78 -79 -89 -91 -100 -101 -110 -111 -119 -120 -128 0
-51 -65 -66 -78 -79 -90 -91 -100 -102 -110 -111 -119 -120 -128 0
-51 -65 -66 -78 -79 -90 -91 -101 -102 -110 -112 -119 -120 -128 0
-51 -65 -66 -78 -79 -90 -91 -101 -102 -111 -112 -119 -121 -128 0
-51 -65 -66 -78 -79 -90 -91 -101 -102 -111 -112 -120 -121 -129 0
-50 -64 -65 -77 -78 -89 -90 -100 -101 -110 -111 -119 -120 -136 0
-51 -64 -66 -77 -78 -89 -90 -100 -101 -110 -111 -119 -120 -136 0
-51 -65 -66 -77 -79 -89 -90 -100 -101 -110 -111 -119 -120 -136 0
-51 -65 -66 -78 -79 -89 -91 -100 -101 -110 -111 -119 -120 -136 0
-51 -65 -66 -78 -79 -90 -91 -100 -102 -110 -111 -119 -120 -136 0
-51 -65 -66 -78 -79 -90 -91 -101 -102 -110 -112 -119 -120 -136 0
-51 -65 -66 -78 -79 -90 -91 -101 -102 -111 -112 -119 -121 -136 0
-51 -65 -66 -78 -79 -90 -91 -101 -102 -111 -112 -120 -121 -137 0
-51 -65 -66 -78 -79 -90 -91 -101 -102 -111 -112 -120 -121 -144 0
-50 -64 -65 -77 -78 -89 -90 -100 -101 -110 -111 -128 -129 -136 0
-51 -64 -66 -77 -78 -89 -90 -100 -101 -110 -111 -128 -129 -136 0
-51 -65 -66 -77 -79 -89 -90 -100 -101 -110 -111 -128 -129 -136 0
-51 -65 -66 -78 -79 -89 -91 -100 -101 -110 -111 -128 -129 -136 0
-51 -65 -66 -78 -79 -90 -91 -100 -102 -110 -111 -128 -129 -136 0
-51 -65 -66 -78 -79 -90 -91 -101 -102 -110 -112 -128 -129 -136 0
-51 -65 -66 -78 -79 -90 -91 -101 -102 -111 -112 -128 -130 -136 0
-51 -65 -66 -78 -79 -90 -91 -101 -102 -111 -112 -129 -130 -137 0
-51 -65 -66 -78 -79 -90 -91 -101 -102 -111 -112 -129 -130 -144 0
-51 -65 -66 -78 -79 -90 -91 -101 -102 -111 -112 -137 -138 -144 0
-50 -64 -65 -77 -78 -89 -90 -100 -101 -120 -121 -128 -129 -136 0
-51 -64 -66 -77 -78 -89 -90 -100 -101 -120 -121 -128 -129 -136 0
-51 -65 -66 -77 -79 -89 -90 -100 -101 -120 -121 -128 -129 -136 0
-51 -65 -66 -78 -79 -89 -91 -100 -101 -120 -121 -128 -129 -136 0
-51 -65 -66 -78 -79 -90 -91 -100 -102 -120 -121 -128 -129 -136 0
-51 -65 -66 -78 -79 -90 -91 -101 -102 -120 -122 -128 -129 -136 0
-51 -65 -66 -78 -79 -90 -91 -101 -102 -121 -122 -128 -130 -136 0
-51 -65 -66 -78 -79 -90 -91 -101 -102 -121 -122 -129 -130 -137 0
-51 -65 -66 -78 -79 -90 -91 -101 -102 -121 -122 -129 -130 -144 0
-51 -65 -66 -78 -79 -90 -91 -101 -102 -121 -122 -137 -138 -144 0
-51 -65 -66 -78 -79 -90 -91 -101 -102 -130 -131 -137 -138 -144 0
-50 -64 -65 -77 -78 -89 -90 -111 -112 -120 -121 -128 -129 -136 0
-51 -64 -66 -77 -78 -89 -90 -111 -112 -120 -121 -128 -129 -136 0
-51 -65 -66 -77 -79 -89 -90 -111 -112 -120 -121 -128 -129 -136 0
-51 -65 -66 -78 -79 -89 -91 -111 -112 -120 -121 -128 -129 -136 0
-51 -65 -66 -78 -79 -90 -91 -111 -113 -120 -121 -128 -129 -136 0
-51 -65 -66 -78 -79 -90 -91 -112 -113 -120 -122 -128 -129 -136 0
-51 -65 -66 -78 -79 -90 -91 -112 -113 -121 -122 -128 -130 -136 0
-51 -65 -66 -78 -79 -90 -91 -112 -113 -121 -122 -129 -130 -137 0
-51 -65 -66 -78 -79 -90 -91 -112 -113 -121 -122 -129 -130 -144 0
-51 -65 -66 -78 -79 -90 -91 -112 -113 -121 -122 -137 -138 -144 0
-51 -65 -66 -78 -79 -90 -91 -112 -113 -130 -131 -137 -138 -144 0
-51 -65 -66 -78 -79 -90 -91 -122 -123 -130 -131 -137 -138 -144 0
-50 -64 -65 -77 -78 -101 -102 -111 -112 -120 -121 -128 -129 -136 0
-51 -64 -66 -77 -78 -101 -102 -111 -112 -120 -121 -128 -129 -136 0
-51 -65 -66 -77 -79 -101 -102 -111 -112 -120 -121 -128 -129 -136 0
-51 -65 -66 -78 -79 -101 -103 -111 -112 -120 -121 -128 -129 -136 0
-51 -65 -66 -78 -79 -102 -103 -111 -113 -120 -121 -128 -129 -136 0
-51 -65 -66 -78 -79 -102 -103 -112 -113 -120 -122 -128 -129 -136 0
-51 -65 -66 -78 -79 -102 -103 -112 -113 -121 -122 -128 -130 -136 0
-51 -65 -66 -78 -79 -102 -103 -112 -113 -121 -122 -129 -130 -137 0
-51 -65 -66 -78 -79 -102 -103 -112 -113 -121 -122 -129 -130 -144 0
-51 -65 -66 -78 -79 -102 -103 -112 -113 -121 -122 -137 -138 -144 0
-51 -65 -66 -78 -79 -102 -103 -112 -113 -130 -131 -137 -138 -144 0
-51 -65 -66 -78 -79 -102 -103 -122 -123 -130 -131 -137 -138 -144 0
-51 -65 -66 -78 -79 -113 -114 -122 -123 -130 -131 -137 -138 -144 0
-50 -64 -65 -90 -91 -101 -102 -111 -112 -120 -121 -128 -129 -136 0
-51 -64 -66 -90 -91 -101 -102 -111 -112 -120 -121 -128 -129 -136 0
-51 -65 -66 -90 -92 -101 -102 -111 -112 -120 -121 -128 -129 -136 0
-51 -65 -66 -91 -92 -101 -103 -111 -112 -120 -121 -128 -129 -136 0
-51 -65 -66 -91 -92 -102 -103 -111 -113 -120 -121 -128 -129 -136 0
-51 -65 -66 -91 -92 -102 -103 -112 -113 -120 -122 -128 -129 -136 0
-51 -65 -66 -91 -92 -102 -103 -112 -113 -121 -122 -128 -130 -136 0
-51 -65 -66 -91 -92 -102 -103 -112 -113 -121 -122 -129 -130 -137 0
-51 -65 -66 -91 -92 -102 -103 -112 -113 -121 -122 -129 -130 -144 0
-51 -65 -66 -91 -92 -102 -103 -112 -113 -121 -122 -137 -138 -144 0
-51 -65 -66 -91 -92 -102 -103 -112 -113 -130 -131 -137 -138 -144 0
-51 -65 -66 -91 -92 -102 -103 -122 -123 -130 -131 -137 -138 -144 0
-51 -65 -66 -91 -92 -113 -114 -122 -123 -130 -131 -137 -138 -144 0
-51 -65 -66 -103 -104 -113 -114 -122 -123 -130 -131 -137 -138 -144 0
-50 -78 -79 -90 -91 -101 -102 -111 -112 -120 -121 -128 -129 -136 0
-51 -78 -80 -90 -91 -101 -102 -111 -112 -120 -121 -128 -129 -136 0
-51 -79 -80 -90 -92 -101 -102 -111 -112 -120 -121 -128 -129 -136 0
-51 -79 -80 -91 -92 -101 -103 -111 -112 -120 -121 -128 -129 -136 0
-51 -79 -80 -91 -92 -102 -103 -111 -113 -120 -121 -128 -129 -136 0
-51 -79 -80 -91 -92 -102 -103 -112 -113 -120 -122 -128 -129 -136 0
-51 -79 -80 -91 -92 -102 -103 -112 -113 -121 -122 -128 -130 -136 0
-51 -79 -80 -91 -92 -102 -103 -112 -113 -121 -122 -129 -130 -137 0
-51 -79 -80 -91 -92 -102 -103 -112 -113 -121 -122 -129 -130 -144 0
-51 -79 -80 -91 -92 -102 -103 -112 -113 -121 -122 -137 -138 -144 0
-51 -79 -80 -91 -92 -102 -103 -112 -113 -130 -131 -137 -138 -144 0
-51 -79 -80 -91 -92 -102 -103 -122 -123 -130 -131 -137 -138 -144 0
-51 -79 -80 -91 -92 -113 -114 -122 -123 -130 -131 -137 -138 -144 0
-51 -79 -80 -103 -104 -113 -114 -122 -123 -130 -131 -137 -138 -144 0
-51 -92 -93 -103 -104 -113 -114 -122 -123 -130 -131 -137 -138 -144 0
-65 -78 -79 -90 -91 -101 -102 -111 -112 -120 -121 -128 -129 -136 0
-66 -78 -80 -90 -91 -101 -102 -111 -112 -120 -121 -128 -129 -136 0
-66 -79 -80 -90 -92 -101 -102 -111 -112 -120 -121 -128 -129 -136 0
-66 -79 -80 -91 -92 -101 -103 -111 -112 -120 -121 -128 -129 -136 0
-66 -79 -80 -91 -92 -102 -103 -111 -113 -120 -121 -128 -129 -136 0
-66 -79 -80 -91 -92 -102 -103 -112 -113 -120 -122 -128 -129 -136 0
-66 -79 -80 -91 -92 -102 -103 -112 -113 -121 -122 -128 -130 -136 0
-66 -79 -80 -91 -92 -102 -103 -112 -113 -121 -122 -129 -130 -137 0
-66 -79 -80 -91 -92 -102 -103 -112 -113 -121 -122 -129 -130 -144 0
-66 -79 -80 -91 -92 -102 -103 -112 -113 -121 -122 -137 -138 -144 0
-66 -79 -80 -91 -92 -102 -103 -112 -113 -130 -131 -137 -138 -144 0
-66 -79 -80 -91 -92 -102 -103 -122 -123 -130 -131 -137 -138 -144 0
-66 -79 -80 -91 -92 -113 -114 -122 -123 -130 -131 -137 -138 -144 0
-66 -79 -80 -103 -104 -113 -114 -122 -123 -130 -131 -137 -138 -144 0
-66 -92 -93 -103 -104 -113 -114 -122 -123 -130 -131 -137 -138 -144 0
-80 -92 -93 -103 -104 -113 -114 -122 -123 -130 -131 -137 -138 -144 0
