c Ordered Ramsey CNF instance
c n = 16, N = 20
c Positive literal = blue edge
c Negative literal = red edge
p cnf 190 5985
1 2 0
1 3 0
1 4 0
1 5 0
1 6 0
1 7 0
1 8 0
1 9 0
1 10 0
1 11 0
1 12 0
1 13 0
1 14 0
1 15 0
1 16 0
1 17 0
1 18 0
1 19 0
2 3 0
2 4 0
2 5 0
2 6 0
2 7 0
2 8 0
2 9 0
2 10 0
2 11 0
2 12 0
2 13 0
2 14 0
2 15 0
2 16 0
2 17 0
2 18 0
2 19 0
3 4 0
3 5 0
3 6 0
3 7 0
3 8 0
3 9 0
3 10 0
3 11 0
3 12 0
3 13 0
3 14 0
3 15 0
3 16 0
3 17 0
3 18 0
3 19 0
4 5 0
4 6 0
4 7 0
4 8 0
4 9 0
4 10 0
4 11 0
4 12 0
4 13 0
4 14 0
4 15 0
4 16 0
4 17 0
4 18 0
4 19 0
5 6 0
5 7 0
5 8 0
5 9 0
5 10 0
5 11 0
5 12 0
5 13 0
5 14 0
5 15 0
5 16 0
5 17 0
5 18 0
5 19 0
6 7 0
6 8 0
6 9 0
6 10 0
6 11 0
6 12 0
6 13 0
6 14 0
6 15 0
6 16 0
6 17 0
6 18 0
6 19 0
7 8 0
7 9 0
7 10 0
7 11 0
7 12 0
7 13 0
7 14 0
7 15 0
7 16 0
7 17 0
7 18 0
7 19 0
8 9 0
8 10 0
8 11 0
8 12 0
8 13 0
8 14 0
8 15 0
8 16 0
8 17 0
8 18 0
8 19 0
9 10 0
9 11 0
9 12 0
9 13 0
9 14 0
9 15 0
9 16 0
9 17 0
9 18 0
9 19 0
10 11 0
10 12 0
10 13 0
10 14 0
10 15 0
10 16 0
10 17 0
10 18 0
10 19 0
11 12 0
11 13 0
11 14 0
11 15 0
11 16 0
11 17 0
11 18 0
11 19 0
12 13 0
12 14 0
12 15 0
12 16 0
12 17 0
12 18 0
12 19 0
13 14 0
13 15 0
13 16 0
13 17 0
13 18 0
13 19 0
14 15 0
14 16 0
14 17 0
14 18 0
14 19 0
15 16 0
15 17 0
15 18 0
15 19 0
16 17 0
16 18 0
16 19 0
17 18 0
17 19 0
18 19 0
20 21 0
20 22 0
20 23 0
20 24 0
20 25 0
20 26 0
20 27 0
20 28 0
20 29 0
20 30 0
20 31 0
20 32 0
20 33 0
20 34 0
20 35 0
20 36 0
20 37 0
21 22 0
21 23 0
21 24 0
21 25 0
21 26 0
21 27 0
21 28 0
21 29 0
21 30 0
21 31 0
21 32 0
21 33 0
21 34 0
21 35 0
21 36 0
21 37 0
22 23 0
22 24 0
22 25 0
22 26 0
22 27 0
22 28 0
22 29 0
22 30 0
22 31 0
22 32 0
22 33 0
22 34 0
22 35 0
22 36 0
22 37 0
23 24 0
23 25 0
23 26 0
23 27 0
23 28 0
23 29 0
23 30 0
23 31 0
23 32 0
23 33 0
23 34 0
23 35 0
23 36 0
23 37 0
24 25 0
24 26 0
24 27 0
24 28 0
24 29 0
24 30 0
24 31 0
24 32 0
24 33 0
24 34 0
24 35 0
24 36 0
24 37 0
25 26 0
25 27 0
25 28 0
25 29 0
25 30 0
25 31 0
25 32 0
25 33 0
25 34 0
25 35 0
25 36 0
25 37 0
26 27 0
26 28 0
26 29 0
26 30 0
26 31 0
26 32 0
26 33 0
26 34 0
26 35 0
26 36 0
26 37 0
27 28 0
27 29 0
27 30 0
27 31 0
27 32 0
27 33 0
27 34 0
27 35 0
27 36 0
27 37 0
28 29 0
28 30 0
28 31 0
28 32 0
28 33 0
28 34 0
28 35 0
28 36 0
28 37 0
29 30 0
29 31 0
29 32 0
29 33 0
29 34 0
29 35 0
29 36 0
29 37 0
30 31 0
30 32 0
30 33 0
30 34 0
30 35 0
30 36 0
30 37 0
31 32 0
31 33 0
31 34 0
31 35 0
31 36 0
31 37 0
32 33 0
32 34 0
32 35 0
32 36 0
32 37 0
33 34 0
33 35 0
33 36 0
33 37 0
34 35 0
34 36 0
34 37 0
35 36 0
35 37 0
36 37 0
38 39 0
38 40 0
38 41 0
38 42 0
38 43 0
38 44 0
38 45 0
38 46 0
38 47 0
38 48 0
38 49 0
38 50 0
38 51 0
38 52 0
38 53 0
38 54 0
39 40 0
39 41 0
39 42 0
39 43 0
39 44 0
39 45 0
39 46 0
39 47 0
39 48 0
39 49 0
39 50 0
39 51 0
39 52 0
39 53 0
39 54 0
40 41 0
40 42 0
40 43 0
40 44 0
40 45 0
40 46 0
40 47 0
40 48 0
40 49 0
40 50 0
40 51 0
40 52 0
40 53 0
40 54 0
41 42 0
41 43 0
41 44 0
41 45 0
41 46 0
41 47 0
41 48 0
41 49 0
41 50 0
41 51 0
41 52 0
41 53 0
41 54 0
42 43 0
42 44 0
42 45 0
42 46 0
42 47 0
42 48 0
42 49 0
42 50 0
42 51 0
42 52 0
42 53 0
42 54 0
43 44 0
43 45 0
43 46 0
43 47 0
43 48 0
43 49 0
43 50 0
43 51 0
43 52 0
43 53 0
43 54 0
44 45 0
44 46 0
44 47 0
44 48 0
44 49 0
44 50 0
44 51 0
44 52 0
44 53 0
44 54 0
45 46 0
45 47 0
45 48 0
45 49 0
45 50 0
45 51 0
45 52 0
45 53 0
45 54 0
46 47 0
46 48 0
46 49 0
46 50 0
46 51 0
46 52 0
46 53 0
46 54 0
47 48 0
47 49 0
47 50 0
47 51 0
47 52 0
47 53 0
47 54 0
48 49 0
48 50 0
48 51 0
48 52 0
48 53 0
48 54 0
49 50 0
49 51 0
49 52 0
49 53 0
49 54 0
50 51 0
50 52 0
50 53 0
50 54 0
51 52 0
51 53 0
51 54 0
52 53 0
52 54 0
53 54 0
55 56 0
55 57 0
55 58 0
55 59 0
55 60 0
55 61 0
55 62 0
55 63 0
55 64 0
55 65 0
55 66 0
55 67 0
55 68 0
55 69 0
55 70 0
56 57 0
56 58 0
56 59 0
56 60 0
56 61 0
56 62 0
56 63 0
56 64 0
56 65 0
56 66 0
56 67 0
56 68 0
56 69 0
56 70 0
57 58 0
57 59 0
57 60 0
57 61 0
57 62 0
57 63 0
57 64 0
57 65 0
57 66 0
57 67 0
57 68 0
57 69 0
57 70 0
58 59 0
58 60 0
58 61 0
58 62 0
58 63 0
58 64 0
58 65 0
58 66 0
58 67 0
58 68 0
58 69 0
58 70 0
59 60 0
59 61 0
59 62 0
59 63 0
59 64 0
59 65 0
59 66 0
59 67 0
59 68 0
59 69 0
59 70 0
60 61 0
60 62 0
60 63 0
60 64 0
60 65 0
60 66 0
60 67 0
60 68 0
60 69 0
60 70 0
61 62 0
61 63 0
61 64 0
61 65 0
61 66 0
61 67 0
61 68 0
61 69 0
61 70 0
62 63 0
62 64 0
62 65 0
62 66 0
62 67 0
62 68 0
62 69 0
62 70 0
63 64 0
63 65 0
63 66 0
63 67 0
63 68 0
63 69 0
63 70 0
64 65 0
64 66 0
64 67 0
64 68 0
64 69 0
64 70 0
65 66 0
65 67 0
65 68 0
65 69 0
65 70 0
66 67 0
66 68 0
66 69 0
66 70 0
67 68 0
67 69 0
67 70 0
68 69 0
68 70 0
69 70 0
71 72 0
71 73 0
71 74 0
71 75 0
71 76 0
71 77 0
71 78 0
71 79 0
71 80 0
71 81 0
71 82 0
71 83 0
71 84 0
71 85 0
72 73 0
72 74 0
72 75 0
72 76 0
72 77 0
72 78 0
72 79 0
72 80 0
72 81 0
72 82 0
72 83 0
72 84 0
72 85 0
73 74 0
73 75 0
73 76 0
73 77 0
73 78 0
73 79 0
73 80 0
73 81 0
73 82 0
73 83 0
73 84 0
73 85 0
74 75 0
74 76 0
74 77 0
74 78 0
74 79 0
74 80 0
74 81 0
74 82 0
74 83 0
74 84 0
74 85 0
75 76 0
75 77 0
75 78 0
75 79 0
75 80 0
75 81 0
75 82 0
75 83 0
75 84 0
75 85 0
76 77 0
76 78 0
76 79 0
76 80 0
76 81 0
76 82 0
76 83 0
76 84 0
76 85 0
77 78 0
77 79 0
77 80 0
77 81 0
77 82 0
77 83 0
77 84 0
77 85 0
78 79 0
78 80 0
78 81 0
78 82 0
78 83 0
78 84 0
78 85 0
79 80 0
79 81 0
79 82 0
79 83 0
79 84 0
79 85 0
80 81 0
80 82 0
80 83 0
80 84 0
80 85 0
81 82 0
81 83 0
81 84 0
81 85 0
82 83 0
82 84 0
82 85 0
83 84 0
83 85 0
84 85 0
86 87 0
86 88 0
86 89 0
86 90 0
86 91 0
86 92 0
86 93 0
86 94 0
86 95 0
86 96 0
86 97 0
86 98 0
86 99 0
87 88 0
87 89 0
87 90 0
87 91 0
87 92 0
87 93 0
87 94 0
87 95 0
87 96 0
87 97 0
87 98 0
87 99 0
88 89 0
88 90 0
88 91 0
88 92 0
88 93 0
88 94 0
88 95 0
88 96 0
88 97 0
88 98 0
88 99 0
89 90 0
89 91 0
89 92 0
89 93 0
89 94 0
89 95 0
89 96 0
89 97 0
89 98 0
89 99 0
90 91 0
90 92 0
90 93 0
90 94 0
90 95 0
90 96 0
90 97 0
90 98 0
90 99 0
91 92 0
91 93 0
91 94 0
91 95 0
91 96 0
91 97 0
91 98 0
91 99 0
92 93 0
92 94 0
92 95 0
92 96 0
92 97 0
92 98 0
92 99 0
93 94 0
93 95 0
93 96 0
93 97 0
93 98 0
93 99 0
94 95 0
94 96 0
94 97 0
94 98 0
94 99 0
95 96 0
95 97 0
95 98 0
95 99 0
96 97 0
96 98 0
96 99 0
97 98 0
97 99 0
98 99 0
100 101 0
100 102 0
100 103 0
100 104 0
100 105 0
100 106 0
100 107 0
100 108 0
100 109 0
100 110 0
100 111 0
100 112 0
101 102 0
101 103 0
101 104 0
101 105 0
101 106 0
101 107 0
101 108 0
101 109 0
101 110 0
101 111 0
101 112 0
102 103 0
102 104 0
102 105 0
102 106 0
102 107 0
102 108 0
102 109 0
102 110 0
102 111 0
102 112 0
103 104 0
103 105 0
103 106 0
103 107 0
103 108 0
103 109 0
103 110 0
103 111 0
103 112 0
104 105 0
104 106 0
104 107 0
104 108 0
104 109 0
104 110 0
104 111 0
104 112 0
105 106 0
105 107 0
105 108 0
105 109 0
105 110 0
105 111 0
105 112 0
106 107 0
106 108 0
106 109 0
106 110 0
106 111 0
106 112 0
107 108 0
107 109 0
107 110 0
107 111 0
107 112 0
108 109 0
108 110 0
108 111 0
108 112 0
109 110 0
109 111 0
109 112 0
110 111 0
110 112 0
111 112 0
113 114 0
113 115 0
113 116 0
113 117 0
113 118 0
113 119 0
113 120 0
113 121 0
113 122 0
113 123 0
113 124 0
114 115 0
114 116 0
114 117 0
114 118 0
114 119 0
114 120 0
114 121 0
114 122 0
114 123 0
114 124 0
115 116 0
115 117 0
115 118 0
115 119 0
115 120 0
115 121 0
115 122 0
115 123 0
115 124 0
116 117 0
116 118 0
116 119 0
116 120 0
116 121 0
116 122 0
116 123 0
116 124 0
117 118 0
117 119 0
117 120 0
117 121 0
117 122 0
117 123 0
117 124 0
118 119 0
118 120 0
118 121 0
118 122 0
118 123 0
118 124 0
119 120 0
119 121 0
119 122 0
119 123 0
119 124 0
120 121 0
120 122 0
120 123 0
120 124 0
121 122 0
121 123 0
121 124 0
122 123 0
122 124 0
123 124 0
125 126 0
125 127 0
125 128 0
125 129 0
125 130 0
125 131 0
125 132 0
125 133 0
125 134 0
125 135 0
126 127 0
126 128 0
126 129 0
126 130 0
126 131 0
126 132 0
126 133 0
126 134 0
126 135 0
127 128 0
127 129 0
127 130 0
127 131 0
127 132 0
127 133 0
127 134 0
127 135 0
128 129 0
128 130 0
128 131 0
128 132 0
128 133 0
128 134 0
128 135 0
129 130 0
129 131 0
129 132 0
129 133 0
129 134 0
129 135 0
130 131 0
130 132 0
130 133 0
130 134 0
130 135 0
131 132 0
131 133 0
131 134 0
131 135 0
132 133 0
132 134 0
132 135 0
133 134 0
133 135 0
134 135 0
136 137 0
136 138 0
136 139 0
136 140 0
136 141 0
136 142 0
136 143 0
136 144 0
136 145 0
137 138 0
137 139 0
137 140 0
137 141 0
137 142 0
137 143 0
137 144 0
137 145 0
138 139 0
138 140 0
138 141 0
138 142 0
138 143 0
138 144 0
138 145 0
139 140 0
139 141 0
139 142 0
139 143 0
139 144 0
139 145 0
140 141 0
140 142 0
140 143 0
140 144 0
140 145 0
141 142 0
141 143 0
141 144 0
141 145 0
142 143 0
142 144 0
142 145 0
143 144 0
143 145 0
144 145 0
146 147 0
146 148 0
146 149 0
146 150 0
146 151 0
146 152 0
146 153 0
146 154 0
147 148 0
147 149 0
147 150 0
147 151 0
147 152 0
147 153 0
147 154 0
148 149 0
148 150 0
148 151 0
148 152 0
148 153 0
148 154 0
149 150 0
149 151 0
149 152 0
149 153 0
149 154 0
150 151 0
150 152 0
150 153 0
150 154 0
151 152 0
151 153 0
151 154 0
152 153 0
152 154 0
153 154 0
155 156 0
155 157 0
155 158 0
155 159 0
155 160 0
155 161 0
155 162 0
156 157 0
156 158 0
156 159 0
156 160 0
156 161 0
156 162 0
157 158 0
157 159 0
157 160 0
157 161 0
157 162 0
158 159 0
158 160 0
158 161 0
158 162 0
159 160 0
159 161 0
159 162 0
160 161 0
160 162 0
161 162 0
163 164 0
163 165 0
163 166 0
163 167 0
163 168 0
163 169 0
164 165 0
164 166 0
164 167 0
164 168 0
164 169 0
165 166 0
165 167 0
165 168 0
165 169 0
166 167 0
166 168 0
166 169 0
167 168 0
167 169 0
168 169 0
170 171 0
170 172 0
170 173 0
170 174 0
170 175 0
171 172 0
171 173 0
171 174 0
171 175 0
172 173 0
172 174 0
172 175 0
173 174 0
173 175 0
174 175 0
176 177 0
176 178 0
176 179 0
176 180 0
177 178 0
177 179 0
177 180 0
178 179 0
178 180 0
179 180 0
181 182 0
181 183 0
181 184 0
182 183 0
182 184 0
183 184 0
185 186 0
185 187 0
186 187 0
188 189 0
-15 -32 -33 -48 -49 -63 -64 -77 -78 -90 -91 -102 -103 -113 -114 0
-16 -32 -34 -48 -49 -63 -64 -77 -78 -90 -91 -102 -103 -113 -114 0
-17 -32 -35 -48 -49 -63 -64 -77 -78 -90 -91 -102 -103 -113 -114 0
-18 -32 -36 -48 -49 -63 -64 -77 -78 -90 -91 -102 -103 -113 -114 0
-19 -32 -37 -48 -49 -63 -64 -77 -78 -90 -91 -102 -103 -113 -114 0
-16 -33 -34 -48 -50 -63 -64 -77 -78 -90 -91 -102 -103 -113 -114 0
-17 -33 -35 -48 -50 -63 -64 -77 -78 -90 -91 -102 -103 -113 -114 0
-18 -33 -36 -48 -50 -63 -64 -77 -78 -90 -91 -102 -103 -113 -114 0
-19 -33 -37 -48 -50 -63 -64 -77 -78 -90 -91 -102 -103 -113 -114 0
-17 -34 -35 -48 -51 -63 -64 -77 -78 -90 -91 -102 -103 -113 -114 0
-18 -34 -36 -48 -51 -63 -64 -77 -78 -90 -91 -102 -103 -113 -114 0
-19 -34 -37 -48 -51 -63 -64 -77 -78 -90 -91 -102 -103 -113 -114 0
-18 -35 -36 -48 -52 -63 -64 -77 -78 -90 -91 -102 -103 -113 -114 0
-19 -35 -37 -48 -52 -63 -64 -77 -78 -90 -91 -102 -103 -113 -114 0
-19 -36 -37 -48 -53 -63 -64 -77 -78 -90 -91 -102 -103 -113 -114 0
-16 -33 -34 -49 -50 -63 -65 -77 -78 -90 -91 -102 -103 -113 -114 0
-17 -33 -35 -49 -50 -63 -65 -77 -78 -90 -91 -102 -103 -113 -114 0
-18 -33 -36 -49 -50 -63 -65 -77 -78 -90 -91 -102 -103 -113 -114 0
-19 -33 -37 -49 -50 -63 -65 -77 -78 -90 -91 -102 -103 -113 -114 0
-17 -34 -35 -49 -51 -63 -65 -77 -78 -90 -91 -102 -103 -113 -114 0
-18 -34 -36 -49 -51 -63 -65 -77 -78 -90 -91 -102 -103 -113 -114 0
-19 -34 -37 -49 -51 -63 -65 -77 -78 -90 -91 -102 -103 -113 -114 0
-18 -35 -36 -49 -52 -63 -65 -77 -78 -90 -91 -102 -103 -113 -114 0
-19 -35 -37 -49 -52 -63 -65 -77 -78 -90 -91 -102 -103 -113 -114 0
-19 -36 -37 -49 -53 -63 -65 -77 -78 -90 -91 -102 -103 -113 -114 0
-17 -34 -35 -50 -51 -63 -66 -77 -78 -90 -91 -102 -103 -113 -114 0
-18 -34 -36 -50 -51 -63 -66 -77 -78 -90 -91 -102 -103 -113 -114 0
-19 -34 -37 -50 -51 -63 -66 -77 -78 -90 -91 -102 -103 -113 -114 0
-18 -35 -36 -50 -52 -63 -66 -77 -78 -90 -91 -102 -103 -113 -114 0
-19 -35 -37 -50 -52 -63 -66 -77 -78 -90 -91 -102 -103 -113 -114 0
-19 -36 -37 -50 -53 -63 -66 -77 -78 -90 -91 -102 -103 -113 -114 0
-18 -35 -36 -51 -52 -63 -67 -77 -78 -90 -91 -102 -103 -113 -114 0
-19 -35 -37 -51 -52 -63 -67 -77 -78 -90 -91 -102 -103 -113 -114 0
-19 -36 -37 -51 -53 -63 -67 -77 -78 -90 -91 -102 -103 -113 -114 0
-19 -36 -37 -52 -53 -63 -68 -77 -78 -90 -91 -102 -103 -113 -114 0
-16 -33 -34 -49 -50 -64 -65 -77 -79 -90 -91 -102 -103 -113 -114 0
-17 -33 -35 -49 -50 -64 -65 -77 -79 -90 -91 -102 -103 -113 -114 0
-18 -33 -36 -49 -50 -64 -65 -77 -79 -90 -91 -102 -103 -113 -114 0
-19 -33 -37 -49 -50 -64 -65 -77 -79 -90 -91 -102 -103 -113 -114 0
-17 -34 -35 -49 -51 -64 -65 -77 -79 -90 -91 -102 -103 -113 -114 0
-18 -34 -36 -49 -51 -64 -65 -77 -79 -90 -91 -102 -103 -113 -114 0
-19 -34 -37 -49 -51 -64 -65 -77 -79 -90 -91 -102 -103 -113 -114 0
-18 -35 -36 -49 -52 -64 -65 -77 -79 -90 -91 -102 -103 -113 -114 0
-19 -35 -37 -49 -52 -64 -65 -77 -79 -90 -91 -102 -103 -113 -114 0
-19 -36 -37 -49 -53 -64 -65 -77 -79 -90 -91 -102 -103 -113 -114 0
-17 -34 -35 -50 -51 -64 -66 -77 -79 -90 -91 -102 -103 -113 -114 0
-18 -34 -36 -50 -51 -64 -66 -77 -79 -90 -91 -102 -103 -113 -114 0
-19 -34 -37 -50 -51 -64 -66 -77 -79 -90 -91 -102 -103 -113 -114 0
-18 -35 -36 -50 -52 -64 -66 -77 -79 -90 -91 -102 -103 -113 -114 0
-19 -35 -37 -50 -52 -64 -66 -77 -79 -90 -91 -102 -103 -113 -114 0
-19 -36 -37 -50 -53 -64 -66 -77 -79 -90 -91 -102 -103 -113 -114 0
-18 -35 -36 -51 -52 -64 -67 -77 -79 -90 -91 -102 -103 -113 -114 0
-19 -35 -37 -51 -52 -64 -67 -77 -79 -90 -91 -102 -103 -113 -114 0
-19 -36 -37 -51 -53 -64 -67 -77 -79 -90 -91 -102 -103 -113 -114 0
-19 -36 -37 -52 -53 -64 -68 -77 -79 -90 -91 -102 -103 -113 -114 0
-17 -34 -35 -50 -51 -65 -66 -77 -80 -90 -91 -102 -103 -113 -114 0
-18 -34 -36 -50 -51 -65 -66 -77 -80 -90 -91 -102 -103 -113 -114 0
-19 -34 -37 -50 -51 -65 -66 -77 -80 -90 -91 -102 -103 -113 -114 0
-18 -35 -36 -50 -52 -65 -66 -77 -80 -90 -91 -102 -103 -113 -114 0
-19 -35 -37 -50 -52 -65 -66 -77 -80 -90 -91 -102 -103 -113 -114 0
-19 -36 -37 -50 -53 -65 -66 -77 -80 -90 -91 -102 -103 -113 -114 0
-18 -35 -36 -51 -52 -65 -67 -77 -80 -90 -91 -102 -103 -113 -114 0
-19 -35 -37 -51 -52 -65 -67 -77 -80 -90 -91 -102 -103 -113 -114 0
-19 -36 -37 -51 -53 -65 -67 -77 -80 -90 -91 -102 -103 -113 -114 0
-19 -36 -37 -52 -53 -65 -68 -77 -80 -90 -91 -102 -103 -113 -114 0
-18 -35 -36 -51 -52 -66 -67 -77 -81 -90 -91 -102 -103 -113 -114 0
-19 -35 -37 -51 -52 -66 -67 -77 -81 -90 -91 -102 -103 -113 -114 0
-19 -36 -37 -51 -53 -66 -67 -77 -81 -90 -91 -102 -103 -113 -114 0
-19 -36 -37 -52 -53 -66 -68 -77 -81 -90 -91 -102 -103 -113 -114 0
-19 -36 -37 -52 -53 -67 -68 -77 -82 -90 -91 -102 -103 -113 -114 0
-16 -33 -34 -49 -50 -64 -65 -78 -79 -90 -92 -102 -103 -113 -114 0
-17 -33 -35 -49 -50 -64 -65 -78 -79 -90 -92 -102 -103 -113 -114 0
-18 -33 -36 -49 -50 -64 -65 -78 -79 -90 -92 -102 -103 -113 -114 0
-19 -33 -37 -49 -50 -64 -65 -78 -79 -90 -92 -102 -103 -113 -114 0
-17 -34 -35 -49 -51 -64 -65 -78 -79 -90 -92 -102 -103 -113 -114 0
-18 -34 -36 -49 -51 -64 -65 -78 -79 -90 -92 -102 -103 -113 -114 0
-19 -34 -37 -49 -51 -64 -65 -78 -79 -90 -92 -102 -103 -113 -114 0
-18 -35 -36 -49 -52 -64 -65 -78 -79 -90 -92 -102 -103 -113 -114 0
-19 -35 -37 -49 -52 -64 -65 -78 -79 -90 -92 -102 -103 -113 -114 0
-19 -36 -37 -49 -53 -64 -65 -78 -79 -90 -92 -102 -103 -113 -114 0
-17 -34 -35 -50 -51 -64 -66 -78 -79 -90 -92 -102 -103 -113 -114 0
-18 -34 -36 -50 -51 -64 -66 -78 -79 -90 -92 -102 -103 -113 -114 0
-19 -34 -37 -50 -51 -64 -66 -78 -79 -90 -92 -102 -103 -113 -114 0
-18 -35 -36 -50 -52 -64 -66 -78 -79 -90 -92 -102 -103 -113 -114 0
-19 -35 -37 -50 -52 -64 -66 -78 -79 -90 -92 -102 -103 -113 -114 0
-19 -36 -37 -50 -53 -64 -66 -78 -79 -90 -92 -102 -103 -113 -114 0
-18 -35 -36 -51 -52 -64 -67 -78 -79 -90 -92 -102 -103 -113 -114 0
-19 -35 -37 -51 -52 -64 -67 -78 -79 -90 -92 -102 -103 -113 -114 0
-19 -36 -37 -51 -53 -64 -67 -78 -79 -90 -92 -102 -103 -113 -114 0
-19 -36 -37 -52 -53 -64 -68 -78 -79 -90 -92 -102 -103 -113 -114 0
-17 -34 -35 -50 -51 -65 -66 -78 -80 -90 -92 -102 -103 -113 -114 0
-18 -34 -36 -50 -51 -65 -66 -78 -80 -90 -92 -102 -103 -113 -114 0
-19 -34 -37 -50 -51 -65 -66 -78 -80 -90 -92 -102 -103 -113 -114 0
-18 -35 -36 -50 -52 -65 -66 -78 -80 -90 -92 -102 -103 -113 -114 0
-19 -35 -37 -50 -52 -65 -66 -78 -80 -90 -92 -102 -103 -113 -114 0
-19 -36 -37 -50 -53 -65 -66 -78 -80 -90 -92 -102 -103 -113 -114 0
-18 -35 -36 -51 -52 -65 -67 -78 -80 -90 -92 -102 -103 -113 -114 0
-19 -35 -37 -51 -52 -65 -67 -78 -80 -90 -92 -102 -103 -113 -114 0
-19 -36 -37 -51 -53 -65 -67 -78 -80 -90 -92 -102 -103 -113 -114 0
-19 -36 -37 -52 -53 -65 -68 -78 -80 -90 -92 -102 -103 -113 -114 0
-18 -35 -36 -51 -52 -66 -67 -78 -81 -90 -92 -102 -103 -113 -114 0
-19 -35 -37 -51 -52 -66 -67 -78 -81 -90 -92 -102 -103 -113 -114 0
-19 -36 -37 -51 -53 -66 -67 -78 -81 -90 -92 -102 -103 -113 -114 0
-19 -36 -37 -52 -53 -66 -68 -78 -81 -90 -92 -102 -103 -113 -114 0
-19 -36 -37 -52 -53 -67 -68 -78 -82 -90 -92 -102 -103 -113 -114 0
-17 -34 -35 -50 -51 -65 -66 -79 -80 -90 -93 -102 -103 -113 -114 0
-18 -34 -36 -50 -51 -65 -66 -79 -80 -90 -93 -102 -103 -113 -114 0
-19 -34 -37 -50 -51 -65 -66 -79 -80 -90 -93 -102 -103 -113 -114 0
-18 -35 -36 -50 -52 -65 -66 -79 -80 -90 -93 -102 -103 -113 -114 0
-19 -35 -37 -50 -52 -65 -66 -79 -80 -90 -93 -102 -103 -113 -114 0
-19 -36 -37 -50 -53 -65 -66 -79 -80 -90 -93 -102 -103 -113 -114 0
-18 -35 -36 -51 -52 -65 -67 -79 -80 -90 -93 -102 -103 -113 -114 0
-19 -35 -37 -51 -52 -65 -67 -79 -80 -90 -93 -102 -103 -113 -114 0
-19 -36 -37 -51 -53 -65 -67 -79 -80 -90 -93 -102 -103 -113 -114 0
-19 -36 -37 -52 -53 -65 -68 -79 -80 -90 -93 -102 -103 -113 -114 0
-18 -35 -36 -51 -52 -66 -67 -79 -81 -90 -93 -102 -103 -113 -114 0
-19 -35 -37 -51 -52 -66 -67 -79 -81 -90 -93 -102 -103 -113 -114 0
-19 -36 -37 -51 -53 -66 -67 -79 -81 -90 -93 -102 -103 -113 -114 0
-19 -36 -37 -52 -53 -66 -68 -79 -81 -90 -93 -102 -103 -113 -114 0
-19 -36 -37 -52 -53 -67 -68 -79 -82 -90 -93 -102 -103 -113 -114 0
-18 -35 -36 -51 -52 -66 -67 -80 -81 -90 -94 -102 -103 -113 -114 0
-19 -35 -37 -51 -52 -66 -67 -80 -81 -90 -94 -102 -103 -113 -114 0
-19 -36 -37 -51 -53 -66 -67 -80 -81 -90 -94 -102 -103 -113 -114 0
-19 -36 -37 -52 -53 -66 -68 -80 -81 -90 -94 -102 -103 -113 -114 0
-19 -36 -37 -52 -53 -67 -68 -80 -82 -90 -94 -102 -103 -113 -114 0
-19 -36 -37 -52 -53 -67 -68 -81 -82 -90 -95 -102 -103 -113 -114 0
-16 -33 -34 -49 -50 -64 -65 -78 -79 -91 -92 -102 -104 -113 -114 0
-17 -33 -35 -49 -50 -64 -65 -78 -79 -91 -92 -102 -104 -113 -114 0
-18 -33 -36 -49 -50 -64 -65 -78 -79 -91 -92 -102 -104 -113 -114 0
-19 -33 -37 -49 -50 -64 -65 -78 -79 -91 -92 -102 -104 -113 -114 0
-17 -34 -35 -49 -51 -64 -65 -78 -79 -91 -92 -102 -104 -113 -114 0
-18 -34 -36 -49 -51 -64 -65 -78 -79 -91 -92 -102 -104 -113 -114 0
-19 -34 -37 -49 -51 -64 -65 -78 -79 -91 -92 -102 -104 -113 -114 0
-18 -35 -36 -49 -52 -64 -65 -78 -79 -91 -92 -102 -104 -113 -114 0
-19 -35 -37 -49 -52 -64 -65 -78 -79 -91 -92 -102 -104 -113 -114 0
-19 -36 -37 -49 -53 -64 -65 -78 -79 -91 -92 -102 -104 -113 -114 0
-17 -34 -35 -50 -51 -64 -66 -78 -79 -91 -92 -102 -104 -113 -114 0
-18 -34 -36 -50 -51 -64 -66 -78 -79 -91 -92 -102 -104 -113 -114 0
-19 -34 -37 -50 -51 -64 -66 -78 -79 -91 -92 -102 -104 -113 -114 0
-18 -35 -36 -50 -52 -64 -66 -78 -79 -91 -92 -102 -104 -113 -114 0
-19 -35 -37 -50 -52 -64 -66 -78 -79 -91 -92 -102 -104 -113 -114 0
-19 -36 -37 -50 -53 -64 -66 -78 -79 -91 -92 -102 -104 -113 -114 0
-18 -35 -36 -51 -52 -64 -67 -78 -79 -91 -92 -102 -104 -113 -114 0
-19 -35 -37 -51 -52 -64 -67 -78 -79 -91 -92 -102 -104 -113 -114 0
-19 -36 -37 -51 -53 -64 -67 -78 -79 -91 -92 -102 -104 -113 -114 0
-19 -36 -37 -52 -53 -64 -68 -78 -79 -91 -92 -102 -104 -113 -114 0
-17 -34 -35 -50 -51 -65 -66 -78 -80 -91 -92 -102 -104 -113 -114 0
-18 -34 -36 -50 -51 -65 -66 -78 -80 -91 -92 -102 -104 -113 -114 0
-19 -34 -37 -50 -51 -65 -66 -78 -80 -91 -92 -102 -104 -113 -114 0
-18 -35 -36 -50 -52 -65 -66 -78 -80 -91 -92 -102 -104 -113 -114 0
-19 -35 -37 -50 -52 -65 -66 -78 -80 -91 -92 -102 -104 -113 -114 0
-19 -36 -37 -50 -53 -65 -66 -78 -80 -91 -92 -102 -104 -113 -114 0
-18 -35 -36 -51 -52 -65 -67 -78 -80 -91 -92 -102 -104 -113 -114 0
-19 -35 -37 -51 -52 -65 -67 -78 -80 -91 -92 -102 -104 -113 -114 0
-19 -36 -37 -51 -53 -65 -67 -78 -80 -91 -92 -102 -104 -113 -114 0
-19 -36 -37 -52 -53 -65 -68 -78 -80 -91 -92 -102 -104 -113 -114 0
-18 -35 -36 -51 -52 -66 -67 -78 -81 -91 -92 -102 -104 -113 -114 0
-19 -35 -37 -51 -52 -66 -67 -78 -81 -91 -92 -102 -104 -113 -114 0
-19 -36 -37 -51 -53 -66 -67 -78 -81 -91 -92 -102 -104 -113 -114 0
-19 -36 -37 -52 -53 -66 -68 -78 -81 -91 -92 -102 -104 -113 -114 0
-19 -36 -37 -52 -53 -67 -68 -78 -82 -91 -92 -102 -104 -113 -114 0
-17 -34 -35 -50 -51 -65 -66 -79 -80 -91 -93 -102 -104 -113 -114 0
-18 -34 -36 -50 -51 -65 -66 -79 -80 -91 -93 -102 -104 -113 -114 0
-19 -34 -37 -50 -51 -65 -66 -79 -80 -91 -93 -102 -104 -113 -114 0
-18 -35 -36 -50 -52 -65 -66 -79 -80 -91 -93 -102 -104 -113 -114 0
-19 -35 -37 -50 -52 -65 -66 -79 -80 -91 -93 -102 -104 -113 -114 0
-19 -36 -37 -50 -53 -65 -66 -79 -80 -91 -93 -102 -104 -113 -114 0
-18 -35 -36 -51 -52 -65 -67 -79 -80 -91 -93 -102 -104 -113 -114 0
-19 -35 -37 -51 -52 -65 -67 -79 -80 -91 -93 -102 -104 -113 -114 0
-19 -36 -37 -51 -53 -65 -67 -79 -80 -91 -93 -102 -104 -113 -114 0
-19 -36 -37 -52 -53 -65 -68 -79 -80 -91 -93 -102 -104 -113 -114 0
-18 -35 -36 -51 -52 -66 -67 -79 -81 -91 -93 -102 -104 -113 -114 0
-19 -35 -37 -51 -52 -66 -67 -79 -81 -91 -93 -102 -104 -113 -114 0
-19 -36 -37 -51 -53 -66 -67 -79 -81 -91 -93 -102 -104 -113 -114 0
-19 -36 -37 -52 -53 -66 -68 -79 -81 -91 -93 -102 -104 -113 -114 0
-19 -36 -37 -52 -53 -67 -68 -79 -82 -91 -93 -102 -104 -113 -114 0
-18 -35 -36 -51 -52 -66 -67 -80 -81 -91 -94 -102 -104 -113 -114 0
-19 -35 -37 -51 -52 -66 -67 -80 -81 -91 -94 -102 -104 -113 -114 0
-19 -36 -37 -51 -53 -66 -67 -80 -81 -91 -94 -102 -104 -113 -114 0
-19 -36 -37 -52 -53 -66 -68 -80 -81 -91 -94 -102 -104 -113 -114 0
-19 -36 -37 -52 -53 -67 -68 -80 -82 -91 -94 -102 -104 -113 -114 0
-19 -36 -37 -52 -53 -67 -68 -81 -82 -91 -95 -102 -104 -113 -114 0
-17 -34 -35 -50 -51 -65 -66 -79 -80 -92 -93 -102 -105 -113 -114 0
-18 -34 -36 -50 -51 -65 -66 -79 -80 -92 -93 -102 -105 -113 -114 0
-19 -34 -37 -50 -51 -65 -66 -79 -80 -92 -93 -102 -105 -113 -114 0
-18 -35 -36 -50 -52 -65 -66 -79 -80 -92 -93 -102 -105 -113 -114 0
-19 -35 -37 -50 -52 -65 -66 -79 -80 -92 -93 -102 -105 -113 -114 0
-19 -36 -37 -50 -53 -65 -66 -79 -80 -92 -93 -102 -105 -113 -114 0
-18 -35 -36 -51 -52 -65 -67 -79 -80 -92 -93 -102 -105 -113 -114 0
-19 -35 -37 -51 -52 -65 -67 -79 -80 -92 -93 -102 -105 -113 -114 0
-19 -36 -37 -51 -53 -65 -67 -79 -80 -92 -93 -102 -105 -113 -114 0
-19 -36 -37 -52 -53 -65 -68 -79 -80 -92 -93 -102 -105 -113 -114 0
-18 -35 -36 -51 -52 -66 -67 -79 -81 -92 -93 -102 -105 -113 -114 0
-19 -35 -37 -51 -52 -66 -67 -79 -81 -92 -93 -102 -105 -113 -114 0
-19 -36 -37 -51 -53 -66 -67 -79 -81 -92 -93 -102 -105 -113 -114 0
-19 -36 -37 -52 -53 -66 -68 -79 -81 -92 -93 -102 -105 -113 -114 0
-19 -36 -37 -52 -53 -67 -68 -79 -82 -92 -93 -102 -105 -113 -114 0
-18 -35 -36 -51 -52 -66 -67 -80 -81 -92 -94 -102 -105 -113 -114 0
-19 -35 -37 -51 -52 -66 -67 -80 -81 -92 -94 -102 -105 -113 -114 0
-19 -36 -37 -51 -53 -66 -67 -80 -81 -92 -94 -102 -105 -113 -114 0
-19 -36 -37 -52 -53 -66 -68 -80 -81 -92 -94 -102 -105 -113 -114 0
-19 -36 -37 -52 -53 -67 -68 -80 -82 -92 -94 -102 -105 -113 -114 0
-19 -36 -37 -52 -53 -67 -68 -81 -82 -92 -95 -102 -105 -113 -114 0
-18 -35 -36 -51 -52 -66 -67 -80 -81 -93 -94 -102 -106 -113 -114 0
-19 -35 -37 -51 -52 -66 -67 -80 -81 -93 -94 -102 -106 -113 -114 0
-19 -36 -37 -51 -53 -66 -67 -80 -81 -93 -94 -102 -106 -113 -114 0
-19 -36 -37 -52 -53 -66 -68 -80 -81 -93 -94 -102 -106 -113 -114 0
-19 -36 -37 -52 -53 -67 -68 -80 -82 -93 -94 -102 -106 -113 -114 0
-19 -36 -37 -52 -53 -67 -68 -81 -82 -93 -95 -102 -106 -113 -114 0
-19 -36 -37 -52 -53 -67 -68 -81 -82 -94 -95 -102 -107 -113 -114 0
-16 -33 -34 -49 -50 -64 -65 -78 -79 -91 -92 -103 -104 -113 -115 0
-17 -33 -35 -49 -50 -64 -65 -78 -79 -91 -92 -103 -104 -113 -115 0
-18 -33 -36 -49 -50 -64 -65 -78 -79 -91 -92 -103 -104 -113 -115 0
-19 -33 -37 -49 -50 -64 -65 -78 -79 -91 -92 -103 -104 -113 -115 0
-17 -34 -35 -49 -51 -64 -65 -78 -79 -91 -92 -103 -104 -113 -115 0
-18 -34 -36 -49 -51 -64 -65 -78 -79 -91 -92 -103 -104 -113 -115 0
-19 -34 -37 -49 -51 -64 -65 -78 -79 -91 -92 -103 -104 -113 -115 0
-18 -35 -36 -49 -52 -64 -65 -78 -79 -91 -92 -103 -104 -113 -115 0
-19 -35 -37 -49 -52 -64 -65 -78 -79 -91 -92 -103 -104 -113 -115 0
-19 -36 -37 -49 -53 -64 -65 -78 -79 -91 -92 -103 -104 -113 -115 0
-17 -34 -35 -50 -51 -64 -66 -78 -79 -91 -92 -103 -104 -113 -115 0
-18 -34 -36 -50 -51 -64 -66 -78 -79 -91 -92 -103 -104 -113 -115 0
-19 -34 -37 -50 -51 -64 -66 -78 -79 -91 -92 -103 -104 -113 -115 0
-18 -35 -36 -50 -52 -64 -66 -78 -79 -91 -92 -103 -104 -113 -115 0
-19 -35 -37 -50 -52 -64 -66 -78 -79 -91 -92 -103 -104 -113 -115 0
-19 -36 -37 -50 -53 -64 -66 -78 -79 -91 -92 -103 -104 -113 -115 0
-18 -35 -36 -51 -52 -64 -67 -78 -79 -91 -92 -103 -104 -113 -115 0
-19 -35 -37 -51 -52 -64 -67 -78 -79 -91 -92 -103 -104 -113 -115 0
-19 -36 -37 -51 -53 -64 -67 -78 -79 -91 -92 -103 -104 -113 -115 0
-19 -36 -37 -52 -53 -64 -68 -78 -79 -91 -92 -103 -104 -113 -115 0
-17 -34 -35 -50 -51 -65 -66 -78 -80 -91 -92 -103 -104 -113 -115 0
-18 -34 -36 -50 -51 -65 -66 -78 -80 -91 -92 -103 -104 -113 -115 0
-19 -34 -37 -50 -51 -65 -66 -78 -80 -91 -92 -103 -104 -113 -115 0
-18 -35 -36 -50 -52 -65 -66 -78 -80 -91 -92 -103 -104 -113 -115 0
-19 -35 -37 -50 -52 -65 -66 -78 -80 -91 -92 -103 -104 -113 -115 0
-19 -36 -37 -50 -53 -65 -66 -78 -80 -91 -92 -103 -104 -113 -115 0
-18 -35 -36 -51 -52 -65 -67 -78 -80 -91 -92 -103 -104 -113 -115 0
-19 -35 -37 -51 -52 -65 -67 -78 -80 -91 -92 -103 -104 -113 -115 0
-19 -36 -37 -51 -53 -65 -67 -78 -80 -91 -92 -103 -104 -113 -115 0
-19 -36 -37 -52 -53 -65 -68 -78 -80 -91 -92 -103 -104 -113 -115 0
-18 -35 -36 -51 -52 -66 -67 -78 -81 -91 -92 -103 -104 -113 -115 0
-19 -35 -37 -51 -52 -66 -67 -78 -81 -91 -92 -103 -104 -113 -115 0
-19 -36 -37 -51 -53 -66 -67 -78 -81 -91 -92 -103 -104 -113 -115 0
-19 -36 -37 -52 -53 -66 -68 -78 -81 -91 -92 -103 -104 -113 -115 0
-19 -36 -37 -52 -53 -67 -68 -78 -82 -91 -92 -103 -104 -113 -115 0
-17 -34 -35 -50 -51 -65 -66 -79 -80 -91 -93 -103 -104 -113 -115 0
-18 -34 -36 -50 -51 -65 -66 -79 -80 -91 -93 -103 -104 -113 -115 0
-19 -34 -37 -50 -51 -65 -66 -79 -80 -91 -93 -103 -104 -113 -115 0
-18 -35 -36 -50 -52 -65 -66 -79 -80 -91 -93 -103 -104 -113 -115 0
-19 -35 -37 -50 -52 -65 -66 -79 -80 -91 -93 -103 -104 -113 -115 0
-19 -36 -37 -50 -53 -65 -66 -79 -80 -91 -93 -103 -104 -113 -115 0
-18 -35 -36 -51 -52 -65 -67 -79 -80 -91 -93 -103 -104 -113 -115 0
-19 -35 -37 -51 -52 -65 -67 -79 -80 -91 -93 -103 -104 -113 -115 0
-19 -36 -37 -51 -53 -65 -67 -79 -80 -91 -93 -103 -104 -113 -115 0
-19 -36 -37 -52 -53 -65 -68 -79 -80 -91 -93 -103 -104 -113 -115 0
-18 -35 -36 -51 -52 -66 -67 -79 -81 -91 -93 -103 -104 -113 -115 0
-19 -35 -37 -51 -52 -66 -67 -79 -81 -91 -93 -103 -104 -113 -115 0
-19 -36 -37 -51 -53 -66 -67 -79 -81 -91 -93 -103 -104 -113 -115 0
-19 -36 -37 -52 -53 -66 -68 -79 -81 -91 -93 -103 -104 -113 -115 0
-19 -36 -37 -52 -53 -67 -68 -79 -82 -91 -93 -103 -104 -113 -115 0
-18 -35 -36 -51 -52 -66 -67 -80 -81 -91 -94 -103 -104 -113 -115 0
-19 -35 -37 -51 -52 -66 -67 -80 -81 -91 -94 -103 -104 -113 -115 0
-19 -36 -37 -51 -53 -66 -67 -80 -81 -91 -94 -103 -104 -113 -115 0
-19 -36 -37 -52 -53 -66 -68 -80 -81 -91 -94 -103 -104 -113 -115 0
-19 -36 -37 -52 -53 -67 -68 -80 -82 -91 -94 -103 -104 -113 -115 0
-19 -36 -37 -52 -53 -67 -68 -81 -82 -91 -95 -103 -104 -113 -115 0
-17 -34 -35 -50 -51 -65 -66 -79 -80 -92 -93 -103 -105 -113 -115 0
-18 -34 -36 -50 -51 -65 -66 -79 -80 -92 -93 -103 -105 -113 -115 0
-19 -34 -37 -50 -51 -65 -66 -79 -80 -92 -93 -103 -105 -113 -115 0
-18 -35 -36 -50 -52 -65 -66 -79 -80 -92 -93 -103 -105 -113 -115 0
-19 -35 -37 -50 -52 -65 -66 -79 -80 -92 -93 -103 -105 -113 -115 0
-19 -36 -37 -50 -53 -65 -66 -79 -80 -92 -93 -103 -105 -113 -115 0
-18 -35 -36 -51 -52 -65 -67 -79 -80 -92 -93 -103 -105 -113 -115 0
-19 -35 -37 -51 -52 -65 -67 -79 -80 -92 -93 -103 -105 -113 -115 0
-19 -36 -37 -51 -53 -65 -67 -79 -80 -92 -93 -103 -105 -113 -115 0
-19 -36 -37 -52 -53 -65 -68 -79 -80 -92 -93 -103 -105 -113 -115 0
-18 -35 -36 -51 -52 -66 -67 -79 -81 -92 -93 -103 -105 -113 -115 0
-19 -35 -37 -51 -52 -66 -67 -79 -81 -92 -93 -103 -105 -113 -115 0
-19 -36 -37 -51 -53 -66 -67 -79 -81 -92 -93 -103 -105 -113 -115 0
-19 -36 -37 -52 -53 -66 -68 -79 -81 -92 -93 -103 -105 -113 -115 0
-19 -36 -37 -52 -53 -67 -68 -79 -82 -92 -93 -103 -105 -113 -115 0
-18 -35 -36 -51 -52 -66 -67 -80 -81 -92 -94 -103 -105 -113 -115 0
-19 -35 -37 -51 -52 -66 -67 -80 -81 -92 -94 -103 -105 -113 -115 0
-19 -36 -37 -51 -53 -66 -67 -80 -81 -92 -94 -103 -105 -113 -115 0
-19 -36 -37 -52 -53 -66 -68 -80 -81 -92 -94 -103 -105 -113 -115 0
-19 -36 -37 -52 -53 -67 -68 -80 -82 -92 -94 -103 -105 -113 -115 0
-19 -36 -37 -52 -53 -67 -68 -81 -82 -92 -95 -103 -105 -113 -115 0
-18 -35 -36 -51 -52 -66 -67 -80 -81 -93 -94 -103 -106 -113 -115 0
-19 -35 -37 -51 -52 -66 -67 -80 -81 -93 -94 -103 -106 -113 -115 0
-19 -36 -37 -51 -53 -66 -67 -80 -81 -93 -94 -103 -106 -113 -115 0
-19 -36 -37 -52 -53 -66 -68 -80 -81 -93 -94 -103 -106 -113 -115 0
-19 -36 -37 -52 -53 -67 -68 -80 -82 -93 -94 -103 -106 -113 -115 0
-19 -36 -37 -52 -53 -67 -68 -81 -82 -93 -95 -103 -106 -113 -115 0
-19 -36 -37 -52 -53 -67 -68 -81 -82 -94 -95 -103 -107 -113 -115 0
-17 -34 -35 -50 -51 -65 -66 -79 -80 -92 -93 -104 -105 -113 -116 0
-18 -34 -36 -50 -51 -65 -66 -79 -80 -92 -93 -104 -105 -113 -116 0
-19 -34 -37 -50 -51 -65 -66 -79 -80 -92 -93 -104 -105 -113 -116 0
-18 -35 -36 -50 -52 -65 -66 -79 -80 -92 -93 -104 -105 -113 -116 0
-19 -35 -37 -50 -52 -65 -66 -79 -80 -92 -93 -104 -105 -113 -116 0
-19 -36 -37 -50 -53 -65 -66 -79 -80 -92 -93 -104 -105 -113 -116 0
-18 -35 -36 -51 -52 -65 -67 -79 -80 -92 -93 -104 -105 -113 -116 0
-19 -35 -37 -51 -52 -65 -67 -79 -80 -92 -93 -104 -105 -113 -116 0
-19 -36 -37 -51 -53 -65 -67 -79 -80 -92 -93 -104 -105 -113 -116 0
-19 -36 -37 -52 -53 -65 -68 -79 -80 -92 -93 -104 -105 -113 -116 0
-18 -35 -36 -51 -52 -66 -67 -79 -81 -92 -93 -104 -105 -113 -116 0
-19 -35 -37 -51 -52 -66 -67 -79 -81 -92 -93 -104 -105 -113 -116 0
-19 -36 -37 -51 -53 -66 -67 -79 -81 -92 -93 -104 -105 -113 -116 0
-19 -36 -37 -52 -53 -66 -68 -79 -81 -92 -93 -104 -105 -113 -116 0
-19 -36 -37 -52 -53 -67 -68 -79 -82 -92 -93 -104 -105 -113 -116 0
-18 -35 -36 -51 -52 -66 -67 -80 -81 -92 -94 -104 -105 -113 -116 0
-19 -35 -37 -51 -52 -66 -67 -80 -81 -92 -94 -104 -105 -113 -116 0
-19 -36 -37 -51 -53 -66 -67 -80 -81 -92 -94 -104 -105 -113 -116 0
-19 -36 -37 -52 -53 -66 -68 -80 -81 -92 -94 -104 -105 -113 -116 0
-19 -36 -37 -52 -53 -67 -68 -80 -82 -92 -94 -104 -105 -113 -116 0
-19 -36 -37 -52 -53 -67 -68 -81 -82 -92 -95 -104 -105 -113 -116 0
-18 -35 -36 -51 -52 -66 -67 -80 -81 -93 -94 -104 -106 -113 -116 0
-19 -35 -37 -51 -52 -66 -67 -80 -81 -93 -94 -104 -106 -113 -116 0
-19 -36 -37 -51 -53 -66 -67 -80 -81 -93 -94 -104 -106 -113 -116 0
-19 -36 -37 -52 -53 -66 -68 -80 -81 -93 -94 -104 -106 -113 -116 0
-19 -36 -37 -52 -53 -67 -68 -80 -82 -93 -94 -104 -106 -113 -116 0
-19 -36 -37 -52 -53 -67 -68 -81 -82 -93 -95 -104 -106 -113 -116 0
-19 -36 -37 -52 -53 -67 -68 -81 -82 -94 -95 -104 -107 -113 -116 0
-18 -35 -36 -51 -52 -66 -67 -80 -81 -93 -94 -105 -106 -113 -117 0
-19 -35 -37 -51 -52 -66 -67 -80 -81 -93 -94 -105 -106 -113 -117 0
-19 -36 -37 -51 -53 -66 -67 -80 -81 -93 -94 -105 -106 -113 -117 0
-19 -36 -37 -52 -53 -66 -68 -80 -81 -93 -94 -105 -106 -113 -117 0
-19 -36 -37 -52 -53 -67 -68 -80 -82 -93 -94 -105 -106 -113 -117 0
-19 -36 -37 -52 -53 -67 -68 -81 -82 -93 -95 -105 -106 -113 -117 0
-19 -36 -37 -52 -53 -67 -68 -81 -82 -94 -95 -105 -107 -113 -117 0
-19 -36 -37 -52 -53 -67 -68 -81 -82 -94 -95 -106 -107 -113 -118 0
-16 -33 -34 -49 -50 -64 -65 -78 -79 -91 -92 -103 -104 -114 -115 0
-17 -33 -35 -49 -50 -64 -65 -78 -79 -91 -92 -103 -104 -114 -115 0
-18 -33 -36 -49 -50 -64 -65 -78 -79 -91 -92 -103 -104 -114 -115 0
-19 -33 -37 -49 -50 -64 -65 -78 -79 -91 -92 -103 -104 -114 -115 0
-17 -34 -35 -49 -51 -64 -65 -78 -79 -91 -92 -103 -104 -114 -115 0
-18 -34 -36 -49 -51 -64 -65 -78 -79 -91 -92 -103 -104 -114 -115 0
-19 -34 -37 -49 -51 -64 -65 -78 -79 -91 -92 -103 -104 -114 -115 0
-18 -35 -36 -49 -52 -64 -65 -78 -79 -91 -92 -103 -104 -114 -115 0
-19 -35 -37 -49 -52 -64 -65 -78 -79 -91 -92 -103 -104 -114 -115 0
-19 -36 -37 -49 -53 -64 -65 -78 -79 -91 -92 -103 -104 -114 -115 0
-17 -34 -35 -50 -51 -64 -66 -78 -79 -91 -92 -103 -104 -114 -115 0
-18 -34 -36 -50 -51 -64 -66 -78 -79 -91 -92 -103 -104 -114 -115 0
-19 -34 -37 -50 -51 -64 -66 -78 -79 -91 -92 -103 -104 -114 -115 0
-18 -35 -36 -50 -52 -64 -66 -78 -79 -91 -92 -103 -104 -114 -115 0
-19 -35 -37 -50 -52 -64 -66 -78 -79 -91 -92 -103 -104 -114 -115 0
-19 -36 -37 -50 -53 -64 -66 -78 -79 -91 -92 -103 -104 -114 -115 0
-18 -35 -36 -51 -52 -64 -67 -78 -79 -91 -92 -103 -104 -114 -115 0
-19 -35 -37 -51 -52 -64 -67 -78 -79 -91 -92 -103 -104 -114 -115 0
-19 -36 -37 -51 -53 -64 -67 -78 -79 -91 -92 -103 -104 -114 -115 0
-19 -36 -37 -52 -53 -64 -68 -78 -79 -91 -92 -103 -104 -114 -115 0
-17 -34 -35 -50 -51 -65 -66 -78 -80 -91 -92 -103 -104 -114 -115 0
-18 -34 -36 -50 -51 -65 -66 -78 -80 -91 -92 -103 -104 -114 -115 0
-19 -34 -37 -50 -51 -65 -66 -78 -80 -91 -92 -103 -104 -114 -115 0
-18 -35 -36 -50 -52 -65 -66 -78 -80 -91 -92 -103 -104 -114 -115 0
-19 -35 -37 -50 -52 -65 -66 -78 -80 -91 -92 -103 -104 -114 -115 0
-19 -36 -37 -50 -53 -65 -66 -78 -80 -91 -92 -103 -104 -114 -115 0
-18 -35 -36 -51 -52 -65 -67 -78 -80 -91 -92 -103 -104 -114 -115 0
-19 -35 -37 -51 -52 -65 -67 -78 -80 -91 -92 -103 -104 -114 -115 0
-19 -36 -37 -51 -53 -65 -67 -78 -80 -91 -92 -103 -104 -114 -115 0
-19 -36 -37 -52 -53 -65 -68 -78 -80 -91 -92 -103 -104 -114 -115 0
-18 -35 -36 -51 -52 -66 -67 -78 -81 -91 -92 -103 -104 -114 -115 0
-19 -35 -37 -51 -52 -66 -67 -78 -81 -91 -92 -103 -104 -114 -115 0
-19 -36 -37 -51 -53 -66 -67 -78 -81 -91 -92 -103 -104 -114 -115 0
-19 -36 -37 -52 -53 -66 -68 -78 -81 -91 -92 -103 -104 -114 -115 0
-19 -36 -37 -52 -53 -67 -68 -78 -82 -91 -92 -103 -104 -114 -115 0
-17 -34 -35 -50 -51 -65 -66 -79 -80 -91 -93 -103 -104 -114 -115 0
-18 -34 -36 -50 -51 -65 -66 -79 -80 -91 -93 -103 -104 -114 -115 0
-19 -34 -37 -50 -51 -65 -66 -79 -80 -91 -93 -103 -104 -114 -115 0
-18 -35 -36 -50 -52 -65 -66 -79 -80 -91 -93 -103 -104 -114 -115 0
-19 -35 -37 -50 -52 -65 -66 -79 -80 -91 -93 -103 -104 -114 -115 0
-19 -36 -37 -50 -53 -65 -66 -79 -80 -91 -93 -103 -104 -114 -115 0
-18 -35 -36 -51 -52 -65 -67 -79 -80 -91 -93 -103 -104 -114 -115 0
-19 -35 -37 -51 -52 -65 -67 -79 -80 -91 -93 -103 -104 -114 -115 0
-19 -36 -37 -51 -53 -65 -67 -79 -80 -91 -93 -103 -104 -114 -115 0
-19 -36 -37 -52 -53 -65 -68 -79 -80 -91 -93 -103 -104 -114 -115 0
-18 -35 -36 -51 -52 -66 -67 -79 -81 -91 -93 -103 -104 -114 -115 0
-19 -35 -37 -51 -52 -66 -67 -79 -81 -91 -93 -103 -104 -114 -115 0
-19 -36 -37 -51 -53 -66 -67 -79 -81 -91 -93 -103 -104 -114 -115 0
-19 -36 -37 -52 -53 -66 -68 -79 -81 -91 -93 -103 -104 -114 -115 0
-19 -36 -37 -52 -53 -67 -68 -79 -82 -91 -93 -103 -104 -114 -115 0
-18 -35 -36 -51 -52 -66 -67 -80 -81 -91 -94 -103 -104 -114 -115 0
-19 -35 -37 -51 -52 -66 -67 -80 -81 -91 -94 -103 -104 -114 -115 0
-19 -36 -37 -51 -53 -66 -67 -80 -81 -91 -94 -103 -104 -114 -115 0
-19 -36 -37 -52 -53 -66 -68 -80 -81 -91 -94 -103 -104 -114 -115 0
-19 -36 -37 -52 -53 -67 -68 -80 -82 -91 -94 -103 -104 -114 -115 0
-19 -36 -37 -52 -53 -67 -68 -81 -82 -91 -95 -103 -104 -114 -115 0
-17 -34 -35 -50 -51 -65 -66 -79 -80 -92 -93 -103 -105 -114 -115 0
-18 -34 -36 -50 -51 -65 -66 -79 -80 -92 -93 -103 -105 -114 -115 0
-19 -34 -37 -50 -51 -65 -66 -79 -80 -92 -93 -103 -105 -114 -115 0
-18 -35 -36 -50 -52 -65 -66 -79 -80 -92 -93 -103 -105 -114 -115 0
-19 -35 -37 -50 -52 -65 -66 -79 -80 -92 -93 -103 -105 -114 -115 0
-19 -36 -37 -50 -53 -65 -66 -79 -80 -92 -93 -103 -105 -114 -115 0
-18 -35 -36 -51 -52 -65 -67 -79 -80 -92 -93 -103 -105 -114 -115 0
-19 -35 -37 -51 -52 -65 -67 -79 -80 -92 -93 -103 -105 -114 -115 0
-19 -36 -37 -51 -53 -65 -67 -79 -80 -92 -93 -103 -105 -114 -115 0
-19 -36 -37 -52 -53 -65 -68 -79 -80 -92 -93 -103 -105 -114 -115 0
-18 -35 -36 -51 -52 -66 -67 -79 -81 -92 -93 -103 -105 -114 -115 0
-19 -35 -37 -51 -52 -66 -67 -79 -81 -92 -93 -103 -105 -114 -115 0
-19 -36 -37 -51 -53 -66 -67 -79 -81 -92 -93 -103 -105 -114 -115 0
-19 -36 -37 -52 -53 -66 -68 -79 -81 -92 -93 -103 -105 -114 -115 0
-19 -36 -37 -52 -53 -67 -68 -79 -82 -92 -93 -103 -105 -114 -115 0
-18 -35 -36 -51 -52 -66 -67 -80 -81 -92 -94 -103 -105 -114 -115 0
-19 -35 -37 -51 -52 -66 -67 -80 -81 -92 -94 -103 -105 -114 -115 0
-19 -36 -37 -51 -53 -66 -67 -80 -81 -92 -94 -103 -105 -114 -115 0
-19 -36 -37 -52 -53 -66 -68 -80 -81 -92 -94 -103 -105 -114 -115 0
-19 -36 -37 -52 -53 -67 -68 -80 -82 -92 -94 -103 -105 -114 -115 0
-19 -36 -37 -52 -53 -67 -68 -81 -82 -92 -95 -103 -105 -114 -115 0
-18 -35 -36 -51 -52 -66 -67 -80 -81 -93 -94 -103 -106 -114 -115 0
-19 -35 -37 -51 -52 -66 -67 -80 -81 -93 -94 -103 -106 -114 -115 0
-19 -36 -37 -51 -53 -66 -67 -80 -81 -93 -94 -103 -106 -114 -115 0
-19 -36 -37 -52 -53 -66 -68 -80 -81 -93 -94 -103 -106 -114 -115 0
-19 -36 -37 -52 -53 -67 -68 -80 -82 -93 -94 -103 -106 -114 -115 0
-19 -36 -37 -52 -53 -67 -68 -81 -82 -93 -95 -103 -106 -114 -115 0
-19 -36 -37 -52 -53 -67 -68 -81 -82 -94 -95 -103 -107 -114 -115 0
-17 -34 -35 -50 -51 -65 -66 -79 -80 -92 -93 -104 -105 -114 -116 0
-18 -34 -36 -50 -51 -65 -66 -79 -80 -92 -93 -104 -105 -114 -116 0
-19 -34 -37 -50 -51 -65 -66 -79 -80 -92 -93 -104 -105 -114 -116 0
-18 -35 -36 -50 -52 -65 -66 -79 -80 -92 -93 -104 -105 -114 -116 0
-19 -35 -37 -50 -52 -65 -66 -79 -80 -92 -93 -104 -105 -114 -116 0
-19 -36 -37 -50 -53 -65 -66 -79 -80 -92 -93 -104 -105 -114 -116 0
-18 -35 -36 -51 -52 -65 -67 -79 -80 -92 -93 -104 -105 -114 -116 0
-19 -35 -37 -51 -52 -65 -67 -79 -80 -92 -93 -104 -105 -114 -116 0
-19 -36 -37 -51 -53 -65 -67 -79 -80 -92 -93 -104 -105 -114 -116 0
-19 -36 -37 -52 -53 -65 -68 -79 -80 -92 -93 -104 -105 -114 -116 0
-18 -35 -36 -51 -52 -66 -67 -79 -81 -92 -93 -104 -105 -114 -116 0
-19 -35 -37 -51 -52 -66 -67 -79 -81 -92 -93 -104 -105 -114 -116 0
-19 -36 -37 -51 -53 -66 -67 -79 -81 -92 -93 -104 -105 -114 -116 0
-19 -36 -37 -52 -53 -66 -68 -79 -81 -92 -93 -104 -105 -114 -116 0
-19 -36 -37 -52 -53 -67 -68 -79 -82 -92 -93 -104 -105 -114 -116 0
-18 -35 -36 -51 -52 -66 -67 -80 -81 -92 -94 -104 -105 -114 -116 0
-19 -35 -37 -51 -52 -66 -67 -80 -81 -92 -94 -104 -105 -114 -116 0
-19 -36 -37 -51 -53 -66 -67 -80 -81 -92 -94 -104 -105 -114 -116 0
-19 -36 -37 -52 -53 -66 -68 -80 -81 -92 -94 -104 -105 -114 -116 0
-19 -36 -37 -52 -53 -67 -68 -80 -82 -92 -94 -104 -105 -114 -116 0
-19 -36 -37 -52 -53 -67 -68 -81 -82 -92 -95 -104 -105 -114 -116 0
-18 -35 -36 -51 -52 -66 -67 -80 -81 -93 -94 -104 -106 -114 -116 0
-19 -35 -37 -51 -52 -66 -67 -80 -81 -93 -94 -104 -106 -114 -116 0
-19 -36 -37 -51 -53 -66 -67 -80 -81 -93 -94 -104 -106 -114 -116 0
-19 -36 -37 -52 -53 -66 -68 -80 -81 -93 -94 -104 -106 -114 -116 0
-19 -36 -37 -52 -53 -67 -68 -80 -82 -93 -94 -104 -106 -114 -116 0
-19 -36 -37 -52 -53 -67 -68 -81 -82 -93 -95 -104 -106 -114 -116 0
-19 -36 -37 -52 -53 -67 -68 -81 -82 -94 -95 -104 -107 -114 -116 0
-18 -35 -36 -51 -52 -66 -67 -80 -81 -93 -94 -105 -106 -114 -117 0
-19 -35 -37 -51 -52 -66 -67 -80 -81 -93 -94 -105 -106 -114 -117 0
-19 -36 -37 -51 -53 -66 -67 -80 -81 -93 -94 -105 -106 -114 -117 0
-19 -36 -37 -52 -53 -66 -68 -80 -81 -93 -94 -105 -106 -114 -117 0
-19 -36 -37 -52 -53 -67 -68 -80 -82 -93 -94 -105 -106 -114 -117 0
-19 -36 -37 -52 -53 -67 -68 -81 -82 -93 -95 -105 -106 -114 -117 0
-19 -36 -37 -52 -53 -67 -68 -81 -82 -94 -95 -105 -107 -114 -117 0
-19 -36 -37 -52 -53 -67 -68 -81 -82 -94 -95 -106 -107 -114 -118 0
-17 -34 -35 -50 -51 -65 -66 -79 -80 -92 -93 -104 -105 -115 -116 0
-18 -34 -36 -50 -51 -65 -66 -79 -80 -92 -93 -104 -105 -115 -116 0
-19 -34 -37 -50 -51 -65 -66 -79 -80 -92 -93 -104 -105 -115 -116 0
-18 -35 -36 -50 -52 -65 -66 -79 -80 -92 -93 -104 -105 -115 -116 0
-19 -35 -37 -50 -52 -65 -66 -79 -80 -92 -93 -104 -105 -115 -116 0
-19 -36 -37 -50 -53 -65 -66 -79 -80 -92 -93 -104 -105 -115 -116 0
-18 -35 -36 -51 -52 -65 -67 -79 -80 -92 -93 -104 -105 -115 -116 0
-19 -35 -37 -51 -52 -65 -67 -79 -80 -92 -93 -104 -105 -115 -116 0
-19 -36 -37 -51 -53 -65 -67 -79 -80 -92 -93 -104 -105 -115 -116 0
-19 -36 -37 -52 -53 -65 -68 -79 -80 -92 -93 -104 -105 -115 -116 0
-18 -35 -36 -51 -52 -66 -67 -79 -81 -92 -93 -104 -105 -115 -116 0
-19 -35 -37 -51 -52 -66 -67 -79 -81 -92 -93 -104 -105 -115 -116 0
-19 -36 -37 -51 -53 -66 -67 -79 -81 -92 -93 -104 -105 -115 -116 0
-19 -36 -37 -52 -53 -66 -68 -79 -81 -92 -93 -104 -105 -115 -116 0
-19 -36 -37 -52 -53 -67 -68 -79 -82 -92 -93 -104 -105 -115 -116 0
-18 -35 -36 -51 -52 -66 -67 -80 -81 -92 -94 -104 -105 -115 -116 0
-19 -35 -37 -51 -52 -66 -67 -80 -81 -92 -94 -104 -105 -115 -116 0
-19 -36 -37 -51 -53 -66 -67 -80 -81 -92 -94 -104 -105 -115 -116 0
-19 -36 -37 -52 -53 -66 -68 -80 -81 -92 -94 -104 -105 -115 -116 0
-19 -36 -37 -52 -53 -67 -68 -80 -82 -92 -94 -104 -105 -115 -116 0
-19 -36 -37 -52 -53 -67 -68 -81 -82 -92 -95 -104 -105 -115 -116 0
-18 -35 -36 -51 -52 -66 -67 -80 -81 -93 -94 -104 -106 -115 -116 0
-19 -35 -37 -51 -52 -66 -67 -80 -81 -93 -94 -104 -106 -115 -116 0
-19 -36 -37 -51 -53 -66 -67 -80 -81 -93 -94 -104 -106 -115 -116 0
-19 -36 -37 -52 -53 -66 -68 -80 -81 -93 -94 -104 -106 -115 -116 0
-19 -36 -37 -52 -53 -67 -68 -80 -82 -93 -94 -104 -106 -115 -116 0
-19 -36 -37 -52 -53 -67 -68 -81 -82 -93 -95 -104 -106 -115 -116 0
-19 -36 -37 -52 -53 -67 -68 -81 -82 -94 -95 -104 -107 -115 -116 0
-18 -35 -36 -51 -52 -66 -67 -80 -81 -93 -94 -105 -106 -115 -117 0
-19 -35 -37 -51 -52 -66 -67 -80 -81 -93 -94 -105 -106 -115 -117 0
-19 -36 -37 -51 -53 -66 -67 -80 -81 -93 -94 -105 -106 -115 -117 0
-19 -36 -37 -52 -53 -66 -68 -80 -81 -93 -94 -105 -106 -115 -117 0
-19 -36 -37 -52 -53 -67 -68 -80 -82 -93 -94 -105 -106 -115 -117 0
-19 -36 -37 -52 -53 -67 -68 -81 -82 -93 -95 -105 -106 -115 -117 0
-19 -36 -37 -52 -53 -67 -68 -81 -82 -94 -95 -105 -107 -115 -117 0
-19 -36 -37 -52 -53 -67 -68 -81 -82 -94 -95 -106 -107 -115 -118 0
-18 -35 -36 -51 -52 -66 -67 -80 -81 -93 -94 -105 -106 -116 -117 0
-19 -35 -37 -51 -52 -66 -67 -80 -81 -93 -94 -105 -106 -116 -117 0
-19 -36 -37 -51 -53 -66 -67 -80 -81 -93 -94 -105 -106 -116 -117 0
-19 -36 -37 -52 -53 -66 -68 -80 -81 -93 -94 -105 -106 -116 -117 0
-19 -36 -37 -52 -53 -67 -68 -80 -82 -93 -94 -105 -106 -116 -117 0
-19 -36 -37 -52 -53 -67 -68 -81 -82 -93 -95 -105 -106 -116 -117 0
-19 -36 -37 -52 -53 -67 -68 -81 -82 -94 -95 -105 -107 -116 -117 0
-19 -36 -37 -52 -53 -67 -68 -81 -82 -94 -95 -106 -107 -116 -118 0
-19 -36 -37 -52 -53 -67 -68 -81 -82 -94 -95 -106 -107 -117 -118 0
-16 -33 -34 -49 -50 -64 -65 -78 -79 -91 -92 -103 -104 -125 -126 0
-17 -33 -35 -49 -50 -64 -65 -78 -79 -91 -92 -103 -104 -125 -126 0
-18 -33 -36 -49 -50 -64 -65 -78 -79 -91 -92 -103 -104 -125 -126 0
-19 -33 -37 -49 -50 -64 -65 -78 -79 -91 -92 -103 -104 -125 -126 0
-17 -34 -35 -49 -51 -64 -65 -78 -79 -91 -92 -103 -104 -125 -126 0
-18 -34 -36 -49 -51 -64 -65 -78 -79 -91 -92 -103 -104 -125 -126 0
-19 -34 -37 -49 -51 -64 -65 -78 -79 -91 -92 -103 -104 -125 -126 0
-18 -35 -36 -49 -52 -64 -65 -78 -79 -91 -92 -103 -104 -125 -126 0
-19 -35 -37 -49 -52 -64 -65 -78 -79 -91 -92 -103 -104 -125 -126 0
-19 -36 -37 -49 -53 -64 -65 -78 -79 -91 -92 -103 -104 -125 -126 0
-17 -34 -35 -50 -51 -64 -66 -78 -79 -91 -92 -103 -104 -125 -126 0
-18 -34 -36 -50 -51 -64 -66 -78 -79 -91 -92 -103 -104 -125 -126 0
-19 -34 -37 -50 -51 -64 -66 -78 -79 -91 -92 -103 -104 -125 -126 0
-18 -35 -36 -50 -52 -64 -66 -78 -79 -91 -92 -103 -104 -125 -126 0
-19 -35 -37 -50 -52 -64 -66 -78 -79 -91 -92 -103 -104 -125 -126 0
-19 -36 -37 -50 -53 -64 -66 -78 -79 -91 -92 -103 -104 -125 -126 0
-18 -35 -36 -51 -52 -64 -67 -78 -79 -91 -92 -103 -104 -125 -126 0
-19 -35 -37 -51 -52 -64 -67 -78 -79 -91 -92 -103 -104 -125 -126 0
-19 -36 -37 -51 -53 -64 -67 -78 -79 -91 -92 -103 -104 -125 -126 0
-19 -36 -37 -52 -53 -64 -68 -78 -79 -91 -92 -103 -104 -125 -126 0
-17 -34 -35 -50 -51 -65 -66 -78 -80 -91 -92 -103 -104 -125 -126 0
-18 -34 -36 -50 -51 -65 -66 -78 -80 -91 -92 -103 -104 -125 -126 0
-19 -34 -37 -50 -51 -65 -66 -78 -80 -91 -92 -103 -104 -125 -126 0
-18 -35 -36 -50 -52 -65 -66 -78 -80 -91 -92 -103 -104 -125 -126 0
-19 -35 -37 -50 -52 -65 -66 -78 -80 -91 -92 -103 -104 -125 -126 0
-19 -36 -37 -50 -53 -65 -66 -78 -80 -91 -92 -103 -104 -125 -126 0
-18 -35 -36 -51 -52 -65 -67 -78 -80 -91 -92 -103 -104 -125 -126 0
-19 -35 -37 -51 -52 -65 -67 -78 -80 -91 -92 -103 -104 -125 -126 0
-19 -36 -37 -51 -53 -65 -67 -78 -80 -91 -92 -103 -104 -125 -126 0
-19 -36 -37 -52 -53 -65 -68 -78 -80 -91 -92 -103 -104 -125 -126 0
-18 -35 -36 -51 -52 -66 -67 -78 -81 -91 -92 -103 -104 -125 -126 0
-19 -35 -37 -51 -52 -66 -67 -78 -81 -91 -92 -103 -104 -125 -126 0
-19 -36 -37 -51 -53 -66 -67 -78 -81 -91 -92 -103 -104 -125 -126 0
-19 -36 -37 -52 -53 -66 -68 -78 -81 -91 -92 -103 -104 -125 -126 0
-19 -36 -37 -52 -53 -67 -68 -78 -82 -91 -92 -103 -104 -125 -126 0
-17 -34 -35 -50 -51 -65 -66 -79 -80 -91 -93 -103 -104 -125 -126 0
-18 -34 -36 -50 -51 -65 -66 -79 -80 -91 -93 -103 -104 -125 -126 0
-19 -34 -37 -50 -51 -65 -66 -79 -80 -91 -93 -103 -104 -125 -126 0
-18 -35 -36 -50 -52 -65 -66 -79 -80 -91 -93 -103 -104 -125 -126 0
-19 -35 -37 -50 -52 -65 -66 -79 -80 -91 -93 -103 -104 -125 -126 0
-19 -36 -37 -50 -53 -65 -66 -79 -80 -91 -93 -103 -104 -125 -126 0
-18 -35 -36 -51 -52 -65 -67 -79 -80 -91 -93 -103 -104 -125 -126 0
-19 -35 -37 -51 -52 -65 -67 -79 -80 -91 -93 -103 -104 -125 -126 0
-19 -36 -37 -51 -53 -65 -67 -79 -80 -91 -93 -103 -104 -125 -126 0
-19 -36 -37 -52 -53 -65 -68 -79 -80 -91 -93 -103 -104 -125 -126 0
-18 -35 -36 -51 -52 -66 -67 -79 -81 -91 -93 -103 -104 -125 -126 0
-19 -35 -37 -51 -52 -66 -67 -79 -81 -91 -93 -103 -104 -125 -126 0
-19 -36 -37 -51 -53 -66 -67 -79 -81 -91 -93 -103 -104 -125 -126 0
-19 -36 -37 -52 -53 -66 -68 -79 -81 -91 -93 -103 -104 -125 -126 0
-19 -36 -37 -52 -53 -67 -68 -79 -82 -91 -93 -103 -104 -125 -126 0
-18 -35 -36 -51 -52 -66 -67 -80 -81 -91 -94 -103 -104 -125 -126 0
-19 -35 -37 -51 -52 -66 -67 -80 -81 -91 -94 -103 -104 -125 -126 0
-19 -36 -37 -51 -53 -66 -67 -80 -81 -91 -94 -103 -104 -125 -126 0
-19 -36 -37 -52 -53 -66 -68 -80 -81 -91 -94 -103 -104 -125 -126 0
-19 -36 -37 -52 -53 -67 -68 -80 -82 -91 -94 -103 -104 -125 -126 0
-19 -36 -37 -52 -53 -67 -68 -81 -82 -91 -95 -103 -104 -125 -126 0
-17 -34 -35 -50 -51 -65 -66 -79 -80 -92 -93 -103 -105 -125 -126 0
-18 -34 -36 -50 -51 -65 -66 -79 -80 -92 -93 -103 -105 -125 -126 0
-19 -34 -37 -50 -51 -65 -66 -79 -80 -92 -93 -103 -105 -125 -126 0
-18 -35 -36 -50 -52 -65 -66 -79 -80 -92 -93 -103 -105 -125 -126 0
-19 -35 -37 -50 -52 -65 -66 -79 -80 -92 -93 -103 -105 -125 -126 0
-19 -36 -37 -50 -53 -65 -66 -79 -80 -92 -93 -103 -105 -125 -126 0
-18 -35 -36 -51 -52 -65 -67 -79 -80 -92 -93 -103 -105 -125 -126 0
-19 -35 -37 -51 -52 -65 -67 -79 -80 -92 -93 -103 -105 -125 -126 0
-19 -36 -37 -51 -53 -65 -67 -79 -80 -92 -93 -103 -105 -125 -126 0
-19 -36 -37 -52 -53 -65 -68 -79 -80 -92 -93 -103 -105 -125 -126 0
-18 -35 -36 -51 -52 -66 -67 -79 -81 -92 -93 -103 -105 -125 -126 0
-19 -35 -37 -51 -52 -66 -67 -79 -81 -92 -93 -103 -105 -125 -126 0
-19 -36 -37 -51 -53 -66 -67 -79 -81 -92 -93 -103 -105 -125 -126 0
-19 -36 -37 -52 -53 -66 -68 -79 -81 -92 -93 -103 -105 -125 -126 0
-19 -36 -37 -52 -53 -67 -68 -79 -82 -92 -93 -103 -105 -125 -126 0
-18 -35 -36 -51 -52 -66 -67 -80 -81 -92 -94 -103 -105 -125 -126 0
-19 -35 -37 -51 -52 -66 -67 -80 -81 -92 -94 -103 -105 -125 -126 0
-19 -36 -37 -51 -53 -66 -67 -80 -81 -92 -94 -103 -105 -125 -126 0
-19 -36 -37 -52 -53 -66 -68 -80 -81 -92 -94 -103 -105 -125 -126 0
-19 -36 -37 -52 -53 -67 -68 -80 -82 -92 -94 -103 -105 -125 -126 0
-19 -36 -37 -52 -53 -67 -68 -81 -82 -92 -95 -103 -105 -125 -126 0
-18 -35 -36 -51 -52 -66 -67 -80 -81 -93 -94 -103 -106 -125 -126 0
-19 -35 -37 -51 -52 -66 -67 -80 -81 -93 -94 -103 -106 -125 -126 0
-19 -36 -37 -51 -53 -66 -67 -80 -81 -93 -94 -103 -106 -125 -126 0
-19 -36 -37 -52 -53 -66 -68 -80 -81 -93 -94 -103 -106 -125 -126 0
-19 -36 -37 -52 -53 -67 -68 -80 -82 -93 -94 -103 -106 -125 -126 0
-19 -36 -37 -52 -53 -67 -68 -81 -82 -93 -95 -103 -106 -125 -126 0
-19 -36 -37 -52 -53 -67 -68 -81 -82 -94 -95 -103 -107 -125 -126 0
-17 -34 -35 -50 -51 -65 -66 -79 -80 -92 -93 -104 -105 -125 -127 0
-18 -34 -36 -50 -51 -65 -66 -79 -80 -92 -93 -104 -105 -125 -127 0
-19 -34 -37 -50 -51 -65 -66 -79 -80 -92 -93 -104 -105 -125 -127 0
-18 -35 -36 -50 -52 -65 -66 -79 -80 -92 -93 -104 -105 -125 -127 0
-19 -35 -37 -50 -52 -65 -66 -79 -80 -92 -93 -104 -105 -125 -127 0
-19 -36 -37 -50 -53 -65 -66 -79 -80 -92 -93 -104 -105 -125 -127 0
-18 -35 -36 -51 -52 -65 -67 -79 -80 -92 -93 -104 -105 -125 -127 0
-19 -35 -37 -51 -52 -65 -67 -79 -80 -92 -93 -104 -105 -125 -127 0
-19 -36 -37 -51 -53 -65 -67 -79 -80 -92 -93 -104 -105 -125 -127 0
-19 -36 -37 -52 -53 -65 -68 -79 -80 -92 -93 -104 -105 -125 -127 0
-18 -35 -36 -51 -52 -66 -67 -79 -81 -92 -93 -104 -105 -125 -127 0
-19 -35 -37 -51 -52 -66 -67 -79 -81 -92 -93 -104 -105 -125 -127 0
-19 -36 -37 -51 -53 -66 -67 -79 -81 -92 -93 -104 -105 -125 -127 0
-19 -36 -37 -52 -53 -66 -68 -79 -81 -92 -93 -104 -105 -125 -127 0
-19 -36 -37 -52 -53 -67 -68 -79 -82 -92 -93 -104 -105 -125 -127 0
-18 -35 -36 -51 -52 -66 -67 -80 -81 -92 -94 -104 -105 -125 -127 0
-19 -35 -37 -51 -52 -66 -67 -80 -81 -92 -94 -104 -105 -125 -127 0
-19 -36 -37 -51 -53 -66 -67 -80 -81 -92 -94 -104 -105 -125 -127 0
-19 -36 -37 -52 -53 -66 -68 -80 -81 -92 -94 -104 -105 -125 -127 0
-19 -36 -37 -52 -53 -67 -68 -80 -82 -92 -94 -104 -105 -125 -127 0
-19 -36 -37 -52 -53 -67 -68 -81 -82 -92 -95 -104 -105 -125 -127 0
-18 -35 -36 -51 -52 -66 -67 -80 -81 -93 -94 -104 -106 -125 -127 0
-19 -35 -37 -51 -52 -66 -67 -80 -81 -93 -94 -104 -106 -125 -127 0
-19 -36 -37 -51 -53 -66 -67 -80 -81 -93 -94 -104 -106 -125 -127 0
-19 -36 -37 -52 -53 -66 -68 -80 -81 -93 -94 -104 -106 -125 -127 0
-19 -36 -37 -52 -53 -67 -68 -80 -82 -93 -94 -104 -106 -125 -127 0
-19 -36 -37 -52 -53 -67 -68 -81 -82 -93 -95 -104 -106 -125 -127 0
-19 -36 -37 -52 -53 -67 -68 -81 -82 -94 -95 -104 -107 -125 -127 0
-18 -35 -36 -51 -52 -66 -67 -80 -81 -93 -94 -105 -106 -125 -128 0
-19 -35 -37 -51 -52 -66 -67 -80 -81 -93 -94 -105 -106 -125 -128 0
-19 -36 -37 -51 -53 -66 -67 -80 -81 -93 -94 -105 -106 -125 -128 0
-19 -36 -37 -52 -53 -66 -68 -80 -81 -93 -94 -105 -106 -125 -128 0
-19 -36 -37 -52 -53 -67 -68 -80 -82 -93 -94 -105 -106 -125 -128 0
-19 -36 -37 -52 -53 -67 -68 -81 -82 -93 -95 -105 -106 -125 -128 0
-19 -36 -37 -52 -53 -67 -68 -81 -82 -94 -95 -105 -107 -125 -128 0
-19 -36 -37 -52 -53 -67 -68 -81 -82 -94 -95 -106 -107 -125 -129 0
-17 -34 -35 -50 -51 -65 -66 -79 -80 -92 -93 -104 -105 -126 -127 0
-18 -34 -36 -50 -51 -65 -66 -79 -80 -92 -93 -104 -105 -126 -127 0
-19 -34 -37 -50 -51 -65 -66 -79 -80 -92 -93 -104 -105 -126 -127 0
-18 -35 -36 -50 -52 -65 -66 -79 -80 -92 -93 -104 -105 -126 -127 0
-19 -35 -37 -50 -52 -65 -66 -79 -80 -92 -93 -104 -105 -126 -127 0
-19 -36 -37 -50 -53 -65 -66 -79 -80 -92 -93 -104 -105 -126 -127 0
-18 -35 -36 -51 -52 -65 -67 -79 -80 -92 -93 -104 -105 -126 -127 0
-19 -35 -37 -51 -52 -65 -67 -79 -80 -92 -93 -104 -105 -126 -127 0
-19 -36 -37 -51 -53 -65 -67 -79 -80 -92 -93 -104 -105 -126 -127 0
-19 -36 -37 -52 -53 -65 -68 -79 -80 -92 -93 -104 -105 -126 -127 0
-18 -35 -36 -51 -52 -66 -67 -79 -81 -92 -93 -104 -105 -126 -127 0
-19 -35 -37 -51 -52 -66 -67 -79 -81 -92 -93 -104 -105 -126 -127 0
-19 -36 -37 -51 -53 -66 -67 -79 -81 -92 -93 -104 -105 -126 -127 0
-19 -36 -37 -52 -53 -66 -68 -79 -81 -92 -93 -104 -105 -126 -127 0
-19 -36 -37 -52 -53 -67 -68 -79 -82 -92 -93 -104 -105 -126 -127 0
-18 -35 -36 -51 -52 -66 -67 -80 -81 -92 -94 -104 -105 -126 -127 0
-19 -35 -37 -51 -52 -66 -67 -80 -81 -92 -94 -104 -105 -126 -127 0
-19 -36 -37 -51 -53 -66 -67 -80 -81 -92 -94 -104 -105 -126 -127 0
-19 -36 -37 -52 -53 -66 -68 -80 -81 -92 -94 -104 -105 -126 -127 0
-19 -36 -37 -52 -53 -67 -68 -80 -82 -92 -94 -104 -105 -126 -127 0
-19 -36 -37 -52 -53 -67 -68 -81 -82 -92 -95 -104 -105 -126 -127 0
-18 -35 -36 -51 -52 -66 -67 -80 -81 -93 -94 -104 -106 -126 -127 0
-19 -35 -37 -51 -52 -66 -67 -80 -81 -93 -94 -104 -106 -126 -127 0
-19 -36 -37 -51 -53 -66 -67 -80 -81 -93 -94 -104 -106 -126 -127 0
-19 -36 -37 -52 -53 -66 -68 -80 -81 -93 -94 -104 -106 -126 -127 0
-19 -36 -37 -52 -53 -67 -68 -80 -82 -93 -94 -104 -106 -126 -127 0
-19 -36 -37 -52 -53 -67 -68 -81 -82 -93 -95 -104 -106 -126 -127 0
-19 -36 -37 -52 -53 -67 -68 -81 -82 -94 -95 -104 -107 -126 -127 0
-18 -35 -36 -51 -52 -66 -67 -80 -81 -93 -94 -105 -106 -126 -128 0
-19 -35 -37 -51 -52 -66 -67 -80 -81 -93 -94 -105 -106 -126 -128 0
-19 -36 -37 -51 -53 -66 -67 -80 -81 -93 -94 -105 -106 -126 -128 0
-19 -36 -37 -52 -53 -66 -68 -80 -81 -93 -94 -105 -106 -126 -128 0
-19 -36 -37 -52 -53 -67 -68 -80 -82 -93 -94 -105 -106 -126 -128 0
-19 -36 -37 -52 -53 -67 -68 -81 -82 -93 -95 -105 -106 -126 -128 0
-19 -36 -37 -52 -53 -67 -68 -81 -82 -94 -95 -105 -107 -126 -128 0
-19 -36 -37 -52 -53 -67 -68 -81 -82 -94 -95 -106 -107 -126 -129 0
-18 -35 -36 -51 -52 -66 -67 -80 -81 -93 -94 -105 -106 -127 -128 0
-19 -35 -37 -51 -52 -66 -67 -80 -81 -93 -94 -105 -106 -127 -128 0
-19 -36 -37 -51 -53 -66 -67 -80 -81 -93 -94 -105 -106 -127 -128 0
-19 -36 -37 -52 -53 -66 -68 -80 -81 -93 -94 -105 -106 -127 -128 0
-19 -36 -37 -52 -53 -67 -68 -80 -82 -93 -94 -105 -106 -127 -128 0
-19 -36 -37 -52 -53 -67 -68 -81 -82 -93 -95 -105 -106 -127 -128 0
-19 -36 -37 -52 -53 -67 -68 -81 -82 -94 -95 -105 -107 -127 -128 0
-19 -36 -37 -52 -53 -67 -68 -81 -82 -94 -95 -106 -107 -127 -129 0
-19 -36 -37 -52 -53 -67 -68 -81 -82 -94 -95 -106 -107 -128 -129 0
-17 -34 -35 -50 -51 -65 -66 -79 -80 -92 -93 -104 -105 -136 -137 0
-18 -34 -36 -50 -51 -65 -66 -79 -80 -92 -93 -104 -105 -136 -137 0
-19 -34 -37 -50 -51 -65 -66 -79 -80 -92 -93 -104 -105 -136 -137 0
-18 -35 -36 -50 -52 -65 -66 -79 -80 -92 -93 -104 -105 -136 -137 0
-19 -35 -37 -50 -52 -65 -66 -79 -80 -92 -93 -104 -105 -136 -137 0
-19 -36 -37 -50 -53 -65 -66 -79 -80 -92 -93 -104 -105 -136 -137 0
-18 -35 -36 -51 -52 -65 -67 -79 -80 -92 -93 -104 -105 -136 -137 0
-19 -35 -37 -51 -52 -65 -67 -79 -80 -92 -93 -104 -105 -136 -137 0
-19 -36 -37 -51 -53 -65 -67 -79 -80 -92 -93 -104 -105 -136 -137 0
-19 -36 -37 -52 -53 -65 -68 -79 -80 -92 -93 -104 -105 -136 -137 0
-18 -35 -36 -51 -52 -66 -67 -79 -81 -92 -93 -104 -105 -136 -137 0
-19 -35 -37 -51 -52 -66 -67 -79 -81 -92 -93 -104 -105 -136 -137 0
-19 -36 -37 -51 -53 -66 -67 -79 -81 -92 -93 -104 -105 -136 -137 0
-19 -36 -37 -52 -53 -66 -68 -79 -81 -92 -93 -104 -105 -136 -137 0
-19 -36 -37 -52 -53 -67 -68 -79 -82 -92 -93 -104 -105 -136 -137 0
-18 -35 -36 -51 -52 -66 -67 -80 -81 -92 -94 -104 -105 -136 -137 0
-19 -35 -37 -51 -52 -66 -67 -80 -81 -92 -94 -104 -105 -136 -137 0
-19 -36 -37 -51 -53 -66 -67 -80 -81 -92 -94 -104 -105 -136 -137 0
-19 -36 -37 -52 -53 -66 -68 -80 -81 -92 -94 -104 -105 -136 -137 0
-19 -36 -37 -52 -53 -67 -68 -80 -82 -92 -94 -104 -105 -136 -137 0
-19 -36 -37 -52 -53 -67 -68 -81 -82 -92 -95 -104 -105 -136 -137 0
-18 -35 -36 -51 -52 -66 -67 -80 -81 -93 -94 -104 -106 -136 -137 0
-19 -35 -37 -51 -52 -66 -67 -80 -81 -93 -94 -104 -106 -136 -137 0
-19 -36 -37 -51 -53 -66 -67 -80 -81 -93 -94 -104 -106 -136 -137 0
-19 -36 -37 -52 -53 -66 -68 -80 -81 -93 -94 -104 -106 -136 -137 0
-19 -36 -37 -52 -53 -67 -68 -80 -82 -93 -94 -104 -106 -136 -137 0
-19 -36 -37 -52 -53 -67 -68 -81 -82 -93 -95 -104 -106 -136 -137 0
-19 -36 -37 -52 -53 -67 -68 -81 -82 -94 -95 -104 -107 -136 -137 0
-18 -35 -36 -51 -52 -66 -67 -80 -81 -93 -94 -105 -106 -136 -138 0
-19 -35 -37 -51 -52 -66 -67 -80 -81 -93 -94 -105 -106 -136 -138 0
-19 -36 -37 -51 -53 -66 -67 -80 -81 -93 -94 -105 -106 -136 -138 0
-19 -36 -37 -52 -53 -66 -68 -80 -81 -93 -94 -105 -106 -136 -138 0
-19 -36 -37 -52 -53 -67 -68 -80 -82 -93 -94 -105 -106 -136 -138 0
-19 -36 -37 -52 -53 -67 -68 -81 -82 -93 -95 -105 -106 -136 -138 0
-19 -36 -37 -52 -53 -67 -68 -81 -82 -94 -95 -105 -107 -136 -138 0
-19 -36 -37 -52 -53 -67 -68 -81 -82 -94 -95 -106 -107 -136 -139 0
-18 -35 -36 -51 -52 -66 -67 -80 -81 -93 -94 -105 -106 -137 -138 0
-19 -35 -37 -51 -52 -66 -67 -80 -81 -93 -94 -105 -106 -137 -138 0
-19 -36 -37 -51 -53 -66 -67 -80 -81 -93 -94 -105 -106 -137 -138 0
-19 -36 -37 -52 -53 -66 -68 -80 -81 -93 -94 -105 -106 -137 -138 0
-19 -36 -37 -52 -53 -67 -68 -80 -82 -93 -94 -105 -106 -137 -138 0
-19 -36 -37 -52 -53 -67 -68 -81 -82 -93 -95 -105 -106 -137 -138 0
-19 -36 -37 -52 -53 -67 -68 -81 -82 -94 -95 -105 -107 -137 -138 0
-19 -36 -37 -52 -53 -67 -68 -81 -82 -94 -95 -106 -107 -137 -139 0
-19 -36 -37 -52 -53 -67 -68 -81 -82 -94 -95 -106 -107 -138 -139 0
-18 -35 -36 -51 -52 -66 -67 -80 -81 -93 -94 -105 -106 -146 -147 0
-19 -35 -37 -51 -52 -66 -67 -80 -81 -93 -94 -105 -106 -146 -147 0
-19 -36 -37 -51 -53 -66 -67 -80 -81 -93 -94 -105 -106 -146 -147 0
-19 -36 -37 -52 -53 -66 -68 -80 -81 -93 -94 -105 -106 -146 -147 0
-19 -36 -37 -52 -53 -67 -68 -80 -82 -93 -94 -105 -106 -146 -147 0
-19 -36 -37 -52 -53 -67 -68 -81 -82 -93 -95 -105 -106 -146 -147 0
-19 -36 -37 -52 -53 -67 -68 -81 -82 -94 -95 -105 -107 -146 -147 0
-19 -36 -37 -52 -53 -67 -68 -81 -82 -94 -95 -106 -107 -146 -148 0
-19 -36 -37 -52 -53 -67 -68 -81 -82 -94 -95 -106 -107 -147 -148 0
-19 -36 -37 -52 -53 -67 -68 -81 -82 -94 -95 -106 -107 -155 -156 0
-16 -33 -34 -49 -50 -64 -65 -78 -79 -91 -92 -115 -116 -125 -126 0
-17 -33 -35 -49 -50 -64 -65 -78 -79 -91 -92 -115 -116 -125 -126 0
-18 -33 -36 -49 -50 -64 -65 -78 -79 -91 -92 -115 -116 -125 -126 0
-19 -33 -37 -49 -50 -64 -65 -78 -79 -91 -92 -115 -116 -125 -126 0
-17 -34 -35 -49 -51 -64 -65 -78 -79 -91 -92 -115 -116 -125 -126 0
-18 -34 -36 -49 -51 -64 -65 -78 -79 -91 -92 -115 -116 -125 -126 0
-19 -34 -37 -49 -51 -64 -65 -78 -79 -91 -92 -115 -116 -125 -126 0
-18 -35 -36 -49 -52 -64 -65 -78 -79 -91 -92 -115 -116 -125 -126 0
-19 -35 -37 -49 -52 -64 -65 -78 -79 -91 -92 -115 -116 -125 -126 0
-19 -36 -37 -49 -53 -64 -65 -78 -79 -91 -92 -115 -116 -125 -126 0
-17 -34 -35 -50 -51 -64 -66 -78 -79 -91 -92 -115 -116 -125 -126 0
-18 -34 -36 -50 -51 -64 -66 -78 -79 -91 -92 -115 -116 -125 -126 0
-19 -34 -37 -50 -51 -64 -66 -78 -79 -91 -92 -115 -116 -125 -126 0
-18 -35 -36 -50 -52 -64 -66 -78 -79 -91 -92 -115 -116 -125 -126 0
-19 -35 -37 -50 -52 -64 -66 -78 -79 -91 -92 -115 -116 -125 -126 0
-19 -36 -37 -50 -53 -64 -66 -78 -79 -91 -92 -115 -116 -125 -126 0
-18 -35 -36 -51 -52 -64 -67 -78 -79 -91 -92 -115 -116 -125 -126 0
-19 -35 -37 -51 -52 -64 -67 -78 -79 -91 -92 -115 -116 -125 -126 0
-19 -36 -37 -51 -53 -64 -67 -78 -79 -91 -92 -115 -116 -125 -126 0
-19 -36 -37 -52 -53 -64 -68 -78 -79 -91 -92 -115 -116 -125 -126 0
-17 -34 -35 -50 -51 -65 -66 -78 -80 -91 -92 -115 -116 -125 -126 0
-18 -34 -36 -50 -51 -65 -66 -78 -80 -91 -92 -115 -116 -125 -126 0
-19 -34 -37 -50 -51 -65 -66 -78 -80 -91 -92 -115 -116 -125 -126 0
-18 -35 -36 -50 -52 -65 -66 -78 -80 -91 -92 -115 -116 -125 -126 0
-19 -35 -37 -50 -52 -65 -66 -78 -80 -91 -92 -115 -116 -125 -126 0
-19 -36 -37 -50 -53 -65 -66 -78 -80 -91 -92 -115 -116 -125 -126 0
-18 -35 -36 -51 -52 -65 -67 -78 -80 -91 -92 -115 -116 -125 -126 0
-19 -35 -37 -51 -52 -65 -67 -78 -80 -91 -92 -115 -116 -125 -126 0
-19 -36 -37 -51 -53 -65 -67 -78 -80 -91 -92 -115 -116 -125 -126 0
-19 -36 -37 -52 -53 -65 -68 -78 -80 -91 -92 -115 -116 -125 -126 0
-18 -35 -36 -51 -52 -66 -67 -78 -81 -91 -92 -115 -116 -125 -126 0
-19 -35 -37 -51 -52 -66 -67 -78 -81 -91 -92 -115 -116 -125 -126 0
-19 -36 -37 -51 -53 -66 -67 -78 -81 -91 -92 -115 -116 -125 -126 0
-19 -36 -37 -52 -53 -66 -68 -78 -81 -91 -92 -115 -116 -125 -126 0
-19 -36 -37 -52 -53 -67 -68 -78 -82 -91 -92 -115 -116 -125 -126 0
-17 -34 -35 -50 -51 -65 -66 -79 -80 -91 -93 -115 -116 -125 -126 0
-18 -34 -36 -50 -51 -65 -66 -79 -80 -91 -93 -115 -116 -125 -126 0
-19 -34 -37 -50 -51 -65 -66 -79 -80 -91 -93 -115 -116 -125 -126 0
-18 -35 -36 -50 -52 -65 -66 -79 -80 -91 -93 -115 -116 -125 -126 0
-19 -35 -37 -50 -52 -65 -66 -79 -80 -91 -93 -115 -116 -125 -126 0
-19 -36 -37 -50 -53 -65 -66 -79 -80 -91 -93 -115 -116 -125 -126 0
-18 -35 -36 -51 -52 -65 -67 -79 -80 -91 -93 -115 -116 -125 -126 0
-19 -35 -37 -51 -52 -65 -67 -79 -80 -91 -93 -115 -116 -125 -126 0
-19 -36 -37 -51 -53 -65 -67 -79 -80 -91 -93 -115 -116 -125 -126 0
-19 -36 -37 -52 -53 -65 -68 -79 -80 -91 -93 -115 -116 -125 -126 0
-18 -35 -36 -51 -52 -66 -67 -79 -81 -91 -93 -115 -116 -125 -126 0
-19 -35 -37 -51 -52 -66 -67 -79 -81 -91 -93 -115 -116 -125 -126 0
-19 -36 -37 -51 -53 -66 -67 -79 -81 -91 -93 -115 -116 -125 -126 0
-19 -36 -37 -52 -53 -66 -68 -79 -81 -91 -93 -115 -116 -125 -126 0
-19 -36 -37 -52 -53 -67 -68 -79 -82 -91 -93 -115 -116 -125 -126 0
-18 -35 -36 -51 -52 -66 -67 -80 -81 -91 -94 -115 -116 -125 -126 0
-19 -35 -37 -51 -52 -66 -67 -80 -81 -91 -94 -115 -116 -125 -126 0
-19 -36 -37 -51 -53 -66 -67 -80 -81 -91 -94 -115 -116 -125 -126 0
-19 -36 -37 -52 -53 -66 -68 -80 -81 -91 -94 -115 -116 -125 -126 0
-19 -36 -37 -52 -53 -67 -68 -80 -82 -91 -94 -115 -116 -125 -126 0
-19 -36 -37 -52 -53 -67 -68 -81 -82 -91 -95 -115 -116 -125 -126 0
-17 -34 -35 -50 -51 -65 -66 -79 -80 -92 -93 -115 -117 -125 -126 0
-18 -34 -36 -50 -51 -65 -66 -79 -80 -92 -93 -115 -117 -125 -126 0
-19 -34 -37 -50 -51 -65 -66 -79 -80 -92 -93 -115 -117 -125 -126 0
-18 -35 -36 -50 -52 -65 -66 -79 -80 -92 -93 -115 -117 -125 -126 0
-19 -35 -37 -50 -52 -65 -66 -79 -80 -92 -93 -115 -117 -125 -126 0
-19 -36 -37 -50 -53 -65 -66 -79 -80 -92 -93 -115 -117 -125 -126 0
-18 -35 -36 -51 -52 -65 -67 -79 -80 -92 -93 -115 -117 -125 -126 0
-19 -35 -37 -51 -52 -65 -67 -79 -80 -92 -93 -115 -117 -125 -126 0
-19 -36 -37 -51 -53 -65 -67 -79 -80 -92 -93 -115 -117 -125 -126 0
-19 -36 -37 -52 -53 -65 -68 -79 -80 -92 -93 -115 -117 -125 -126 0
-18 -35 -36 -51 -52 -66 -67 -79 -81 -92 -93 -115 -117 -125 -126 0
-19 -35 -37 -51 -52 -66 -67 -79 -81 -92 -93 -115 -117 -125 -126 0
-19 -36 -37 -51 -53 -66 -67 -79 -81 -92 -93 -115 -117 -125 -126 0
-19 -36 -37 -52 -53 -66 -68 -79 -81 -92 -93 -115 -117 -125 -126 0
-19 -36 -37 -52 -53 -67 -68 -79 -82 -92 -93 -115 -117 -125 -126 0
-18 -35 -36 -51 -52 -66 -67 -80 -81 -92 -94 -115 -117 -125 -126 0
-19 -35 -37 -51 -52 -66 -67 -80 -81 -92 -94 -115 -117 -125 -126 0
-19 -36 -37 -51 -53 -66 -67 -80 -81 -92 -94 -115 -117 -125 -126 0
-19 -36 -37 -52 -53 -66 -68 -80 -81 -92 -94 -115 -117 -125 -126 0
-19 -36 -37 -52 -53 -67 -68 -80 -82 -92 -94 -115 -117 -125 -126 0
-19 -36 -37 -52 -53 -67 -68 -81 -82 -92 -95 -115 -117 -125 -126 0
-18 -35 -36 -51 -52 -66 -67 -80 -81 -93 -94 -115 -118 -125 -126 0
-19 -35 -37 -51 -52 -66 -67 -80 -81 -93 -94 -115 -118 -125 -126 0
-19 -36 -37 -51 -53 -66 -67 -80 -81 -93 -94 -115 -118 -125 -126 0
-19 -36 -37 -52 -53 -66 -68 -80 -81 -93 -94 -115 -118 -125 -126 0
-19 -36 -37 -52 -53 -67 -68 -80 -82 -93 -94 -115 -118 -125 -126 0
-19 -36 -37 -52 -53 -67 -68 -81 -82 -93 -95 -115 -118 -125 -126 0
-19 -36 -37 -52 -53 -67 -68 -81 -82 -94 -95 -115 -119 -125 -126 0
-17 -34 -35 -50 -51 -65 -66 -79 -80 -92 -93 -116 -117 -125 -127 0
-18 -34 -36 -50 -51 -65 -66 -79 -80 -92 -93 -116 -117 -125 -127 0
-19 -34 -37 -50 -51 -65 -66 -79 -80 -92 -93 -116 -117 -125 -127 0
-18 -35 -36 -50 -52 -65 -66 -79 -80 -92 -93 -116 -117 -125 -127 0
-19 -35 -37 -50 -52 -65 -66 -79 -80 -92 -93 -116 -117 -125 -127 0
-19 -36 -37 -50 -53 -65 -66 -79 -80 -92 -93 -116 -117 -125 -127 0
-18 -35 -36 -51 -52 -65 -67 -79 -80 -92 -93 -116 -117 -125 -127 0
-19 -35 -37 -51 -52 -65 -67 -79 -80 -92 -93 -116 -117 -125 -127 0
-19 -36 -37 -51 -53 -65 -67 -79 -80 -92 -93 -116 -117 -125 -127 0
-19 -36 -37 -52 -53 -65 -68 -79 -80 -92 -93 -116 -117 -125 -127 0
-18 -35 -36 -51 -52 -66 -67 -79 -81 -92 -93 -116 -117 -125 -127 0
-19 -35 -37 -51 -52 -66 -67 -79 -81 -92 -93 -116 -117 -125 -127 0
-19 -36 -37 -51 -53 -66 -67 -79 -81 -92 -93 -116 -117 -125 -127 0
-19 -36 -37 -52 -53 -66 -68 -79 -81 -92 -93 -116 -117 -125 -127 0
-19 -36 -37 -52 -53 -67 -68 -79 -82 -92 -93 -116 -117 -125 -127 0
-18 -35 -36 -51 -52 -66 -67 -80 -81 -92 -94 -116 -117 -125 -127 0
-19 -35 -37 -51 -52 -66 -67 -80 -81 -92 -94 -116 -117 -125 -127 0
-19 -36 -37 -51 -53 -66 -67 -80 -81 -92 -94 -116 -117 -125 -127 0
-19 -36 -37 -52 -53 -66 -68 -80 -81 -92 -94 -116 -117 -125 -127 0
-19 -36 -37 -52 -53 -67 -68 -80 -82 -92 -94 -116 -117 -125 -127 0
-19 -36 -37 -52 -53 -67 -68 -81 -82 -92 -95 -116 -117 -125 -127 0
-18 -35 -36 -51 -52 -66 -67 -80 -81 -93 -94 -116 -118 -125 -127 0
-19 -35 -37 -51 -52 -66 -67 -80 -81 -93 -94 -116 -118 -125 -127 0
-19 -36 -37 -51 -53 -66 -67 -80 -81 -93 -94 -116 -118 -125 -127 0
-19 -36 -37 -52 -53 -66 -68 -80 -81 -93 -94 -116 -118 -125 -127 0
-19 -36 -37 -52 -53 -67 -68 -80 -82 -93 -94 -116 -118 -125 -127 0
-19 -36 -37 -52 -53 -67 -68 -81 -82 -93 -95 -116 -118 -125 -127 0
-19 -36 -37 -52 -53 -67 -68 -81 -82 -94 -95 -116 -119 -125 -127 0
-18 -35 -36 -51 -52 -66 -67 -80 -81 -93 -94 -117 -118 -125 -128 0
-19 -35 -37 -51 -52 -66 -67 -80 -81 -93 -94 -117 -118 -125 -128 0
-19 -36 -37 -51 -53 -66 -67 -80 -81 -93 -94 -117 -118 -125 -128 0
-19 -36 -37 -52 -53 -66 -68 -80 -81 -93 -94 -117 -118 -125 -128 0
-19 -36 -37 -52 -53 -67 -68 -80 -82 -93 -94 -117 -118 -125 -128 0
-19 -36 -37 -52 -53 -67 -68 -81 -82 -93 -95 -117 -118 -125 -128 0
-19 -36 -37 -52 -53 -67 -68 -81 -82 -94 -95 -117 -119 -125 -128 0
-19 -36 -37 -52 -53 -67 -68 -81 -82 -94 -95 -118 -119 -125 -129 0
-17 -34 -35 -50 -51 -65 -66 -79 -80 -92 -93 -116 -117 -126 -127 0
-18 -34 -36 -50 -51 -65 -66 -79 -80 -92 -93 -116 -117 -126 -127 0
-19 -34 -37 -50 -51 -65 -66 -79 -80 -92 -93 -116 -117 -126 -127 0
-18 -35 -36 -50 -52 -65 -66 -79 -80 -92 -93 -116 -117 -126 -127 0
-19 -35 -37 -50 -52 -65 -66 -79 -80 -92 -93 -116 -117 -126 -127 0
-19 -36 -37 -50 -53 -65 -66 -79 -80 -92 -93 -116 -117 -126 -127 0
-18 -35 -36 -51 -52 -65 -67 -79 -80 -92 -93 -116 -117 -126 -127 0
-19 -35 -37 -51 -52 -65 -67 -79 -80 -92 -93 -116 -117 -126 -127 0
-19 -36 -37 -51 -53 -65 -67 -79 -80 -92 -93 -116 -117 -126 -127 0
-19 -36 -37 -52 -53 -65 -68 -79 -80 -92 -93 -116 -117 -126 -127 0
-18 -35 -36 -51 -52 -66 -67 -79 -81 -92 -93 -116 -117 -126 -127 0
-19 -35 -37 -51 -52 -66 -67 -79 -81 -92 -93 -116 -117 -126 -127 0
-19 -36 -37 -51 -53 -66 -67 -79 -81 -92 -93 -116 -117 -126 -127 0
-19 -36 -37 -52 -53 -66 -68 -79 -81 -92 -93 -116 -117 -126 -127 0
-19 -36 -37 -52 -53 -67 -68 -79 -82 -92 -93 -116 -117 -126 -127 0
-18 -35 -36 -51 -52 -66 -67 -80 -81 -92 -94 -116 -117 -126 -127 0
-19 -35 -37 -51 -52 -66 -67 -80 -81 -92 -94 -116 -117 -126 -127 0
-19 -36 -37 -51 -53 -66 -67 -80 -81 -92 -94 -116 -117 -126 -127 0
-19 -36 -37 -52 -53 -66 -68 -80 -81 -92 -94 -116 -117 -126 -127 0
-19 -36 -37 -52 -53 -67 -68 -80 -82 -92 -94 -116 -117 -126 -127 0
-19 -36 -37 -52 -53 -67 -68 -81 -82 -92 -95 -116 -117 -126 -127 0
-18 -35 -36 -51 -52 -66 -67 -80 -81 -93 -94 -116 -118 -126 -127 0
-19 -35 -37 -51 -52 -66 -67 -80 -81 -93 -94 -116 -118 -126 -127 0
-19 -36 -37 -51 -53 -66 -67 -80 -81 -93 -94 -116 -118 -126 -127 0
-19 -36 -37 -52 -53 -66 -68 -80 -81 -93 -94 -116 -118 -126 -127 0
-19 -36 -37 -52 -53 -67 -68 -80 -82 -93 -94 -116 -118 -126 -127 0
-19 -36 -37 -52 -53 -67 -68 -81 -82 -93 -95 -116 -118 -126 -127 0
-19 -36 -37 -52 -53 -67 -68 -81 -82 -94 -95 -116 -119 -126 -127 0
-18 -35 -36 -51 -52 -66 -67 -80 -81 -93 -94 -117 -118 -126 -128 0
-19 -35 -37 -51 -52 -66 -67 -80 -81 -93 -94 -117 -118 -126 -128 0
-19 -36 -37 -51 -53 -66 -67 -80 -81 -93 -94 -117 -118 -126 -128 0
-19 -36 -37 -52 -53 -66 -68 -80 -81 -93 -94 -117 -118 -126 -128 0
-19 -36 -37 -52 -53 -67 -68 -80 -82 -93 -94 -117 -118 -126 -128 0
-19 -36 -37 -52 -53 -67 -68 -81 -82 -93 -95 -117 -118 -126 -128 0
-19 -36 -37 -52 -53 -67 -68 -81 -82 -94 -95 -117 -119 -126 -128 0
-19 -36 -37 -52 -53 -67 -68 -81 -82 -94 -95 -118 -119 -126 -129 0
-18 -35 -36 -51 -52 -66 -67 -80 -81 -93 -94 -117 -118 -127 -128 0
-19 -35 -37 -51 -52 -66 -67 -80 -81 -93 -94 -117 -118 -127 -128 0
-19 -36 -37 -51 -53 -66 -67 -80 -81 -93 -94 -117 -118 -127 -128 0
-19 -36 -37 -52 -53 -66 -68 -80 -81 -93 -94 -117 -118 -127 -128 0
-19 -36 -37 -52 -53 -67 -68 -80 -82 -93 -94 -117 -118 -127 -128 0
-19 -36 -37 -52 -53 -67 -68 -81 -82 -93 -95 -117 -118 -127 -128 0
-19 -36 -37 -52 -53 -67 -68 -81 -82 -94 -95 -117 -119 -127 -128 0
-19 -36 -37 -52 -53 -67 -68 -81 -82 -94 -95 -118 -119 -127 -129 0
-19 -36 -37 -52 -53 -67 -68 -81 -82 -94 -95 -118 -119 -128 -129 0
-17 -34 -35 -50 -51 -65 -66 -79 -80 -92 -93 -116 -117 -136 -137 0
-18 -34 -36 -50 -51 -65 -66 -79 -80 -92 -93 -116 -117 -136 -137 0
-19 -34 -37 -50 -51 -65 -66 -79 -80 -92 -93 -116 -117 -136 -137 0
-18 -35 -36 -50 -52 -65 -66 -79 -80 -92 -93 -116 -117 -136 -137 0
-19 -35 -37 -50 -52 -65 -66 -79 -80 -92 -93 -116 -117 -136 -137 0
-19 -36 -37 -50 -53 -65 -66 -79 -80 -92 -93 -116 -117 -136 -137 0
-18 -35 -36 -51 -52 -65 -67 -79 -80 -92 -93 -116 -117 -136 -137 0
-19 -35 -37 -51 -52 -65 -67 -79 -80 -92 -93 -116 -117 -136 -137 0
-19 -36 -37 -51 -53 -65 -67 -79 -80 -92 -93 -116 -117 -136 -137 0
-19 -36 -37 -52 -53 -65 -68 -79 -80 -92 -93 -116 -117 -136 -137 0
-18 -35 -36 -51 -52 -66 -67 -79 -81 -92 -93 -116 -117 -136 -137 0
-19 -35 -37 -51 -52 -66 -67 -79 -81 -92 -93 -116 -117 -136 -137 0
-19 -36 -37 -51 -53 -66 -67 -79 -81 -92 -93 -116 -117 -136 -137 0
-19 -36 -37 -52 -53 -66 -68 -79 -81 -92 -93 -116 -117 -136 -137 0
-19 -36 -37 -52 -53 -67 -68 -79 -82 -92 -93 -116 -117 -136 -137 0
-18 -35 -36 -51 -52 -66 -67 -80 -81 -92 -94 -116 -117 -136 -137 0
-19 -35 -37 -51 -52 -66 -67 -80 -81 -92 -94 -116 -117 -136 -137 0
-19 -36 -37 -51 -53 -66 -67 -80 -81 -92 -94 -116 -117 -136 -137 0
-19 -36 -37 -52 -53 -66 -68 -80 -81 -92 -94 -116 -117 -136 -137 0
-19 -36 -37 -52 -53 -67 -68 -80 -82 -92 -94 -116 -117 -136 -137 0
-19 -36 -37 -52 -53 -67 -68 -81 -82 -92 -95 -116 -117 -136 -137 0
-18 -35 -36 -51 -52 -66 -67 -80 -81 -93 -94 -116 -118 -136 -137 0
-19 -35 -37 -51 -52 -66 -67 -80 -81 -93 -94 -116 -118 -136 -137 0
-19 -36 -37 -51 -53 -66 -67 -80 -81 -93 -94 -116 -118 -136 -137 0
-19 -36 -37 -52 -53 -66 -68 -80 -81 -93 -94 -116 -118 -136 -137 0
-19 -36 -37 -52 -53 -67 -68 -80 -82 -93 -94 -116 -118 -136 -137 0
-19 -36 -37 -52 -53 -67 -68 -81 -82 -93 -95 -116 -118 -136 -137 0
-19 -36 -37 -52 -53 -67 -68 -81 -82 -94 -95 -116 -119 -136 -137 0
-18 -35 -36 -51 -52 -66 -67 -80 -81 -93 -94 -117 -118 -136 -138 0
-19 -35 -37 -51 -52 -66 -67 -80 -81 -93 -94 -117 -118 -136 -138 0
-19 -36 -37 -51 -53 -66 -67 -80 -81 -93 -94 -117 -118 -136 -138 0
-19 -36 -37 -52 -53 -66 -68 -80 -81 -93 -94 -117 -118 -136 -138 0
-19 -36 -37 -52 -53 -67 -68 -80 -82 -93 -94 -117 -118 -136 -138 0
-19 -36 -37 -52 -53 -67 -68 -81 -82 -93 -95 -117 -118 -136 -138 0
-19 -36 -37 -52 -53 -67 -68 -81 -82 -94 -95 -117 -119 -136 -138 0
-19 -36 -37 -52 -53 -67 -68 -81 -82 -94 -95 -118 -119 -136 -139 0
-18 -35 -36 -51 -52 -66 -67 -80 -81 -93 -94 -117 -118 -137 -138 0
-19 -35 -37 -51 -52 -66 -67 -80 -81 -93 -94 -117 -118 -137 -138 0
-19 -36 -37 -51 -53 -66 -67 -80 -81 -93 -94 -117 -118 -137 -138 0
-19 -36 -37 -52 -53 -66 -68 -80 -81 -93 -94 -117 -118 -137 -138 0
-19 -36 -37 -52 -53 -67 -68 -80 -82 -93 -94 -117 -118 -137 -138 0
-19 -36 -37 -52 -53 -67 -68 -81 -82 -93 -95 -117 -118 -137 -138 0
-19 -36 -37 -52 -53 -67 -68 -81 -82 -94 -95 -117 -119 -137 -138 0
-19 -36 -37 -52 -53 -67 -68 -81 -82 -94 -95 -118 -119 -137 -139 0
-19 -36 -37 -52 -53 -67 -68 -81 -82 -94 -95 -118 -119 -138 -139 0
-18 -35 -36 -51 -52 -66 -67 -80 -81 -93 -94 -117 -118 -146 -147 0
-19 -35 -37 -51 -52 -66 -67 -80 -81 -93 -94 -117 -118 -146 -147 0
-19 -36 -37 -51 -53 -66 -67 -80 -81 -93 -94 -117 -118 -146 -147 0
-19 -36 -37 -52 -53 -66 -68 -80 -81 -93 -94 -117 -118 -146 -147 0
-19 -36 -37 -52 -53 -67 -68 -80 -82 -93 -94 -117 -118 -146 -147 0
-19 -36 -37 -52 -53 -67 -68 -81 -82 -93 -95 -117 -118 -146 -147 0
-19 -36 -37 -52 -53 -67 -68 -81 -82 -94 -95 -117 -119 -146 -147 0
-19 -36 -37 -52 -53 -67 -68 -81 -82 -94 -95 -118 -119 -146 -148 0
-19 -36 -37 -52 -53 -67 -68 -81 -82 -94 -95 -118 -119 -147 -148 0
-19 -36 -37 -52 -53 -67 -68 -81 -82 -94 -95 -118 -119 -155 -156 0
-17 -34 -35 -50 -51 -65 -66 -79 -80 -92 -93 -127 -128 -136 -137 0
-18 -34 -36 -50 -51 -65 -66 -79 -80 -92 -93 -127 -128 -136 -137 0
-19 -34 -37 -50 -51 -65 -66 -79 -80 -92 -93 -127 -128 -136 -137 0
-18 -35 -36 -50 -52 -65 -66 -79 -80 -92 -93 -127 -128 -136 -137 0
-19 -35 -37 -50 -52 -65 -66 -79 -80 -92 -93 -127 -128 -136 -137 0
-19 -36 -37 -50 -53 -65 -66 -79 -80 -92 -93 -127 -128 -136 -137 0
-18 -35 -36 -51 -52 -65 -67 -79 -80 -92 -93 -127 -128 -136 -137 0
-19 -35 -37 -51 -52 -65 -67 -79 -80 -92 -93 -127 -128 -136 -137 0
-19 -36 -37 -51 -53 -65 -67 -79 -80 -92 -93 -127 -128 -136 -137 0
-19 -36 -37 -52 -53 -65 -68 -79 -80 -92 -93 -127 -128 -136 -137 0
-18 -35 -36 -51 -52 -66 -67 -79 -81 -92 -93 -127 -128 -136 -137 0
-19 -35 -37 -51 -52 -66 -67 -79 -81 -92 -93 -127 -128 -136 -137 0
-19 -36 -37 -51 -53 -66 -67 -79 -81 -92 -93 -127 -128 -136 -137 0
-19 -36 -37 -52 -53 -66 -68 -79 -81 -92 -93 -127 -128 -136 -137 0
-19 -36 -37 -52 -53 -67 -68 -79 -82 -92 -93 -127 -128 -136 -137 0
-18 -35 -36 -51 -52 -66 -67 -80 -81 -92 -94 -127 -128 -136 -137 0
-19 -35 -37 -51 -52 -66 -67 -80 -81 -92 -94 -127 -128 -136 -137 0
-19 -36 -37 -51 -53 -66 -67 -80 -81 -92 -94 -127 -128 -136 -137 0
-19 -36 -37 -52 -53 -66 -68 -80 -81 -92 -94 -127 -128 -136 -137 0
-19 -36 -37 -52 -53 -67 -68 -80 -82 -92 -94 -127 -128 -136 -137 0
-19 -36 -37 -52 -53 -67 -68 -81 -82 -92 -95 -127 -128 -136 -137 0
-18 -35 -36 -51 -52 -66 -67 -80 -81 -93 -94 -127 -129 -136 -137 0
-19 -35 -37 -51 -52 -66 -67 -80 -81 -93 -94 -127 -129 -136 -137 0
-19 -36 -37 -51 -53 -66 -67 -80 -81 -93 -94 -127 -129 -136 -137 0
-19 -36 -37 -52 -53 -66 -68 -80 -81 -93 -94 -127 -129 -136 -137 0
-19 -36 -37 -52 -53 -67 -68 -80 -82 -93 -94 -127 -129 -136 -137 0
-19 -36 -37 -52 -53 -67 -68 -81 -82 -93 -95 -127 -129 -136 -137 0
-19 -36 -37 -52 -53 -67 -68 -81 -82 -94 -95 -127 -130 -136 -137 0
-18 -35 -36 -51 -52 -66 -67 -80 -81 -93 -94 -128 -129 -136 -138 0
-19 -35 -37 -51 -52 -66 -67 -80 -81 -93 -94 -128 -129 -136 -138 0
-19 -36 -37 -51 -53 -66 -67 -80 -81 -93 -94 -128 -129 -136 -138 0
-19 -36 -37 -52 -53 -66 -68 -80 -81 -93 -94 -128 -129 -136 -138 0
-19 -36 -37 -52 -53 -67 -68 -80 -82 -93 -94 -128 -129 -136 -138 0
-19 -36 -37 -52 -53 -67 -68 -81 -82 -93 -95 -128 -129 -136 -138 0
-19 -36 -37 -52 -53 -67 -68 -81 -82 -94 -95 -128 -130 -136 -138 0
-19 -36 -37 -52 -53 -67 -68 -81 -82 -94 -95 -129 -130 -136 -139 0
-18 -35 -36 -51 -52 -66 -67 -80 -81 -93 -94 -128 -129 -137 -138 0
-19 -35 -37 -51 -52 -66 -67 -80 -81 -93 -94 -128 -129 -137 -138 0
-19 -36 -37 -51 -53 -66 -67 -80 -81 -93 -94 -128 -129 -137 -138 0
-19 -36 -37 -52 -53 -66 -68 -80 -81 -93 -94 -128 -129 -137 -138 0
-19 -36 -37 -52 -53 -67 -68 -80 -82 -93 -94 -128 -129 -137 -138 0
-19 -36 -37 -52 -53 -67 -68 -81 -82 -93 -95 -128 -129 -137 -138 0
-19 -36 -37 -52 -53 -67 -68 -81 -82 -94 -95 -128 -130 -137 -138 0
-19 -36 -37 -52 -53 -67 -68 -81 -82 -94 -95 -129 -130 -137 -139 0
-19 -36 -37 -52 -53 -67 -68 -81 -82 -94 -95 -129 -130 -138 -139 0
-18 -35 -36 -51 -52 -66 -67 -80 -81 -93 -94 -128 -129 -146 -147 0
-19 -35 -37 -51 -52 -66 -67 -80 -81 -93 -94 -128 -129 -146 -147 0
-19 -36 -37 -51 -53 -66 -67 -80 -81 -93 -94 -128 -129 -146 -147 0
-19 -36 -37 -52 -53 -66 -68 -80 -81 -93 -94 -128 -129 -146 -147 0
-19 -36 -37 -52 -53 -67 -68 -80 -82 -93 -94 -128 -129 -146 -147 0
-19 -36 -37 -52 -53 -67 -68 -81 -82 -93 -95 -128 -129 -146 -147 0
-19 -36 -37 -52 -53 -67 -68 -81 -82 -94 -95 -128 -130 -146 -147 0
-19 -36 -37 -52 -53 -67 -68 -81 -82 -94 -95 -129 -130 -146 -148 0
-19 -36 -37 -52 -53 -67 -68 -81 -82 -94 -95 -129 -130 -147 -148 0
-19 -36 -37 -52 -53 -67 -68 -81 -82 -94 -95 -129 -130 -155 -156 0
-18 -35 -36 -51 -52 -66 -67 -80 -81 -93 -94 -138 -139 -146 -147 0
-19 -35 -37 -51 -52 -66 -67 -80 -81 -93 -94 -138 -139 -146 -147 0
-19 -36 -37 -51 -53 -66 -67 -80 -81 -93 -94 -138 -139 -146 -147 0
-19 -36 -37 -52 -53 -66 -68 -80 -81 -93 -94 -138 -139 -146 -147 0
-19 -36 -37 -52 -53 -67 -68 -80 -82 -93 -94 -138 -139 -146 -147 0
-19 -36 -37 -52 -53 -67 -68 -81 -82 -93 -95 -138 -139 -146 -147 0
-19 -36 -37 -52 -53 -67 -68 -81 -82 -94 -95 -138 -140 -146 -147 0
-19 -36 -37 -52 -53 -67 -68 -81 -82 -94 -95 -139 -140 -146 -148 0
-19 -36 -37 -52 -53 -67 -68 -81 -82 -94 -95 -139 -140 -147 -148 0
-19 -36 -37 -52 -53 -67 -68 -81 -82 -94 -95 -139 -140 -155 -156 0
-19 -36 -37 -52 -53 -67 -68 -81 -82 -94 -95 -148 -149 -155 -156 0
-16 -33 -34 -49 -50 -64 -65 -78 -79 -104 -105 -115 -116 -125 -126 0
-17 -33 -35 -49 -50 -64 -65 -78 -79 -104 -105 -115 -116 -125 -126 0
-18 -33 -36 -49 -50 -64 -65 -78 -79 -104 -105 -115 -116 -125 -126 0
-19 -33 -37 -49 -50 -64 -65 -78 -79 -104 -105 -115 -116 -125 -126 0
-17 -34 -35 -49 -51 -64 -65 -78 -79 -104 -105 -115 -116 -125 -126 0
-18 -34 -36 -49 -51 -64 -65 -78 -79 -104 -105 -115 -116 -125 -126 0
-19 -34 -37 -49 -51 -64 -65 -78 -79 -104 -105 -115 -116 -125 -126 0
-18 -35 -36 -49 -52 -64 -65 -78 -79 -104 -105 -115 -116 -125 -126 0
-19 -35 -37 -49 -52 -64 -65 -78 -79 -104 -105 -115 -116 -125 -126 0
-19 -36 -37 -49 -53 -64 -65 -78 -79 -104 -105 -115 -116 -125 -126 0
-17 -34 -35 -50 -51 -64 -66 -78 -79 -104 -105 -115 -116 -125 -126 0
-18 -34 -36 -50 -51 -64 -66 -78 -79 -104 -105 -115 -116 -125 -126 0
-19 -34 -37 -50 -51 -64 -66 -78 -79 -104 -105 -115 -116 -125 -126 0
-18 -35 -36 -50 -52 -64 -66 -78 -79 -104 -105 -115 -116 -125 -126 0
-19 -35 -37 -50 -52 -64 -66 -78 -79 -104 -105 -115 -116 -125 -126 0
-19 -36 -37 -50 -53 -64 -66 -78 -79 -104 -105 -115 -116 -125 -126 0
-18 -35 -36 -51 -52 -64 -67 -78 -79 -104 -105 -115 -116 -125 -126 0
-19 -35 -37 -51 -52 -64 -67 -78 -79 -104 -105 -115 -116 -125 -126 0
-19 -36 -37 -51 -53 -64 -67 -78 -79 -104 -105 -115 -116 -125 -126 0
-19 -36 -37 -52 -53 -64 -68 -78 -79 -104 -105 -115 -116 -125 -126 0
-17 -34 -35 -50 -51 -65 -66 -78 -80 -104 -105 -115 -116 -125 -126 0
-18 -34 -36 -50 -51 -65 -66 -78 -80 -104 -105 -115 -116 -125 -126 0
-19 -34 -37 -50 -51 -65 -66 -78 -80 -104 -105 -115 -116 -125 -126 0
-18 -35 -36 -50 -52 -65 -66 -78 -80 -104 -105 -115 -116 -125 -126 0
-19 -35 -37 -50 -52 -65 -66 -78 -80 -104 -105 -115 -116 -125 -126 0
-19 -36 -37 -50 -53 -65 -66 -78 -80 -104 -105 -115 -116 -125 -126 0
-18 -35 -36 -51 -52 -65 -67 -78 -80 -104 -105 -115 -116 -125 -126 0
-19 -35 -37 -51 -52 -65 -67 -78 -80 -104 -105 -115 -116 -125 -126 0
-19 -36 -37 -51 -53 -65 -67 -78 -80 -104 -105 -115 -116 -125 -126 0
-19 -36 -37 -52 -53 -65 -68 -78 -80 -104 -105 -115 -116 -125 -126 0
-18 -35 -36 -51 -52 -66 -67 -78 -81 -104 -105 -115 -116 -125 -126 0
-19 -35 -37 -51 -52 -66 -67 -78 -81 -104 -105 -115 -116 -125 -126 0
-19 -36 -37 -51 -53 -66 -67 -78 -81 -104 -105 -115 -116 -125 -126 0
-19 -36 -37 -52 -53 -66 -68 -78 -81 -104 -105 -115 -116 -125 -126 0
-19 -36 -37 -52 -53 -67 -68 -78 -82 -104 -105 -115 -116 -125 -126 0
-17 -34 -35 -50 -51 -65 -66 -79 -80 -104 -106 -115 -116 -125 -126 0
-18 -34 -36 -50 -51 -65 -66 -79 -80 -104 -106 -115 -116 -125 -126 0
-19 -34 -37 -50 -51 -65 -66 -79 -80 -104 -106 -115 -116 -125 -126 0
-18 -35 -36 -50 -52 -65 -66 -79 -80 -104 -106 -115 -116 -125 -126 0
-19 -35 -37 -50 -52 -65 -66 -79 -80 -104 -106 -115 -116 -125 -126 0
-19 -36 -37 -50 -53 -65 -66 -79 -80 -104 -106 -115 -116 -125 -126 0
-18 -35 -36 -51 -52 -65 -67 -79 -80 -104 -106 -115 -116 -125 -126 0
-19 -35 -37 -51 -52 -65 -67 -79 -80 -104 -106 -115 -116 -125 -126 0
-19 -36 -37 -51 -53 -65 -67 -79 -80 -104 -106 -115 -116 -125 -126 0
-19 -36 -37 -52 -53 -65 -68 -79 -80 -104 -106 -115 -116 -125 -126 0
-18 -35 -36 -51 -52 -66 -67 -79 -81 -104 -106 -115 -116 -125 -126 0
-19 -35 -37 -51 -52 -66 -67 -79 -81 -104 -106 -115 -116 -125 -126 0
-19 -36 -37 -51 -53 -66 -67 -79 -81 -104 -106 -115 -116 -125 -126 0
-19 -36 -37 -52 -53 -66 -68 -79 -81 -104 -106 -115 -116 -125 -126 0
-19 -36 -37 -52 -53 -67 -68 -79 -82 -104 -106 -115 -116 -125 -126 0
-18 -35 -36 -51 -52 -66 -67 -80 -81 -104 -107 -115 -116 -125 -126 0
-19 -35 -37 -51 -52 -66 -67 -80 -81 -104 -107 -115 -116 -125 -126 0
-19 -36 -37 -51 -53 -66 -67 -80 -81 -104 -107 -115 -116 -125 -126 0
-19 -36 -37 -52 -53 -66 -68 -80 -81 -104 -107 -115 -116 -125 -126 0
-19 -36 -37 -52 -53 -67 -68 -80 -82 -104 -107 -115 -116 -125 -126 0
-19 -36 -37 -52 -53 -67 -68 -81 -82 -104 -108 -115 -116 -125 -126 0
-17 -34 -35 -50 -51 -65 -66 -79 -80 -105 -106 -115 -117 -125 -126 0
-18 -34 -36 -50 -51 -65 -66 -79 -80 -105 -106 -115 -117 -125 -126 0
-19 -34 -37 -50 -51 -65 -66 -79 -80 -105 -106 -115 -117 -125 -126 0
-18 -35 -36 -50 -52 -65 -66 -79 -80 -105 -106 -115 -117 -125 -126 0
-19 -35 -37 -50 -52 -65 -66 -79 -80 -105 -106 -115 -117 -125 -126 0
-19 -36 -37 -50 -53 -65 -66 -79 -80 -105 -106 -115 -117 -125 -126 0
-18 -35 -36 -51 -52 -65 -67 -79 -80 -105 -106 -115 -117 -125 -126 0
-19 -35 -37 -51 -52 -65 -67 -79 -80 -105 -106 -115 -117 -125 -126 0
-19 -36 -37 -51 -53 -65 -67 -79 -80 -105 -106 -115 -117 -125 -126 0
-19 -36 -37 -52 -53 -65 -68 -79 -80 -105 -106 -115 -117 -125 -126 0
-18 -35 -36 -51 -52 -66 -67 -79 -81 -105 -106 -115 -117 -125 -126 0
-19 -35 -37 -51 -52 -66 -67 -79 -81 -105 -106 -115 -117 -125 -126 0
-19 -36 -37 -51 -53 -66 -67 -79 -81 -105 -106 -115 -117 -125 -126 0
-19 -36 -37 -52 -53 -66 -68 -79 -81 -105 -106 -115 -117 -125 -126 0
-19 -36 -37 -52 -53 -67 -68 -79 -82 -105 -106 -115 -117 -125 -126 0
-18 -35 -36 -51 -52 -66 -67 -80 -81 -105 -107 -115 -117 -125 -126 0
-19 -35 -37 -51 -52 -66 -67 -80 -81 -105 -107 -115 -117 -125 -126 0
-19 -36 -37 -51 -53 -66 -67 -80 -81 -105 -107 -115 -117 -125 -126 0
-19 -36 -37 -52 -53 -66 -68 -80 -81 -105 -107 -115 -117 -125 -126 0
-19 -36 -37 -52 -53 -67 -68 -80 -82 -105 -107 -115 -117 -125 -126 0
-19 -36 -37 -52 -53 -67 -68 -81 -82 -105 -108 -115 -117 -125 -126 0
-18 -35 -36 -51 -52 -66 -67 -80 -81 -106 -107 -115 -118 -125 -126 0
-19 -35 -37 -51 -52 -66 -67 -80 -81 -106 -107 -115 -118 -125 -126 0
-19 -36 -37 -51 -53 -66 -67 -80 -81 -106 -107 -115 -118 -125 -126 0
-19 -36 -37 -52 -53 -66 -68 -80 -81 -106 -107 -115 -118 -125 -126 0
-19 -36 -37 -52 -53 -67 -68 -80 -82 -106 -107 -115 -118 -125 -126 0
-19 -36 -37 -52 -53 -67 -68 -81 -82 -106 -108 -115 -118 -125 -126 0
-19 -36 -37 -52 -53 -67 -68 -81 -82 -107 -108 -115 -119 -125 -126 0
-17 -34 -35 -50 -51 -65 -66 -79 -80 -105 -106 -116 -117 -125 -127 0
-18 -34 -36 -50 -51 -65 -66 -79 -80 -105 -106 -116 -117 -125 -127 0
-19 -34 -37 -50 -51 -65 -66 -79 -80 -105 -106 -116 -117 -125 -127 0
-18 -35 -36 -50 -52 -65 -66 -79 -80 -105 -106 -116 -117 -125 -127 0
-19 -35 -37 -50 -52 -65 -66 -79 -80 -105 -106 -116 -117 -125 -127 0
-19 -36 -37 -50 -53 -65 -66 -79 -80 -105 -106 -116 -117 -125 -127 0
-18 -35 -36 -51 -52 -65 -67 -79 -80 -105 -106 -116 -117 -125 -127 0
-19 -35 -37 -51 -52 -65 -67 -79 -80 -105 -106 -116 -117 -125 -127 0
-19 -36 -37 -51 -53 -65 -67 -79 -80 -105 -106 -116 -117 -125 -127 0
-19 -36 -37 -52 -53 -65 -68 -79 -80 -105 -106 -116 -117 -125 -127 0
-18 -35 -36 -51 -52 -66 -67 -79 -81 -105 -106 -116 -117 -125 -127 0
-19 -35 -37 -51 -52 -66 -67 -79 -81 -105 -106 -116 -117 -125 -127 0
-19 -36 -37 -51 -53 -66 -67 -79 -81 -105 -106 -116 -117 -125 -127 0
-19 -36 -37 -52 -53 -66 -68 -79 -81 -105 -106 -116 -117 -125 -127 0
-19 -36 -37 -52 -53 -67 -68 -79 -82 -105 -106 -116 -117 -125 -127 0
-18 -35 -36 -51 -52 -66 -67 -80 -81 -105 -107 -116 -117 -125 -127 0
-19 -35 -37 -51 -52 -66 -67 -80 -81 -105 -107 -116 -117 -125 -127 0
-19 -36 -37 -51 -53 -66 -67 -80 -81 -105 -107 -116 -117 -125 -127 0
-19 -36 -37 -52 -53 -66 -68 -80 -81 -105 -107 -116 -117 -125 -127 0
-19 -36 -37 -52 -53 -67 -68 -80 -82 -105 -107 -116 -117 -125 -127 0
-19 -36 -37 -52 -53 -67 -68 -81 -82 -105 -108 -116 -117 -125 -127 0
-18 -35 -36 -51 -52 -66 -67 -80 -81 -106 -107 -116 -118 -125 -127 0
-19 -35 -37 -51 -52 -66 -67 -80 -81 -106 -107 -116 -118 -125 -127 0
-19 -36 -37 -51 -53 -66 -67 -80 -81 -106 -107 -116 -118 -125 -127 0
-19 -36 -37 -52 -53 -66 -68 -80 -81 -106 -107 -116 -118 -125 -127 0
-19 -36 -37 -52 -53 -67 -68 -80 -82 -106 -107 -116 -118 -125 -127 0
-19 -36 -37 -52 -53 -67 -68 -81 -82 -106 -108 -116 -118 -125 -127 0
-19 -36 -37 -52 -53 -67 -68 -81 -82 -107 -108 -116 -119 -125 -127 0
-18 -35 -36 -51 -52 -66 -67 -80 -81 -106 -107 -117 -118 -125 -128 0
-19 -35 -37 -51 -52 -66 -67 -80 -81 -106 -107 -117 -118 -125 -128 0
-19 -36 -37 -51 -53 -66 -67 -80 -81 -106 -107 -117 -118 -125 -128 0
-19 -36 -37 -52 -53 -66 -68 -80 -81 -106 -107 -117 -118 -125 -128 0
-19 -36 -37 -52 -53 -67 -68 -80 -82 -106 -107 -117 -118 -125 -128 0
-19 -36 -37 -52 -53 -67 -68 -81 -82 -106 -108 -117 -118 -125 -128 0
-19 -36 -37 -52 -53 -67 -68 -81 -82 -107 -108 -117 -119 -125 -128 0
-19 -36 -37 -52 -53 -67 -68 -81 -82 -107 -108 -118 -119 -125 -129 0
-17 -34 -35 -50 -51 -65 -66 -79 -80 -105 -106 -116 -117 -126 -127 0
-18 -34 -36 -50 -51 -65 -66 -79 -80 -105 -106 -116 -117 -126 -127 0
-19 -34 -37 -50 -51 -65 -66 -79 -80 -105 -106 -116 -117 -126 -127 0
-18 -35 -36 -50 -52 -65 -66 -79 -80 -105 -106 -116 -117 -126 -127 0
-19 -35 -37 -50 -52 -65 -66 -79 -80 -105 -106 -116 -117 -126 -127 0
-19 -36 -37 -50 -53 -65 -66 -79 -80 -105 -106 -116 -117 -126 -127 0
-18 -35 -36 -51 -52 -65 -67 -79 -80 -105 -106 -116 -117 -126 -127 0
-19 -35 -37 -51 -52 -65 -67 -79 -80 -105 -106 -116 -117 -126 -127 0
-19 -36 -37 -51 -53 -65 -67 -79 -80 -105 -106 -116 -117 -126 -127 0
-19 -36 -37 -52 -53 -65 -68 -79 -80 -105 -106 -116 -117 -126 -127 0
-18 -35 -36 -51 -52 -66 -67 -79 -81 -105 -106 -116 -117 -126 -127 0
-19 -35 -37 -51 -52 -66 -67 -79 -81 -105 -106 -116 -117 -126 -127 0
-19 -36 -37 -51 -53 -66 -67 -79 -81 -105 -106 -116 -117 -126 -127 0
-19 -36 -37 -52 -53 -66 -68 -79 -81 -105 -106 -116 -117 -126 -127 0
-19 -36 -37 -52 -53 -67 -68 -79 -82 -105 -106 -116 -117 -126 -127 0
-18 -35 -36 -51 -52 -66 -67 -80 -81 -105 -107 -116 -117 -126 -127 0
-19 -35 -37 -51 -52 -66 -67 -80 -81 -105 -107 -116 -117 -126 -127 0
-19 -36 -37 -51 -53 -66 -67 -80 -81 -105 -107 -116 -117 -126 -127 0
-19 -36 -37 -52 -53 -66 -68 -80 -81 -105 -107 -116 -117 -126 -127 0
-19 -36 -37 -52 -53 -67 -68 -80 -82 -105 -107 -116 -117 -126 -127 0
-19 -36 -37 -52 -53 -67 -68 -81 -82 -105 -108 -116 -117 -126 -127 0
-18 -35 -36 -51 -52 -66 -67 -80 -81 -106 -107 -116 -118 -126 -127 0
-19 -35 -37 -51 -52 -66 -67 -80 -81 -106 -107 -116 -118 -126 -127 0
-19 -36 -37 -51 -53 -66 -67 -80 -81 -106 -107 -116 -118 -126 -127 0
-19 -36 -37 -52 -53 -66 -68 -80 -81 -106 -107 -116 -118 -126 -127 0
-19 -36 -37 -52 -53 -67 -68 -80 -82 -106 -107 -116 -118 -126 -127 0
-19 -36 -37 -52 -53 -67 -68 -81 -82 -106 -108 -116 -118 -126 -127 0
-19 -36 -37 -52 -53 -67 -68 -81 -82 -107 -108 -116 -119 -126 -127 0
-18 -35 -36 -51 -52 -66 -67 -80 -81 -106 -107 -117 -118 -126 -128 0
-19 -35 -37 -51 -52 -66 -67 -80 -81 -106 -107 -117 -118 -126 -128 0
-19 -36 -37 -51 -53 -66 -67 -80 -81 -106 -107 -117 -118 -126 -128 0
-19 -36 -37 -52 -53 -66 -68 -80 -81 -106 -107 -117 -118 -126 -128 0
-19 -36 -37 -52 -53 -67 -68 -80 -82 -106 -107 -117 -118 -126 -128 0
-19 -36 -37 -52 -53 -67 -68 -81 -82 -106 -108 -117 -118 -126 -128 0
-19 -36 -37 -52 -53 -67 -68 -81 -82 -107 -108 -117 -119 -126 -128 0
-19 -36 -37 -52 -53 -67 -68 -81 -82 -107 -108 -118 -119 -126 -129 0
-18 -35 -36 -51 -52 -66 -67 -80 -81 -106 -107 -117 -118 -127 -128 0
-19 -35 -37 -51 -52 -66 -67 -80 -81 -106 -107 -117 -118 -127 -128 0
-19 -36 -37 -51 -53 -66 -67 -80 -81 -106 -107 -117 -118 -127 -128 0
-19 -36 -37 -52 -53 -66 -68 -80 -81 -106 -107 -117 -118 -127 -128 0
-19 -36 -37 -52 -53 -67 -68 -80 -82 -106 -107 -117 -118 -127 -128 0
-19 -36 -37 -52 -53 -67 -68 -81 -82 -106 -108 -117 -118 -127 -128 0
-19 -36 -37 -52 -53 -67 -68 -81 -82 -107 -108 -117 -119 -127 -128 0
-19 -36 -37 -52 -53 -67 -68 -81 -82 -107 -108 -118 -119 -127 -129 0
-19 -36 -37 -52 -53 -67 -68 -81 -82 -107 -108 -118 -119 -128 -129 0
-17 -34 -35 -50 -51 -65 -66 -79 -80 -105 -106 -116 -117 -136 -137 0
-18 -34 -36 -50 -51 -65 -66 -79 -80 -105 -106 -116 -117 -136 -137 0
-19 -34 -37 -50 -51 -65 -66 -79 -80 -105 -106 -116 -117 -136 -137 0
-18 -35 -36 -50 -52 -65 -66 -79 -80 -105 -106 -116 -117 -136 -137 0
-19 -35 -37 -50 -52 -65 -66 -79 -80 -105 -106 -116 -117 -136 -137 0
-19 -36 -37 -50 -53 -65 -66 -79 -80 -105 -106 -116 -117 -136 -137 0
-18 -35 -36 -51 -52 -65 -67 -79 -80 -105 -106 -116 -117 -136 -137 0
-19 -35 -37 -51 -52 -65 -67 -79 -80 -105 -106 -116 -117 -136 -137 0
-19 -36 -37 -51 -53 -65 -67 -79 -80 -105 -106 -116 -117 -136 -137 0
-19 -36 -37 -52 -53 -65 -68 -79 -80 -105 -106 -116 -117 -136 -137 0
-18 -35 -36 -51 -52 -66 -67 -79 -81 -105 -106 -116 -117 -136 -137 0
-19 -35 -37 -51 -52 -66 -67 -79 -81 -105 -106 -116 -117 -136 -137 0
-19 -36 -37 -51 -53 -66 -67 -79 -81 -105 -106 -116 -117 -136 -137 0
-19 -36 -37 -52 -53 -66 -68 -79 -81 -105 -106 -116 -117 -136 -137 0
-19 -36 -37 -52 -53 -67 -68 -79 -82 -105 -106 -116 -117 -136 -137 0
-18 -35 -36 -51 -52 -66 -67 -80 -81 -105 -107 -116 -117 -136 -137 0
-19 -35 -37 -51 -52 -66 -67 -80 -81 -105 -107 -116 -117 -136 -137 0
-19 -36 -37 -51 -53 -66 -67 -80 -81 -105 -107 -116 -117 -136 -137 0
-19 -36 -37 -52 -53 -66 -68 -80 -81 -105 -107 -116 -117 -136 -137 0
-19 -36 -37 -52 -53 -67 -68 -80 -82 -105 -107 -116 -117 -136 -137 0
-19 -36 -37 -52 -53 -67 -68 -81 -82 -105 -108 -116 -117 -136 -137 0
-18 -35 -36 -51 -52 -66 -67 -80 -81 -106 -107 -116 -118 -136 -137 0
-19 -35 -37 -51 -52 -66 -67 -80 -81 -106 -107 -116 -118 -136 -137 0
-19 -36 -37 -51 -53 -66 -67 -80 -81 -106 -107 -116 -118 -136 -137 0
-19 -36 -37 -52 -53 -66 -68 -80 -81 -106 -107 -116 -118 -136 -137 0
-19 -36 -37 -52 -53 -67 -68 -80 -82 -106 -107 -116 -118 -136 -137 0
-19 -36 -37 -52 -53 -67 -68 -81 -82 -106 -108 -116 -118 -136 -137 0
-19 -36 -37 -52 -53 -67 -68 -81 -82 -107 -108 -116 -119 -136 -137 0
-18 -35 -36 -51 -52 -66 -67 -80 -81 -106 -107 -117 -118 -136 -138 0
-19 -35 -37 -51 -52 -66 -67 -80 -81 -106 -107 -117 -118 -136 -138 0
-19 -36 -37 -51 -53 -66 -67 -80 -81 -106 -107 -117 -118 -136 -138 0
-19 -36 -37 -52 -53 -66 -68 -80 -81 -106 -107 -117 -118 -136 -138 0
-19 -36 -37 -52 -53 -67 -68 -80 -82 -106 -107 -117 -118 -136 -138 0
-19 -36 -37 -52 -53 -67 -68 -81 -82 -106 -108 -117 -118 -136 -138 0
-19 -36 -37 -52 -53 -67 -68 -81 -82 -107 -108 -117 -119 -136 -138 0
-19 -36 -37 -52 -53 -67 -68 -81 -82 -107 -108 -118 -119 -136 -139 0
-18 -35 -36 -51 -52 -66 -67 -80 -81 -106 -107 -117 -118 -137 -138 0
-19 -35 -37 -51 -52 -66 -67 -80 -81 -106 -107 -117 -118 -137 -138 0
-19 -36 -37 -51 -53 -66 -67 -80 -81 -106 -107 -117 -118 -137 -138 0
-19 -36 -37 -52 -53 -66 -68 -80 -81 -106 -107 -117 -118 -137 -138 0
-19 -36 -37 -52 -53 -67 -68 -80 -82 -106 -107 -117 -118 -137 -138 0
-19 -36 -37 -52 -53 -67 -68 -81 -82 -106 -108 -117 -118 -137 -138 0
-19 -36 -37 -52 -53 -67 -68 -81 -82 -107 -108 -117 -119 -137 -138 0
-19 -36 -37 -52 -53 -67 -68 -81 -82 -107 -108 -118 -119 -137 -139 0
-19 -36 -37 -52 -53 -67 -68 -81 -82 -107 -108 -118 -119 -138 -139 0
-18 -35 -36 -51 -52 -66 -67 -80 -81 -106 -107 -117 -118 -146 -147 0
-19 -35 -37 -51 -52 -66 -67 -80 -81 -106 -107 -117 -118 -146 -147 0
-19 -36 -37 -51 -53 -66 -67 -80 -81 -106 -107 -117 -118 -146 -147 0
-19 -36 -37 -52 -53 -66 -68 -80 -81 -106 -107 -117 -118 -146 -147 0
-19 -36 -37 -52 -53 -67 -68 -80 -82 -106 -107 -117 -118 -146 -147 0
-19 -36 -37 -52 -53 -67 -68 -81 -82 -106 -108 -117 -118 -146 -147 0
-19 -36 -37 -52 -53 -67 -68 -81 -82 -107 -108 -117 -119 -146 -147 0
-19 -36 -37 -52 -53 -67 -68 -81 -82 -107 -108 -118 -119 -146 -148 0
-19 -36 -37 -52 -53 -67 -68 -81 -82 -107 -108 -118 -119 -147 -148 0
-19 -36 -37 -52 -53 -67 -68 -81 -82 -107 -108 -118 -119 -155 -156 0
-17 -34 -35 -50 -51 -65 -66 -79 -80 -105 -106 -127 -128 -136 -137 0
-18 -34 -36 -50 -51 -65 -66 -79 -80 -105 -106 -127 -128 -136 -137 0
-19 -34 -37 -50 -51 -65 -66 -79 -80 -105 -106 -127 -128 -136 -137 0
-18 -35 -36 -50 -52 -65 -66 -79 -80 -105 -106 -127 -128 -136 -137 0
-19 -35 -37 -50 -52 -65 -66 -79 -80 -105 -106 -127 -128 -136 -137 0
-19 -36 -37 -50 -53 -65 -66 -79 -80 -105 -106 -127 -128 -136 -137 0
-18 -35 -36 -51 -52 -65 -67 -79 -80 -105 -106 -127 -128 -136 -137 0
-19 -35 -37 -51 -52 -65 -67 -79 -80 -105 -106 -127 -128 -136 -137 0
-19 -36 -37 -51 -53 -65 -67 -79 -80 -105 -106 -127 -128 -136 -137 0
-19 -36 -37 -52 -53 -65 -68 -79 -80 -105 -106 -127 -128 -136 -137 0
-18 -35 -36 -51 -52 -66 -67 -79 -81 -105 -106 -127 -128 -136 -137 0
-19 -35 -37 -51 -52 -66 -67 -79 -81 -105 -106 -127 -128 -136 -137 0
-19 -36 -37 -51 -53 -66 -67 -79 -81 -105 -106 -127 -128 -136 -137 0
-19 -36 -37 -52 -53 -66 -68 -79 -81 -105 -106 -127 -128 -136 -137 0
-19 -36 -37 -52 -53 -67 -68 -79 -82 -105 -106 -127 -128 -136 -137 0
-18 -35 -36 -51 -52 -66 -67 -80 -81 -105 -107 -127 -128 -136 -137 0
-19 -35 -37 -51 -52 -66 -67 -80 -81 -105 -107 -127 -128 -136 -137 0
-19 -36 -37 -51 -53 -66 -67 -80 -81 -105 -107 -127 -128 -136 -137 0
-19 -36 -37 -52 -53 -66 -68 -80 -81 -105 -107 -127 -128 -136 -137 0
-19 -36 -37 -52 -53 -67 -68 -80 -82 -105 -107 -127 -128 -136 -137 0
-19 -36 -37 -52 -53 -67 -68 -81 -82 -105 -108 -127 -128 -136 -137 0
-18 -35 -36 -51 -52 -66 -67 -80 -81 -106 -107 -127 -129 -136 -137 0
-19 -35 -37 -51 -52 -66 -67 -80 -81 -106 -107 -127 -129 -136 -137 0
-19 -36 -37 -51 -53 -66 -67 -80 -81 -106 -107 -127 -129 -136 -137 0
-19 -36 -37 -52 -53 -66 -68 -80 -81 -106 -107 -127 -129 -136 -137 0
-19 -36 -37 -52 -53 -67 -68 -80 -82 -106 -107 -127 -129 -136 -137 0
-19 -36 -37 -52 -53 -67 -68 -81 -82 -106 -108 -127 -129 -136 -137 0
-19 -36 -37 -52 -53 -67 -68 -81 -82 -107 -108 -127 -130 -136 -137 0
-18 -35 -36 -51 -52 -66 -67 -80 -81 -106 -107 -128 -129 -136 -138 0
-19 -35 -37 -51 -52 -66 -67 -80 -81 -106 -107 -128 -129 -136 -138 0
-19 -36 -37 -51 -53 -66 -67 -80 -81 -106 -107 -128 -129 -136 -138 0
-19 -36 -37 -52 -53 -66 -68 -80 -81 -106 -107 -128 -129 -136 -138 0
-19 -36 -37 -52 -53 -67 -68 -80 -82 -106 -107 -128 -129 -136 -138 0
-19 -36 -37 -52 -53 -67 -68 -81 -82 -106 -108 -128 -129 -136 -138 0
-19 -36 -37 -52 -53 -67 -68 -81 -82 -107 -108 -128 -130 -136 -138 0
-19 -36 -37 -52 -53 -67 -68 -81 -82 -107 -108 -129 -130 -136 -139 0
-18 -35 -36 -51 -52 -66 -67 -80 -81 -106 -107 -128 -129 -137 -138 0
-19 -35 -37 -51 -52 -66 -67 -80 -81 -106 -107 -128 -129 -137 -138 0
-19 -36 -37 -51 -53 -66 -67 -80 -81 -106 -107 -128 -129 -137 -138 0
-19 -36 -37 -52 -53 -66 -68 -80 -81 -106 -107 -128 -129 -137 -138 0
-19 -36 -37 -52 -53 -67 -68 -80 -82 -106 -107 -128 -129 -137 -138 0
-19 -36 -37 -52 -53 -67 -68 -81 -82 -106 -108 -128 -129 -137 -138 0
-19 -36 -37 -52 -53 -67 -68 -81 -82 -107 -108 -128 -130 -137 -138 0
-19 -36 -37 -52 -53 -67 -68 -81 -82 -107 -108 -129 -130 -137 -139 0
-19 -36 -37 -52 -53 -67 -68 -81 -82 -107 -108 -129 -130 -138 -139 0
-18 -35 -36 -51 -52 -66 -67 -80 -81 -106 -107 -128 -129 -146 -147 0
-19 -35 -37 -51 -52 -66 -67 -80 -81 -106 -107 -128 -129 -146 -147 0
-19 -36 -37 -51 -53 -66 -67 -80 -81 -106 -107 -128 -129 -146 -147 0
-19 -36 -37 -52 -53 -66 -68 -80 -81 -106 -107 -128 -129 -146 -147 0
-19 -36 -37 -52 -53 -67 -68 -80 -82 -106 -107 -128 -129 -146 -147 0
-19 -36 -37 -52 -53 -67 -68 -81 -82 -106 -108 -128 -129 -146 -147 0
-19 -36 -37 -52 -53 -67 -68 -81 -82 -107 -108 -128 -130 -146 -147 0
-19 -36 -37 -52 -53 -67 -68 -81 -82 -107 -108 -129 -130 -146 -148 0
-19 -36 -37 -52 -53 -67 -68 -81 -82 -107 -108 -129 -130 -147 -148 0
-19 -36 -37 -52 -53 -67 -68 -81 -82 -107 -108 -129 -130 -155 -156 0
-18 -35 -36 -51 -52 -66 -67 -80 -81 -106 -107 -138 -139 -146 -147 0
-19 -35 -37 -51 -52 -66 -67 -80 -81 -106 -107 -138 -139 -146 -147 0
-19 -36 -37 -51 -53 -66 -67 -80 -81 -106 -107 -138 -139 -146 -147 0
-19 -36 -37 -52 -53 -66 -68 -80 -81 -106 -107 -138 -139 -146 -147 0
-19 -36 -37 -52 -53 -67 -68 -80 -82 -106 -107 -138 -139 -146 -147 0
-19 -36 -37 -52 -53 -67 -68 -81 -82 -106 -108 -138 -139 -146 -147 0
-19 -36 -37 -52 -53 -67 -68 -81 -82 -107 -108 -138 -140 -146 -147 0
-19 -36 -37 -52 -53 -67 -68 -81 -82 -107 -108 -139 -140 -146 -148 0
-19 -36 -37 -52 -53 -67 -68 -81 -82 -107 -108 -139 -140 -147 -148 0
-19 -36 -37 -52 -53 -67 -68 -81 -82 -107 -108 -139 -140 -155 -156 0
-19 -36 -37 -52 -53 -67 -68 -81 -82 -107 -108 -148 -149 -155 -156 0
-17 -34 -35 -50 -51 -65 -66 -79 -80 -117 -118 -127 -128 -136 -137 0
-18 -34 -36 -50 -51 -65 -66 -79 -80 -117 -118 -127 -128 -136 -137 0
-19 -34 -37 -50 -51 -65 -66 -79 -80 -117 -118 -127 -128 -136 -137 0
-18 -35 -36 -50 -52 -65 -66 -79 -80 -117 -118 -127 -128 -136 -137 0
-19 -35 -37 -50 -52 -65 -66 -79 -80 -117 -118 -127 -128 -136 -137 0
-19 -36 -37 -50 -53 -65 -66 -79 -80 -117 -118 -127 -128 -136 -137 0
-18 -35 -36 -51 -52 -65 -67 -79 -80 -117 -118 -127 -128 -136 -137 0
-19 -35 -37 -51 -52 -65 -67 -79 -80 -117 -118 -127 -128 -136 -137 0
-19 -36 -37 -51 -53 -65 -67 -79 -80 -117 -118 -127 -128 -136 -137 0
-19 -36 -37 -52 -53 -65 -68 -79 -80 -117 -118 -127 -128 -136 -137 0
-18 -35 -36 -51 -52 -66 -67 -79 -81 -117 -118 -127 -128 -136 -137 0
-19 -35 -37 -51 -52 -66 -67 -79 -81 -117 -118 -127 -128 -136 -137 0
-19 -36 -37 -51 -53 -66 -67 -79 -81 -117 -118 -127 -128 -136 -137 0
-19 -36 -37 -52 -53 -66 -68 -79 -81 -117 -118 -127 -128 -136 -137 0
-19 -36 -37 -52 -53 -67 -68 -79 -82 -117 -118 -127 -128 -136 -137 0
-18 -35 -36 -51 -52 -66 -67 -80 -81 -117 -119 -127 -128 -136 -137 0
-19 -35 -37 -51 -52 -66 -67 -80 -81 -117 -119 -127 -128 -136 -137 0
-19 -36 -37 -51 -53 -66 -67 -80 -81 -117 -119 -127 -128 -136 -137 0
-19 -36 -37 -52 -53 -66 -68 -80 -81 -117 -119 -127 -128 -136 -137 0
-19 -36 -37 -52 -53 -67 -68 -80 -82 -117 -119 -127 -128 -136 -137 0
-19 -36 -37 -52 -53 -67 -68 -81 -82 -117 -120 -127 -128 -136 -137 0
-18 -35 -36 -51 -52 -66 -67 -80 -81 -118 -119 -127 -129 -136 -137 0
-19 -35 -37 -51 -52 -66 -67 -80 -81 -118 -119 -127 -129 -136 -137 0
-19 -36 -37 -51 -53 -66 -67 -80 -81 -118 -119 -127 -129 -136 -137 0
-19 -36 -37 -52 -53 -66 -68 -80 -81 -118 -119 -127 -129 -136 -137 0
-19 -36 -37 -52 -53 -67 -68 -80 -82 -118 -119 -127 -129 -136 -137 0
-19 -36 -37 -52 -53 -67 -68 -81 -82 -118 -120 -127 -129 -136 -137 0
-19 -36 -37 -52 -53 -67 -68 -81 -82 -119 -120 -127 -130 -136 -137 0
-18 -35 -36 -51 -52 -66 -67 -80 -81 -118 -119 -128 -129 -136 -138 0
-19 -35 -37 -51 -52 -66 -67 -80 -81 -118 -119 -128 -129 -136 -138 0
-19 -36 -37 -51 -53 -66 -67 -80 -81 -118 -119 -128 -129 -136 -138 0
-19 -36 -37 -52 -53 -66 -68 -80 -81 -118 -119 -128 -129 -136 -138 0
-19 -36 -37 -52 -53 -67 -68 -80 -82 -118 -119 -128 -129 -136 -138 0
-19 -36 -37 -52 -53 -67 -68 -81 -82 -118 -120 -128 -129 -136 -138 0
-19 -36 -37 -52 -53 -67 -68 -81 -82 -119 -120 -128 -130 -136 -138 0
-19 -36 -37 -52 -53 -67 -68 -81 -82 -119 -120 -129 -130 -136 -139 0
-18 -35 -36 -51 -52 -66 -67 -80 -81 -118 -119 -128 -129 -137 -138 0
-19 -35 -37 -51 -52 -66 -67 -80 -81 -118 -119 -128 -129 -137 -138 0
-19 -36 -37 -51 -53 -66 -67 -80 -81 -118 -119 -128 -129 -137 -138 0
-19 -36 -37 -52 -53 -66 -68 -80 -81 -118 -119 -128 -129 -137 -138 0
-19 -36 -37 -52 -53 -67 -68 -80 -82 -118 -119 -128 -129 -137 -138 0
-19 -36 -37 -52 -53 -67 -68 -81 -82 -118 -120 -128 -129 -137 -138 0
-19 -36 -37 -52 -53 -67 -68 -81 -82 -119 -120 -128 -130 -137 -138 0
-19 -36 -37 -52 -53 -67 -68 -81 -82 -119 -120 -129 -130 -137 -139 0
-19 -36 -37 -52 -53 -67 -68 -81 -82 -119 -120 -129 -130 -138 -139 0
-18 -35 -36 -51 -52 -66 -67 -80 -81 -118 -119 -128 -129 -146 -147 0
-19 -35 -37 -51 -52 -66 -67 -80 -81 -118 -119 -128 -129 -146 -147 0
-19 -36 -37 -51 -53 -66 -67 -80 -81 -118 -119 -128 -129 -146 -147 0
-19 -36 -37 -52 -53 -66 -68 -80 -81 -118 -119 -128 -129 -146 -147 0
-19 -36 -37 -52 -53 -67 -68 -80 -82 -118 -119 -128 -129 -146 -147 0
-19 -36 -37 -52 -53 -67 -68 -81 -82 -118 -120 -128 -129 -146 -147 0
-19 -36 -37 -52 -53 -67 -68 -81 -82 -119 -120 -128 -130 -146 -147 0
-19 -36 -37 -52 -53 -67 -68 -81 -82 -119 -120 -129 -130 -146 -148 0
-19 -36 -37 -52 -53 -67 -68 -81 -82 -119 -120 -129 -130 -147 -148 0
-19 -36 -37 -52 -53 -67 -68 -81 -82 -119 -120 -129 -130 -155 -156 0
-18 -35 -36 -51 -52 -66 -67 -80 -81 -118 -119 -138 -139 -146 -147 0
-19 -35 -37 -51 -52 -66 -67 -80 -81 -118 -119 -138 -139 -146 -147 0
-19 -36 -37 -51 -53 -66 -67 -80 -81 -118 -119 -138 -139 -146 -147 0
-19 -36 -37 -52 -53 -66 -68 -80 -81 -118 -119 -138 -139 -146 -147 0
-19 -36 -37 -52 -53 -67 -68 -80 -82 -118 -119 -138 -139 -146 -147 0
-19 -36 -37 -52 -53 -67 -68 -81 -82 -118 -120 -138 -139 -146 -147 0
-19 -36 -37 -52 -53 -67 -68 -81 -82 -119 -120 -138 -140 -146 -147 0
-19 -36 -37 -52 -53 -67 -68 -81 -82 -119 -120 -139 -140 -146 -148 0
-19 -36 -37 -52 -53 -67 -68 -81 -82 -119 -120 -139 -140 -147 -148 0
-19 -36 -37 -52 -53 -67 -68 -81 -82 -119 -120 -139 -140 -155 -156 0
-19 -36 -37 -52 -53 -67 -68 -81 -82 -119 -120 -148 -149 -155 -156 0
-18 -35 -36 -51 -52 -66 -67 -80 -81 -129 -130 -138 -139 -146 -147 0
-19 -35 -37 -51 -52 -66 -67 -80 -81 -129 -130 -138 -139 -146 -147 0
-19 -36 -37 -51 -53 -66 -67 -80 -81 -129 -130 -138 -139 -146 -147 0
-19 -36 -37 -52 -53 -66 -68 -80 -81 -129 -130 -138 -139 -146 -147 0
-19 -36 -37 -52 -53 -67 -68 -80 -82 -129 -130 -138 -139 -146 -147 0
-19 -36 -37 -52 -53 -67 -68 -81 -82 -129 -131 -138 -139 -146 -147 0
-19 -36 -37 -52 -53 -67 -68 -81 -82 -130 -131 -138 -140 -146 -147 0
-19 -36 -37 -52 -53 -67 -68 -81 -82 -130 -131 -139 -140 -146 -148 0
-19 -36 -37 -52 -53 -67 -68 -81 -82 -130 -131 -139 -140 -147 -148 0
-19 -36 -37 -52 -53 -67 -68 -81 -82 -130 -131 -139 -140 -155 -156 0
-19 -36 -37 -52 -53 -67 -68 -81 -82 -130 -131 -148 -149 -155 -156 0
-19 -36 -37 -52 -53 -67 -68 -81 -82 -140 -141 -148 -149 -155 -156 0
-16 -33 -34 -49 -50 -64 -65 -92 -93 -104 -105 -115 -116 -125 -126 0
-17 -33 -35 -49 -50 -64 -65 -92 -93 -104 -105 -115 -116 -125 -126 0
-18 -33 -36 -49 -50 -64 -65 -92 -93 -104 -105 -115 -116 -125 -126 0
-19 -33 -37 -49 -50 -64 -65 -92 -93 -104 -105 -115 -116 -125 -126 0
-17 -34 -35 -49 -51 -64 -65 -92 -93 -104 -105 -115 -116 -125 -126 0
-18 -34 -36 -49 -51 -64 -65 -92 -93 -104 -105 -115 -116 -125 -126 0
-19 -34 -37 -49 -51 -64 -65 -92 -93 -104 -105 -115 -116 -125 -126 0
-18 -35 -36 -49 -52 -64 -65 -92 -93 -104 -105 -115 -116 -125 -126 0
-19 -35 -37 -49 -52 -64 -65 -92 -93 -104 -105 -115 -116 -125 -126 0
-19 -36 -37 -49 -53 -64 -65 -92 -93 -104 -105 -115 -116 -125 -126 0
-17 -34 -35 -50 -51 -64 -66 -92 -93 -104 -105 -115 -116 -125 -126 0
-18 -34 -36 -50 -51 -64 -66 -92 -93 -104 -105 -115 -116 -125 -126 0
-19 -34 -37 -50 -51 -64 -66 -92 -93 -104 -105 -115 -116 -125 -126 0
-18 -35 -36 -50 -52 -64 -66 -92 -93 -104 -105 -115 -116 -125 -126 0
-19 -35 -37 -50 -52 -64 -66 -92 -93 -104 -105 -115 -116 -125 -126 0
-19 -36 -37 -50 -53 -64 -66 -92 -93 -104 -105 -115 -116 -125 -126 0
-18 -35 -36 -51 -52 -64 -67 -92 -93 -104 -105 -115 -116 -125 -126 0
-19 -35 -37 -51 -52 -64 -67 -92 -93 -104 -105 -115 -116 -125 -126 0
-19 -36 -37 -51 -53 -64 -67 -92 -93 -104 -105 -115 -116 -125 -126 0
-19 -36 -37 -52 -53 -64 -68 -92 -93 -104 -105 -115 -116 -125 -126 0
-17 -34 -35 -50 -51 -65 -66 -92 -94 -104 -105 -115 -116 -125 -126 0
-18 -34 -36 -50 -51 -65 -66 -92 -94 -104 -105 -115 -116 -125 -126 0
-19 -34 -37 -50 -51 -65 -66 -92 -94 -104 -105 -115 -116 -125 -126 0
-18 -35 -36 -50 -52 -65 -66 -92 -94 -104 -105 -115 -116 -125 -126 0
-19 -35 -37 -50 -52 -65 -66 -92 -94 -104 -105 -115 -116 -125 -126 0
-19 -36 -37 -50 -53 -65 -66 -92 -94 -104 -105 -115 -116 -125 -126 0
-18 -35 -36 -51 -52 -65 -67 -92 -94 -104 -105 -115 -116 -125 -126 0
-19 -35 -37 -51 -52 -65 -67 -92 -94 -104 -105 -115 -116 -125 -126 0
-19 -36 -37 -51 -53 -65 -67 -92 -94 -104 -105 -115 -116 -125 -126 0
-19 -36 -37 -52 -53 -65 -68 -92 -94 -104 -105 -115 -116 -125 -126 0
-18 -35 -36 -51 -52 -66 -67 -92 -95 -104 -105 -115 -116 -125 -126 0
-19 -35 -37 -51 -52 -66 -67 -92 -95 -104 -105 -115 -116 -125 -126 0
-19 -36 -37 -51 -53 -66 -67 -92 -95 -104 -105 -115 -116 -125 -126 0
-19 -36 -37 -52 -53 -66 -68 -92 -95 -104 -105 -115 -116 -125 -126 0
-19 -36 -37 -52 -53 -67 -68 -92 -96 -104 -105 -115 -116 -125 -126 0
-17 -34 -35 -50 -51 -65 -66 -93 -94 -104 -106 -115 -116 -125 -126 0
-18 -34 -36 -50 -51 -65 -66 -93 -94 -104 -106 -115 -116 -125 -126 0
-19 -34 -37 -50 -51 -65 -66 -93 -94 -104 -106 -115 -116 -125 -126 0
-18 -35 -36 -50 -52 -65 -66 -93 -94 -104 -106 -115 -116 -125 -126 0
-19 -35 -37 -50 -52 -65 -66 -93 -94 -104 -106 -115 -116 -125 -126 0
-19 -36 -37 -50 -53 -65 -66 -93 -94 -104 -106 -115 -116 -125 -126 0
-18 -35 -36 -51 -52 -65 -67 -93 -94 -104 -106 -115 -116 -125 -126 0
-19 -35 -37 -51 -52 -65 -67 -93 -94 -104 -106 -115 -116 -125 -126 0
-19 -36 -37 -51 -53 -65 -67 -93 -94 -104 -106 -115 -116 -125 -126 0
-19 -36 -37 -52 -53 -65 -68 -93 -94 -104 -106 -115 -116 -125 -126 0
-18 -35 -36 -51 -52 -66 -67 -93 -95 -104 -106 -115 -116 -125 -126 0
-19 -35 -37 -51 -52 -66 -67 -93 -95 -104 -106 -115 -116 -125 -126 0
-19 -36 -37 -51 -53 -66 -67 -93 -95 -104 -106 -115 -116 -125 -126 0
-19 -36 -37 -52 -53 -66 -68 -93 -95 -104 -106 -115 -116 -125 -126 0
-19 -36 -37 -52 -53 -67 -68 -93 -96 -104 -106 -115 -116 -125 -126 0
-18 -35 -36 -51 -52 -66 -67 -94 -95 -104 -107 -115 -116 -125 -126 0
-19 -35 -37 -51 -52 -66 -67 -94 -95 -104 -107 -115 -116 -125 -126 0
-19 -36 -37 -51 -53 -66 -67 -94 -95 -104 -107 -115 -116 -125 -126 0
-19 -36 -37 -52 -53 -66 -68 -94 -95 -104 -107 -115 -116 -125 -126 0
-19 -36 -37 -52 -53 -67 -68 -94 -96 -104 -107 -115 -116 -125 -126 0
-19 -36 -37 -52 -53 -67 -68 -95 -96 -104 -108 -115 -116 -125 -126 0
-17 -34 -35 -50 -51 -65 -66 -93 -94 -105 -106 -115 -117 -125 -126 0
-18 -34 -36 -50 -51 -65 -66 -93 -94 -105 -106 -115 -117 -125 -126 0
-19 -34 -37 -50 -51 -65 -66 -93 -94 -105 -106 -115 -117 -125 -126 0
-18 -35 -36 -50 -52 -65 -66 -93 -94 -105 -106 -115 -117 -125 -126 0
-19 -35 -37 -50 -52 -65 -66 -93 -94 -105 -106 -115 -117 -125 -126 0
-19 -36 -37 -50 -53 -65 -66 -93 -94 -105 -106 -115 -117 -125 -126 0
-18 -35 -36 -51 -52 -65 -67 -93 -94 -105 -106 -115 -117 -125 -126 0
-19 -35 -37 -51 -52 -65 -67 -93 -94 -105 -106 -115 -117 -125 -126 0
-19 -36 -37 -51 -53 -65 -67 -93 -94 -105 -106 -115 -117 -125 -126 0
-19 -36 -37 -52 -53 -65 -68 -93 -94 -105 -106 -115 -117 -125 -126 0
-18 -35 -36 -51 -52 -66 -67 -93 -95 -105 -106 -115 -117 -125 -126 0
-19 -35 -37 -51 -52 -66 -67 -93 -95 -105 -106 -115 -117 -125 -126 0
-19 -36 -37 -51 -53 -66 -67 -93 -95 -105 -106 -115 -117 -125 -126 0
-19 -36 -37 -52 -53 -66 -68 -93 -95 -105 -106 -115 -117 -125 -126 0
-19 -36 -37 -52 -53 -67 -68 -93 -96 -105 -106 -115 -117 -125 -126 0
-18 -35 -36 -51 -52 -66 -67 -94 -95 -105 -107 -115 -117 -125 -126 0
-19 -35 -37 -51 -52 -66 -67 -94 -95 -105 -107 -115 -117 -125 -126 0
-19 -36 -37 -51 -53 -66 -67 -94 -95 -105 -107 -115 -117 -125 -126 0
-19 -36 -37 -52 -53 -66 -68 -94 -95 -105 -107 -115 -117 -125 -126 0
-19 -36 -37 -52 -53 -67 -68 -94 -96 -105 -107 -115 -117 -125 -126 0
-19 -36 -37 -52 -53 -67 -68 -95 -96 -105 -108 -115 -117 -125 -126 0
-18 -35 -36 -51 -52 -66 -67 -94 -95 -106 -107 -115 -118 -125 -126 0
-19 -35 -37 -51 -52 -66 -67 -94 -95 -106 -107 -115 -118 -125 -126 0
-19 -36 -37 -51 -53 -66 -67 -94 -95 -106 -107 -115 -118 -125 -126 0
-19 -36 -37 -52 -53 -66 -68 -94 -95 -106 -107 -115 -118 -125 -126 0
-19 -36 -37 -52 -53 -67 -68 -94 -96 -106 -107 -115 -118 -125 -126 0
-19 -36 -37 -52 -53 -67 -68 -95 -96 -106 -108 -115 -118 -125 -126 0
-19 -36 -37 -52 -53 -67 -68 -95 -96 -107 -108 -115 -119 -125 -126 0
-17 -34 -35 -50 -51 -65 -66 -93 -94 -105 -106 -116 -117 -125 -127 0
-18 -34 -36 -50 -51 -65 -66 -93 -94 -105 -106 -116 -117 -125 -127 0
-19 -34 -37 -50 -51 -65 -66 -93 -94 -105 -106 -116 -117 -125 -127 0
-18 -35 -36 -50 -52 -65 -66 -93 -94 -105 -106 -116 -117 -125 -127 0
-19 -35 -37 -50 -52 -65 -66 -93 -94 -105 -106 -116 -117 -125 -127 0
-19 -36 -37 -50 -53 -65 -66 -93 -94 -105 -106 -116 -117 -125 -127 0
-18 -35 -36 -51 -52 -65 -67 -93 -94 -105 -106 -116 -117 -125 -127 0
-19 -35 -37 -51 -52 -65 -67 -93 -94 -105 -106 -116 -117 -125 -127 0
-19 -36 -37 -51 -53 -65 -67 -93 -94 -105 -106 -116 -117 -125 -127 0
-19 -36 -37 -52 -53 -65 -68 -93 -94 -105 -106 -116 -117 -125 -127 0
-18 -35 -36 -51 -52 -66 -67 -93 -95 -105 -106 -116 -117 -125 -127 0
-19 -35 -37 -51 -52 -66 -67 -93 -95 -105 -106 -116 -117 -125 -127 0
-19 -36 -37 -51 -53 -66 -67 -93 -95 -105 -106 -116 -117 -125 -127 0
-19 -36 -37 -52 -53 -66 -68 -93 -95 -105 -106 -116 -117 -125 -127 0
-19 -36 -37 -52 -53 -67 -68 -93 -96 -105 -106 -116 -117 -125 -127 0
-18 -35 -36 -51 -52 -66 -67 -94 -95 -105 -107 -116 -117 -125 -127 0
-19 -35 -37 -51 -52 -66 -67 -94 -95 -105 -107 -116 -117 -125 -127 0
-19 -36 -37 -51 -53 -66 -67 -94 -95 -105 -107 -116 -117 -125 -127 0
-19 -36 -37 -52 -53 -66 -68 -94 -95 -105 -107 -116 -117 -125 -127 0
-19 -36 -37 -52 -53 -67 -68 -94 -96 -105 -107 -116 -117 -125 -127 0
-19 -36 -37 -52 -53 -67 -68 -95 -96 -105 -108 -116 -117 -125 -127 0
-18 -35 -36 -51 -52 -66 -67 -94 -95 -106 -107 -116 -118 -125 -127 0
-19 -35 -37 -51 -52 -66 -67 -94 -95 -106 -107 -116 -118 -125 -127 0
-19 -36 -37 -51 -53 -66 -67 -94 -95 -106 -107 -116 -118 -125 -127 0
-19 -36 -37 -52 -53 -66 -68 -94 -95 -106 -107 -116 -118 -125 -127 0
-19 -36 -37 -52 -53 -67 -68 -94 -96 -106 -107 -116 -118 -125 -127 0
-19 -36 -37 -52 -53 -67 -68 -95 -96 -106 -108 -116 -118 -125 -127 0
-19 -36 -37 -52 -53 -67 -68 -95 -96 -107 -108 -116 -119 -125 -127 0
-18 -35 -36 -51 -52 -66 -67 -94 -95 -106 -107 -117 -118 -125 -128 0
-19 -35 -37 -51 -52 -66 -67 -94 -95 -106 -107 -117 -118 -125 -128 0
-19 -36 -37 -51 -53 -66 -67 -94 -95 -106 -107 -117 -118 -125 -128 0
-19 -36 -37 -52 -53 -66 -68 -94 -95 -106 -107 -117 -118 -125 -128 0
-19 -36 -37 -52 -53 -67 -68 -94 -96 -106 -107 -117 -118 -125 -128 0
-19 -36 -37 -52 -53 -67 -68 -95 -96 -106 -108 -117 -118 -125 -128 0
-19 -36 -37 -52 -53 -67 -68 -95 -96 -107 -108 -117 -119 -125 -128 0
-19 -36 -37 -52 -53 -67 -68 -95 -96 -107 -108 -118 -119 -125 -129 0
-17 -34 -35 -50 -51 -65 -66 -93 -94 -105 -106 -116 -117 -126 -127 0
-18 -34 -36 -50 -51 -65 -66 -93 -94 -105 -106 -116 -117 -126 -127 0
-19 -34 -37 -50 -51 -65 -66 -93 -94 -105 -106 -116 -117 -126 -127 0
-18 -35 -36 -50 -52 -65 -66 -93 -94 -105 -106 -116 -117 -126 -127 0
-19 -35 -37 -50 -52 -65 -66 -93 -94 -105 -106 -116 -117 -126 -127 0
-19 -36 -37 -50 -53 -65 -66 -93 -94 -105 -106 -116 -117 -126 -127 0
-18 -35 -36 -51 -52 -65 -67 -93 -94 -105 -106 -116 -117 -126 -127 0
-19 -35 -37 -51 -52 -65 -67 -93 -94 -105 -106 -116 -117 -126 -127 0
-19 -36 -37 -51 -53 -65 -67 -93 -94 -105 -106 -116 -117 -126 -127 0
-19 -36 -37 -52 -53 -65 -68 -93 -94 -105 -106 -116 -117 -126 -127 0
-18 -35 -36 -51 -52 -66 -67 -93 -95 -105 -106 -116 -117 -126 -127 0
-19 -35 -37 -51 -52 -66 -67 -93 -95 -105 -106 -116 -117 -126 -127 0
-19 -36 -37 -51 -53 -66 -67 -93 -95 -105 -106 -116 -117 -126 -127 0
-19 -36 -37 -52 -53 -66 -68 -93 -95 -105 -106 -116 -117 -126 -127 0
-19 -36 -37 -52 -53 -67 -68 -93 -96 -105 -106 -116 -117 -126 -127 0
-18 -35 -36 -51 -52 -66 -67 -94 -95 -105 -107 -116 -117 -126 -127 0
-19 -35 -37 -51 -52 -66 -67 -94 -95 -105 -107 -116 -117 -126 -127 0
-19 -36 -37 -51 -53 -66 -67 -94 -95 -105 -107 -116 -117 -126 -127 0
-19 -36 -37 -52 -53 -66 -68 -94 -95 -105 -107 -116 -117 -126 -127 0
-19 -36 -37 -52 -53 -67 -68 -94 -96 -105 -107 -116 -117 -126 -127 0
-19 -36 -37 -52 -53 -67 -68 -95 -96 -105 -108 -116 -117 -126 -127 0
-18 -35 -36 -51 -52 -66 -67 -94 -95 -106 -107 -116 -118 -126 -127 0
-19 -35 -37 -51 -52 -66 -67 -94 -95 -106 -107 -116 -118 -126 -127 0
-19 -36 -37 -51 -53 -66 -67 -94 -95 -106 -107 -116 -118 -126 -127 0
-19 -36 -37 -52 -53 -66 -68 -94 -95 -106 -107 -116 -118 -126 -127 0
-19 -36 -37 -52 -53 -67 -68 -94 -96 -106 -107 -116 -118 -126 -127 0
-19 -36 -37 -52 -53 -67 -68 -95 -96 -106 -108 -116 -118 -126 -127 0
-19 -36 -37 -52 -53 -67 -68 -95 -96 -107 -108 -116 -119 -126 -127 0
-18 -35 -36 -51 -52 -66 -67 -94 -95 -106 -107 -117 -118 -126 -128 0
-19 -35 -37 -51 -52 -66 -67 -94 -95 -106 -107 -117 -118 -126 -128 0
-19 -36 -37 -51 -53 -66 -67 -94 -95 -106 -107 -117 -118 -126 -128 0
-19 -36 -37 -52 -53 -66 -68 -94 -95 -106 -107 -117 -118 -126 -128 0
-19 -36 -37 -52 -53 -67 -68 -94 -96 -106 -107 -117 -118 -126 -128 0
-19 -36 -37 -52 -53 -67 -68 -95 -96 -106 -108 -117 -118 -126 -128 0
-19 -36 -37 -52 -53 -67 -68 -95 -96 -107 -108 -117 -119 -126 -128 0
-19 -36 -37 -52 -53 -67 -68 -95 -96 -107 -108 -118 -119 -126 -129 0
-18 -35 -36 -51 -52 -66 -67 -94 -95 -106 -107 -117 -118 -127 -128 0
-19 -35 -37 -51 -52 -66 -67 -94 -95 -106 -107 -117 -118 -127 -128 0
-19 -36 -37 -51 -53 -66 -67 -94 -95 -106 -107 -117 -118 -127 -128 0
-19 -36 -37 -52 -53 -66 -68 -94 -95 -106 -107 -117 -118 -127 -128 0
-19 -36 -37 -52 -53 -67 -68 -94 -96 -106 -107 -117 -118 -127 -128 0
-19 -36 -37 -52 -53 -67 -68 -95 -96 -106 -108 -117 -118 -127 -128 0
-19 -36 -37 -52 -53 -67 -68 -95 -96 -107 -108 -117 -119 -127 -128 0
-19 -36 -37 -52 -53 -67 -68 -95 -96 -107 -108 -118 -119 -127 -129 0
-19 -36 -37 -52 -53 -67 -68 -95 -96 -107 -108 -118 -119 -128 -129 0
-17 -34 -35 -50 -51 -65 -66 -93 -94 -105 -106 -116 -117 -136 -137 0
-18 -34 -36 -50 -51 -65 -66 -93 -94 -105 -106 -116 -117 -136 -137 0
-19 -34 -37 -50 -51 -65 -66 -93 -94 -105 -106 -116 -117 -136 -137 0
-18 -35 -36 -50 -52 -65 -66 -93 -94 -105 -106 -116 -117 -136 -137 0
-19 -35 -37 -50 -52 -65 -66 -93 -94 -105 -106 -116 -117 -136 -137 0
-19 -36 -37 -50 -53 -65 -66 -93 -94 -105 -106 -116 -117 -136 -137 0
-18 -35 -36 -51 -52 -65 -67 -93 -94 -105 -106 -116 -117 -136 -137 0
-19 -35 -37 -51 -52 -65 -67 -93 -94 -105 -106 -116 -117 -136 -137 0
-19 -36 -37 -51 -53 -65 -67 -93 -94 -105 -106 -116 -117 -136 -137 0
-19 -36 -37 -52 -53 -65 -68 -93 -94 -105 -106 -116 -117 -136 -137 0
-18 -35 -36 -51 -52 -66 -67 -93 -95 -105 -106 -116 -117 -136 -137 0
-19 -35 -37 -51 -52 -66 -67 -93 -95 -105 -106 -116 -117 -136 -137 0
-19 -36 -37 -51 -53 -66 -67 -93 -95 -105 -106 -116 -117 -136 -137 0
-19 -36 -37 -52 -53 -66 -68 -93 -95 -105 -106 -116 -117 -136 -137 0
-19 -36 -37 -52 -53 -67 -68 -93 -96 -105 -106 -116 -117 -136 -137 0
-18 -35 -36 -51 -52 -66 -67 -94 -95 -105 -107 -116 -117 -136 -137 0
-19 -35 -37 -51 -52 -66 -67 -94 -95 -105 -107 -116 -117 -136 -137 0
-19 -36 -37 -51 -53 -66 -67 -94 -95 -105 -107 -116 -117 -136 -137 0
-19 -36 -37 -52 -53 -66 -68 -94 -95 -105 -107 -116 -117 -136 -137 0
-19 -36 -37 -52 -53 -67 -68 -94 -96 -105 -107 -116 -117 -136 -137 0
-19 -36 -37 -52 -53 -67 -68 -95 -96 -105 -108 -116 -117 -136 -137 0
-18 -35 -36 -51 -52 -66 -67 -94 -95 -106 -107 -116 -118 -136 -137 0
-19 -35 -37 -51 -52 -66 -67 -94 -95 -106 -107 -116 -118 -136 -137 0
-19 -36 -37 -51 -53 -66 -67 -94 -95 -106 -107 -116 -118 -136 -137 0
-19 -36 -37 -52 -53 -66 -68 -94 -95 -106 -107 -116 -118 -136 -137 0
-19 -36 -37 -52 -53 -67 -68 -94 -96 -106 -107 -116 -118 -136 -137 0
-19 -36 -37 -52 -53 -67 -68 -95 -96 -106 -108 -116 -118 -136 -137 0
-19 -36 -37 -52 -53 -67 -68 -95 -96 -107 -108 -116 -119 -136 -137 0
-18 -35 -36 -51 -52 -66 -67 -94 -95 -106 -107 -117 -118 -136 -138 0
-19 -35 -37 -51 -52 -66 -67 -94 -95 -106 -107 -117 -118 -136 -138 0
-19 -36 -37 -51 -53 -66 -67 -94 -95 -106 -107 -117 -118 -136 -138 0
-19 -36 -37 -52 -53 -66 -68 -94 -95 -106 -107 -117 -118 -136 -138 0
-19 -36 -37 -52 -53 -67 -68 -94 -96 -106 -107 -117 -118 -136 -138 0
-19 -36 -37 -52 -53 -67 -68 -95 -96 -106 -108 -117 -118 -136 -138 0
-19 -36 -37 -52 -53 -67 -68 -95 -96 -107 -108 -117 -119 -136 -138 0
-19 -36 -37 -52 -53 -67 -68 -95 -96 -107 -108 -118 -119 -136 -139 0
-18 -35 -36 -51 -52 -66 -67 -94 -95 -106 -107 -117 -118 -137 -138 0
-19 -35 -37 -51 -52 -66 -67 -94 -95 -106 -107 -117 -118 -137 -138 0
-19 -36 -37 -51 -53 -66 -67 -94 -95 -106 -107 -117 -118 -137 -138 0
-19 -36 -37 -52 -53 -66 -68 -94 -95 -106 -107 -117 -118 -137 -138 0
-19 -36 -37 -52 -53 -67 -68 -94 -96 -106 -107 -117 -118 -137 -138 0
-19 -36 -37 -52 -53 -67 -68 -95 -96 -106 -108 -117 -118 -137 -138 0
-19 -36 -37 -52 -53 -67 -68 -95 -96 -107 -108 -117 -119 -137 -138 0
-19 -36 -37 -52 -53 -67 -68 -95 -96 -107 -108 -118 -119 -137 -139 0
-19 -36 -37 -52 -53 -67 -68 -95 -96 -107 -108 -118 -119 -138 -139 0
-18 -35 -36 -51 -52 -66 -67 -94 -95 -106 -107 -117 -118 -146 -147 0
-19 -35 -37 -51 -52 -66 -67 -94 -95 -106 -107 -117 -118 -146 -147 0
-19 -36 -37 -51 -53 -66 -67 -94 -95 -106 -107 -117 -118 -146 -147 0
-19 -36 -37 -52 -53 -66 -68 -94 -95 -106 -107 -117 -118 -146 -147 0
-19 -36 -37 -52 -53 -67 -68 -94 -96 -106 -107 -117 -118 -146 -147 0
-19 -36 -37 -52 -53 -67 -68 -95 -96 -106 -108 -117 -118 -146 -147 0
-19 -36 -37 -52 -53 -67 -68 -95 -96 -107 -108 -117 -119 -146 -147 0
-19 -36 -37 -52 -53 -67 -68 -95 -96 -107 -108 -118 -119 -146 -148 0
-19 -36 -37 -52 -53 -67 -68 -95 -96 -107 -108 -118 -119 -147 -148 0
-19 -36 -37 -52 -53 -67 -68 -95 -96 -107 -108 -118 -119 -155 -156 0
-17 -34 -35 -50 -51 -65 -66 -93 -94 -105 -106 -127 -128 -136 -137 0
-18 -34 -36 -50 -51 -65 -66 -93 -94 -105 -106 -127 -128 -136 -137 0
-19 -34 -37 -50 -51 -65 -66 -93 -94 -105 -106 -127 -128 -136 -137 0
-18 -35 -36 -50 -52 -65 -66 -93 -94 -105 -106 -127 -128 -136 -137 0
-19 -35 -37 -50 -52 -65 -66 -93 -94 -105 -106 -127 -128 -136 -137 0
-19 -36 -37 -50 -53 -65 -66 -93 -94 -105 -106 -127 -128 -136 -137 0
-18 -35 -36 -51 -52 -65 -67 -93 -94 -105 -106 -127 -128 -136 -137 0
-19 -35 -37 -51 -52 -65 -67 -93 -94 -105 -106 -127 -128 -136 -137 0
-19 -36 -37 -51 -53 -65 -67 -93 -94 -105 -106 -127 -128 -136 -137 0
-19 -36 -37 -52 -53 -65 -68 -93 -94 -105 -106 -127 -128 -136 -137 0
-18 -35 -36 -51 -52 -66 -67 -93 -95 -105 -106 -127 -128 -136 -137 0
-19 -35 -37 -51 -52 -66 -67 -93 -95 -105 -106 -127 -128 -136 -137 0
-19 -36 -37 -51 -53 -66 -67 -93 -95 -105 -106 -127 -128 -136 -137 0
-19 -36 -37 -52 -53 -66 -68 -93 -95 -105 -106 -127 -128 -136 -137 0
-19 -36 -37 -52 -53 -67 -68 -93 -96 -105 -106 -127 -128 -136 -137 0
-18 -35 -36 -51 -52 -66 -67 -94 -95 -105 -107 -127 -128 -136 -137 0
-19 -35 -37 -51 -52 -66 -67 -94 -95 -105 -107 -127 -128 -136 -137 0
-19 -36 -37 -51 -53 -66 -67 -94 -95 -105 -107 -127 -128 -136 -137 0
-19 -36 -37 -52 -53 -66 -68 -94 -95 -105 -107 -127 -128 -136 -137 0
-19 -36 -37 -52 -53 -67 -68 -94 -96 -105 -107 -127 -128 -136 -137 0
-19 -36 -37 -52 -53 -67 -68 -95 -96 -105 -108 -127 -128 -136 -137 0
-18 -35 -36 -51 -52 -66 -67 -94 -95 -106 -107 -127 -129 -136 -137 0
-19 -35 -37 -51 -52 -66 -67 -94 -95 -106 -107 -127 -129 -136 -137 0
-19 -36 -37 -51 -53 -66 -67 -94 -95 -106 -107 -127 -129 -136 -137 0
-19 -36 -37 -52 -53 -66 -68 -94 -95 -106 -107 -127 -129 -136 -137 0
-19 -36 -37 -52 -53 -67 -68 -94 -96 -106 -107 -127 -129 -136 -137 0
-19 -36 -37 -52 -53 -67 -68 -95 -96 -106 -108 -127 -129 -136 -137 0
-19 -36 -37 -52 -53 -67 -68 -95 -96 -107 -108 -127 -130 -136 -137 0
-18 -35 -36 -51 -52 -66 -67 -94 -95 -106 -107 -128 -129 -136 -138 0
-19 -35 -37 -51 -52 -66 -67 -94 -95 -106 -107 -128 -129 -136 -138 0
-19 -36 -37 -51 -53 -66 -67 -94 -95 -106 -107 -128 -129 -136 -138 0
-19 -36 -37 -52 -53 -66 -68 -94 -95 -106 -107 -128 -129 -136 -138 0
-19 -36 -37 -52 -53 -67 -68 -94 -96 -106 -107 -128 -129 -136 -138 0
-19 -36 -37 -52 -53 -67 -68 -95 -96 -106 -108 -128 -129 -136 -138 0
-19 -36 -37 -52 -53 -67 -68 -95 -96 -107 -108 -128 -130 -136 -138 0
-19 -36 -37 -52 -53 -67 -68 -95 -96 -107 -108 -129 -130 -136 -139 0
-18 -35 -36 -51 -52 -66 -67 -94 -95 -106 -107 -128 -129 -137 -138 0
-19 -35 -37 -51 -52 -66 -67 -94 -95 -106 -107 -128 -129 -137 -138 0
-19 -36 -37 -51 -53 -66 -67 -94 -95 -106 -107 -128 -129 -137 -138 0
-19 -36 -37 -52 -53 -66 -68 -94 -95 -106 -107 -128 -129 -137 -138 0
-19 -36 -37 -52 -53 -67 -68 -94 -96 -106 -107 -128 -129 -137 -138 0
-19 -36 -37 -52 -53 -67 -68 -95 -96 -106 -108 -128 -129 -137 -138 0
-19 -36 -37 -52 -53 -67 -68 -95 -96 -107 -108 -128 -130 -137 -138 0
-19 -36 -37 -52 -53 -67 -68 -95 -96 -107 -108 -129 -130 -137 -139 0
-19 -36 -37 -52 -53 -67 -68 -95 -96 -107 -108 -129 -130 -138 -139 0
-18 -35 -36 -51 -52 -66 -67 -94 -95 -106 -107 -128 -129 -146 -147 0
-19 -35 -37 -51 -52 -66 -67 -94 -95 -106 -107 -128 -129 -146 -147 0
-19 -36 -37 -51 -53 -66 -67 -94 -95 -106 -107 -128 -129 -146 -147 0
-19 -36 -37 -52 -53 -66 -68 -94 -95 -106 -107 -128 -129 -146 -147 0
-19 -36 -37 -52 -53 -67 -68 -94 -96 -106 -107 -128 -129 -146 -147 0
-19 -36 -37 -52 -53 -67 -68 -95 -96 -106 -108 -128 -129 -146 -147 0
-19 -36 -37 -52 -53 -67 -68 -95 -96 -107 -108 -128 -130 -146 -147 0
-19 -36 -37 -52 -53 -67 -68 -95 -96 -107 -108 -129 -130 -146 -148 0
-19 -36 -37 -52 -53 -67 -68 -95 -96 -107 -108 -129 -130 -147 -148 0
-19 -36 -37 -52 -53 -67 -68 -95 -96 -107 -108 -129 -130 -155 -156 0
-18 -35 -36 -51 -52 -66 -67 -94 -95 -106 -107 -138 -139 -146 -147 0
-19 -35 -37 -51 -52 -66 -67 -94 -95 -106 -107 -138 -139 -146 -147 0
-19 -36 -37 -51 -53 -66 -67 -94 -95 -106 -107 -138 -139 -146 -147 0
-19 -36 -37 -52 -53 -66 -68 -94 -95 -106 -107 -138 -139 -146 -147 0
-19 -36 -37 -52 -53 -67 -68 -94 -96 -106 -107 -138 -139 -146 -147 0
-19 -36 -37 -52 -53 -67 -68 -95 -96 -106 -108 -138 -139 -146 -147 0
-19 -36 -37 -52 -53 -67 -68 -95 -96 -107 -108 -138 -140 -146 -147 0
-19 -36 -37 -52 -53 -67 -68 -95 -96 -107 -108 -139 -140 -146 -148 0
-19 -36 -37 -52 -53 -67 -68 -95 -96 -107 -108 -139 -140 -147 -148 0
-19 -36 -37 -52 -53 -67 -68 -95 -96 -107 -108 -139 -140 -155 -156 0
-19 -36 -37 -52 -53 -67 -68 -95 -96 -107 -108 -148 -149 -155 -156 0
-17 -34 -35 -50 -51 -65 -66 -93 -94 -117 -118 -127 -128 -136 -137 0
-18 -34 -36 -50 -51 -65 -66 -93 -94 -117 -118 -127 -128 -136 -137 0
-19 -34 -37 -50 -51 -65 -66 -93 -94 -117 -118 -127 -128 -136 -137 0
-18 -35 -36 -50 -52 -65 -66 -93 -94 -117 -118 -127 -128 -136 -137 0
-19 -35 -37 -50 -52 -65 -66 -93 -94 -117 -118 -127 -128 -136 -137 0
-19 -36 -37 -50 -53 -65 -66 -93 -94 -117 -118 -127 -128 -136 -137 0
-18 -35 -36 -51 -52 -65 -67 -93 -94 -117 -118 -127 -128 -136 -137 0
-19 -35 -37 -51 -52 -65 -67 -93 -94 -117 -118 -127 -128 -136 -137 0
-19 -36 -37 -51 -53 -65 -67 -93 -94 -117 -118 -127 -128 -136 -137 0
-19 -36 -37 -52 -53 -65 -68 -93 -94 -117 -118 -127 -128 -136 -137 0
-18 -35 -36 -51 -52 -66 -67 -93 -95 -117 -118 -127 -128 -136 -137 0
-19 -35 -37 -51 -52 -66 -67 -93 -95 -117 -118 -127 -128 -136 -137 0
-19 -36 -37 -51 -53 -66 -67 -93 -95 -117 -118 -127 -128 -136 -137 0
-19 -36 -37 -52 -53 -66 -68 -93 -95 -117 -118 -127 -128 -136 -137 0
-19 -36 -37 -52 -53 -67 -68 -93 -96 -117 -118 -127 -128 -136 -137 0
-18 -35 -36 -51 -52 -66 -67 -94 -95 -117 -119 -127 -128 -136 -137 0
-19 -35 -37 -51 -52 -66 -67 -94 -95 -117 -119 -127 -128 -136 -137 0
-19 -36 -37 -51 -53 -66 -67 -94 -95 -117 -119 -127 -128 -136 -137 0
-19 -36 -37 -52 -53 -66 -68 -94 -95 -117 -119 -127 -128 -136 -137 0
-19 -36 -37 -52 -53 -67 -68 -94 -96 -117 -119 -127 -128 -136 -137 0
-19 -36 -37 -52 -53 -67 -68 -95 -96 -117 -120 -127 -128 -136 -137 0
-18 -35 -36 -51 -52 -66 -67 -94 -95 -118 -119 -127 -129 -136 -137 0
-19 -35 -37 -51 -52 -66 -67 -94 -95 -118 -119 -127 -129 -136 -137 0
-19 -36 -37 -51 -53 -66 -67 -94 -95 -118 -119 -127 -129 -136 -137 0
-19 -36 -37 -52 -53 -66 -68 -94 -95 -118 -119 -127 -129 -136 -137 0
-19 -36 -37 -52 -53 -67 -68 -94 -96 -118 -119 -127 -129 -136 -137 0
-19 -36 -37 -52 -53 -67 -68 -95 -96 -118 -120 -127 -129 -136 -137 0
-19 -36 -37 -52 -53 -67 -68 -95 -96 -119 -120 -127 -130 -136 -137 0
-18 -35 -36 -51 -52 -66 -67 -94 -95 -118 -119 -128 -129 -136 -138 0
-19 -35 -37 -51 -52 -66 -67 -94 -95 -118 -119 -128 -129 -136 -138 0
-19 -36 -37 -51 -53 -66 -67 -94 -95 -118 -119 -128 -129 -136 -138 0
-19 -36 -37 -52 -53 -66 -68 -94 -95 -118 -119 -128 -129 -136 -138 0
-19 -36 -37 -52 -53 -67 -68 -94 -96 -118 -119 -128 -129 -136 -138 0
-19 -36 -37 -52 -53 -67 -68 -95 -96 -118 -120 -128 -129 -136 -138 0
-19 -36 -37 -52 -53 -67 -68 -95 -96 -119 -120 -128 -130 -136 -138 0
-19 -36 -37 -52 -53 -67 -68 -95 -96 -119 -120 -129 -130 -136 -139 0
-18 -35 -36 -51 -52 -66 -67 -94 -95 -118 -119 -128 -129 -137 -138 0
-19 -35 -37 -51 -52 -66 -67 -94 -95 -118 -119 -128 -129 -137 -138 0
-19 -36 -37 -51 -53 -66 -67 -94 -95 -118 -119 -128 -129 -137 -138 0
-19 -36 -37 -52 -53 -66 -68 -94 -95 -118 -119 -128 -129 -137 -138 0
-19 -36 -37 -52 -53 -67 -68 -94 -96 -118 -119 -128 -129 -137 -138 0
-19 -36 -37 -52 -53 -67 -68 -95 -96 -118 -120 -128 -129 -137 -138 0
-19 -36 -37 -52 -53 -67 -68 -95 -96 -119 -120 -128 -130 -137 -138 0
-19 -36 -37 -52 -53 -67 -68 -95 -96 -119 -120 -129 -130 -137 -139 0
-19 -36 -37 -52 -53 -67 -68 -95 -96 -119 -120 -129 -130 -138 -139 0
-18 -35 -36 -51 -52 -66 -67 -94 -95 -118 -119 -128 -129 -146 -147 0
-19 -35 -37 -51 -52 -66 -67 -94 -95 -118 -119 -128 -129 -146 -147 0
-19 -36 -37 -51 -53 -66 -67 -94 -95 -118 -119 -128 -129 -146 -147 0
-19 -36 -37 -52 -53 -66 -68 -94 -95 -118 -119 -128 -129 -146 -147 0
-19 -36 -37 -52 -53 -67 -68 -94 -96 -118 -119 -128 -129 -146 -147 0
-19 -36 -37 -52 -53 -67 -68 -95 -96 -118 -120 -128 -129 -146 -147 0
-19 -36 -37 -52 -53 -67 -68 -95 -96 -119 -120 -128 -130 -146 -147 0
-19 -36 -37 -52 -53 -67 -68 -95 -96 -119 -120 -129 -130 -146 -148 0
-19 -36 -37 -52 -53 -67 -68 -95 -96 -119 -120 -129 -130 -147 -148 0
-19 -36 -37 -52 -53 -67 -68 -95 -96 -119 -120 -129 -130 -155 -156 0
-18 -35 -36 -51 -52 -66 -67 -94 -95 -118 -119 -138 -139 -146 -147 0
-19 -35 -37 -51 -52 -66 -67 -94 -95 -118 -119 -138 -139 -146 -147 0
-19 -36 -37 -51 -53 -66 -67 -94 -95 -118 -119 -138 -139 -146 -147 0
-19 -36 -37 -52 -53 -66 -68 -94 -95 -118 -119 -138 -139 -146 -147 0
-19 -36 -37 -52 -53 -67 -68 -94 -96 -118 -119 -138 -139 -146 -147 0
-19 -36 -37 -52 -53 -67 -68 -95 -96 -118 -120 -138 -139 -146 -147 0
-19 -36 -37 -52 -53 -67 -68 -95 -96 -119 -120 -138 -140 -146 -147 0
-19 -36 -37 -52 -53 -67 -68 -95 -96 -119 -120 -139 -140 -146 -148 0
-19 -36 -37 -52 -53 -67 -68 -95 -96 -119 -120 -139 -140 -147 -148 0
-19 -36 -37 -52 -53 -67 -68 -95 -96 -119 -120 -139 -140 -155 -156 0
-19 -36 -37 -52 -53 -67 -68 -95 -96 -119 -120 -148 -149 -155 -156 0
-18 -35 -36 -51 -52 -66 -67 -94 -95 -129 -130 -138 -139 -146 -147 0
-19 -35 -37 -51 -52 -66 -67 -94 -95 -129 -130 -138 -139 -146 -147 0
-19 -36 -37 -51 -53 -66 -67 -94 -95 -129 -130 -138 -139 -146 -147 0
-19 -36 -37 -52 -53 -66 -68 -94 -95 -129 -130 -138 -139 -146 -147 0
-19 -36 -37 -52 -53 -67 -68 -94 -96 -129 -130 -138 -139 -146 -147 0
-19 -36 -37 -52 -53 -67 -68 -95 -96 -129 -131 -138 -139 -146 -147 0
-19 -36 -37 -52 -53 -67 -68 -95 -96 -130 -131 -138 -140 -146 -147 0
-19 -36 -37 -52 -53 -67 -68 -95 -96 -130 -131 -139 -140 -146 -148 0
-19 -36 -37 -52 -53 -67 -68 -95 -96 -130 -131 -139 -140 -147 -148 0
-19 -36 -37 -52 -53 -67 -68 -95 -96 -130 -131 -139 -140 -155 -156 0
-19 -36 -37 -52 -53 -67 -68 -95 -96 -130 -131 -148 -149 -155 -156 0
-19 -36 -37 -52 -53 -67 -68 -95 -96 -140 -141 -148 -149 -155 -156 0
-17 -34 -35 -50 -51 -65 -66 -106 -107 -117 -118 -127 -128 -136 -137 0
-18 -34 -36 -50 -51 -65 -66 -106 -107 -117 -118 -127 -128 -136 -137 0
-19 -34 -37 -50 -51 -65 -66 -106 -107 -117 -118 -127 -128 -136 -137 0
-18 -35 -36 -50 -52 -65 -66 -106 -107 -117 -118 -127 -128 -136 -137 0
-19 -35 -37 -50 -52 -65 -66 -106 -107 -117 -118 -127 -128 -136 -137 0
-19 -36 -37 -50 -53 -65 -66 -106 -107 -117 -118 -127 -128 -136 -137 0
-18 -35 -36 -51 -52 -65 -67 -106 -107 -117 -118 -127 -128 -136 -137 0
-19 -35 -37 -51 -52 -65 -67 -106 -107 -117 -118 -127 -128 -136 -137 0
-19 -36 -37 -51 -53 -65 -67 -106 -107 -117 -118 -127 -128 -136 -137 0
-19 -36 -37 -52 -53 -65 -68 -106 -107 -117 -118 -127 -128 -136 -137 0
-18 -35 -36 -51 -52 -66 -67 -106 -108 -117 -118 -127 -128 -136 -137 0
-19 -35 -37 -51 -52 -66 -67 -106 -108 -117 -118 -127 -128 -136 -137 0
-19 -36 -37 -51 -53 -66 -67 -106 -108 -117 -118 -127 -128 -136 -137 0
-19 -36 -37 -52 -53 -66 -68 -106 -108 -117 -118 -127 -128 -136 -137 0
-19 -36 -37 -52 -53 -67 -68 -106 -109 -117 -118 -127 -128 -136 -137 0
-18 -35 -36 -51 -52 -66 -67 -107 -108 -117 -119 -127 -128 -136 -137 0
-19 -35 -37 -51 -52 -66 -67 -107 -108 -117 -119 -127 -128 -136 -137 0
-19 -36 -37 -51 -53 -66 -67 -107 -108 -117 -119 -127 -128 -136 -137 0
-19 -36 -37 -52 -53 -66 -68 -107 -108 -117 -119 -127 -128 -136 -137 0
-19 -36 -37 -52 -53 -67 -68 -107 -109 -117 -119 -127 -128 -136 -137 0
-19 -36 -37 -52 -53 -67 -68 -108 -109 -117 -120 -127 -128 -136 -137 0
-18 -35 -36 -51 -52 -66 -67 -107 -108 -118 -119 -127 -129 -136 -137 0
-19 -35 -37 -51 -52 -66 -67 -107 -108 -118 -119 -127 -129 -136 -137 0
-19 -36 -37 -51 -53 -66 -67 -107 -108 -118 -119 -127 -129 -136 -137 0
-19 -36 -37 -52 -53 -66 -68 -107 -108 -118 -119 -127 -129 -136 -137 0
-19 -36 -37 -52 -53 -67 -68 -107 -109 -118 -119 -127 -129 -136 -137 0
-19 -36 -37 -52 -53 -67 -68 -108 -109 -118 -120 -127 -129 -136 -137 0
-19 -36 -37 -52 -53 -67 -68 -108 -109 -119 -120 -127 -130 -136 -137 0
-18 -35 -36 -51 -52 -66 -67 -107 -108 -118 -119 -128 -129 -136 -138 0
-19 -35 -37 -51 -52 -66 -67 -107 -108 -118 -119 -128 -129 -136 -138 0
-19 -36 -37 -51 -53 -66 -67 -107 -108 -118 -119 -128 -129 -136 -138 0
-19 -36 -37 -52 -53 -66 -68 -107 -108 -118 -119 -128 -129 -136 -138 0
-19 -36 -37 -52 -53 -67 -68 -107 -109 -118 -119 -128 -129 -136 -138 0
-19 -36 -37 -52 -53 -67 -68 -108 -109 -118 -120 -128 -129 -136 -138 0
-19 -36 -37 -52 -53 -67 -68 -108 -109 -119 -120 -128 -130 -136 -138 0
-19 -36 -37 -52 -53 -67 -68 -108 -109 -119 -120 -129 -130 -136 -139 0
-18 -35 -36 -51 -52 -66 -67 -107 -108 -118 -119 -128 -129 -137 -138 0
-19 -35 -37 -51 -52 -66 -67 -107 -108 -118 -119 -128 -129 -137 -138 0
-19 -36 -37 -51 -53 -66 -67 -107 -108 -118 -119 -128 -129 -137 -138 0
-19 -36 -37 -52 -53 -66 -68 -107 -108 -118 -119 -128 -129 -137 -138 0
-19 -36 -37 -52 -53 -67 -68 -107 -109 -118 -119 -128 -129 -137 -138 0
-19 -36 -37 -52 -53 -67 -68 -108 -109 -118 -120 -128 -129 -137 -138 0
-19 -36 -37 -52 -53 -67 -68 -108 -109 -119 -120 -128 -130 -137 -138 0
-19 -36 -37 -52 -53 -67 -68 -108 -109 -119 -120 -129 -130 -137 -139 0
-19 -36 -37 -52 -53 -67 -68 -108 -109 -119 -120 -129 -130 -138 -139 0
-18 -35 -36 -51 -52 -66 -67 -107 -108 -118 -119 -128 -129 -146 -147 0
-19 -35 -37 -51 -52 -66 -67 -107 -108 -118 -119 -128 -129 -146 -147 0
-19 -36 -37 -51 -53 -66 -67 -107 -108 -118 -119 -128 -129 -146 -147 0
-19 -36 -37 -52 -53 -66 -68 -107 -108 -118 -119 -128 -129 -146 -147 0
-19 -36 -37 -52 -53 -67 -68 -107 -109 -118 -119 -128 -129 -146 -147 0
-19 -36 -37 -52 -53 -67 -68 -108 -109 -118 -120 -128 -129 -146 -147 0
-19 -36 -37 -52 -53 -67 -68 -108 -109 -119 -120 -128 -130 -146 -147 0
-19 -36 -37 -52 -53 -67 -68 -108 -109 -119 -120 -129 -130 -146 -148 0
-19 -36 -37 -52 -53 -67 -68 -108 -109 -119 -120 -129 -130 -147 -148 0
-19 -36 -37 -52 -53 -67 -68 -108 -109 -119 -120 -129 -130 -155 -156 0
-18 -35 -36 -51 -52 -66 -67 -107 -108 -118 -119 -138 -139 -146 -147 0
-19 -35 -37 -51 -52 -66 -67 -107 -108 -118 -119 -138 -139 -146 -147 0
-19 -36 -37 -51 -53 -66 -67 -107 -108 -118 -119 -138 -139 -146 -147 0
-19 -36 -37 -52 -53 -66 -68 -107 -108 -118 -119 -138 -139 -146 -147 0
-19 -36 -37 -52 -53 -67 -68 -107 -109 -118 -119 -138 -139 -146 -147 0
-19 -36 -37 -52 -53 -67 -68 -108 -109 -118 -120 -138 -139 -146 -147 0
-19 -36 -37 -52 -53 -67 -68 -108 -109 -119 -120 -138 -140 -146 -147 0
-19 -36 -37 -52 -53 -67 -68 -108 -109 -119 -120 -139 -140 -146 -148 0
-19 -36 -37 -52 -53 -67 -68 -108 -109 -119 -120 -139 -140 -147 -148 0
-19 -36 -37 -52 -53 -67 -68 -108 -109 -119 -120 -139 -140 -155 -156 0
-19 -36 -37 -52 -53 -67 -68 -108 -109 -119 -120 -148 -149 -155 -156 0
-18 -35 -36 -51 -52 -66 -67 -107 -108 -129 -130 -138 -139 -146 -147 0
-19 -35 -37 -51 -52 -66 -67 -107 -108 -129 -130 -138 -139 -146 -147 0
-19 -36 -37 -51 -53 -66 -67 -107 -108 -129 -130 -138 -139 -146 -147 0
-19 -36 -37 -52 -53 -66 -68 -107 -108 -129 -130 -138 -139 -146 -147 0
-19 -36 -37 -52 -53 -67 -68 -107 -109 -129 -130 -138 -139 -146 -147 0
-19 -36 -37 -52 -53 -67 -68 -108 -109 -129 -131 -138 -139 -146 -147 0
-19 -36 -37 -52 -53 -67 -68 -108 -109 -130 -131 -138 -140 -146 -147 0
-19 -36 -37 -52 -53 -67 -68 -108 -109 -130 -131 -139 -140 -146 -148 0
-19 -36 -37 -52 -53 -67 -68 -108 -109 -130 -131 -139 -140 -147 -148 0
-19 -36 -37 -52 -53 -67 -68 -108 -109 -130 -131 -139 -140 -155 -156 0
-19 -36 -37 -52 -53 -67 -68 -108 -109 -130 -131 -148 -149 -155 -156 0
-19 -36 -37 -52 -53 -67 -68 -108 -109 -140 -141 -148 -149 -155 -156 0
-18 -35 -36 -51 -52 -66 -67 -119 -120 -129 -130 -138 -139 -146 -147 0
-19 -35 -37 -51 -52 -66 -67 -119 -120 -129 -130 -138 -139 -146 -147 0
-19 -36 -37 -51 -53 -66 -67 -119 -120 -129 -130 -138 -139 -146 -147 0
-19 -36 -37 -52 -53 -66 -68 -119 -120 -129 -130 -138 -139 -146 -147 0
-19 -36 -37 -52 -53 -67 -68 -119 -121 -129 -130 -138 -139 -146 -147 0
-19 -36 -37 -52 -53 -67 -68 -120 -121 -129 -131 -138 -139 -146 -147 0
-19 -36 -37 -52 -53 -67 -68 -120 -121 -130 -131 -138 -140 -146 -147 0
-19 -36 -37 -52 -53 -67 -68 -120 -121 -130 -131 -139 -140 -146 -148 0
-19 -36 -37 -52 -53 -67 -68 -120 -121 -130 -131 -139 -140 -147 -148 0
-19 -36 -37 -52 -53 -67 -68 -120 -121 -130 -131 -139 -140 -155 -156 0
-19 -36 -37 -52 -53 -67 -68 -120 -121 -130 -131 -148 -149 -155 -156 0
-19 -36 -37 -52 -53 -67 -68 -120 -121 -140 -141 -148 -149 -155 -156 0
-19 -36 -37 -52 -53 -67 -68 -131 -132 -140 -141 -148 -149 -155 -156 0
-16 -33 -34 -49 -50 -79 -80 -92 -93 -104 -105 -115 -116 -125 -126 0
-17 -33 -35 -49 -50 -79 -80 -92 -93 -104 -105 -115 -116 -125 -126 0
-18 -33 -36 -49 -50 -79 -80 -92 -93 -104 -105 -115 -116 -125 -126 0
-19 -33 -37 -49 -50 -79 -80 -92 -93 -104 -105 -115 -116 -125 -126 0
-17 -34 -35 -49 -51 -79 -80 -92 -93 -104 -105 -115 -116 -125 -126 0
-18 -34 -36 -49 -51 -79 -80 -92 -93 -104 -105 -115 -116 -125 -126 0
-19 -34 -37 -49 -51 -79 -80 -92 -93 -104 -105 -115 -116 -125 -126 0
-18 -35 -36 -49 -52 -79 -80 -92 -93 -104 -105 -115 -116 -125 -126 0
-19 -35 -37 -49 -52 -79 -80 -92 -93 -104 -105 -115 -116 -125 -126 0
-19 -36 -37 -49 -53 -79 -80 -92 -93 -104 -105 -115 -116 -125 -126 0
-17 -34 -35 -50 -51 -79 -81 -92 -93 -104 -105 -115 -116 -125 -126 0
-18 -34 -36 -50 -51 -79 -81 -92 -93 -104 -105 -115 -116 -125 -126 0
-19 -34 -37 -50 -51 -79 -81 -92 -93 -104 -105 -115 -116 -125 -126 0
-18 -35 -36 -50 -52 -79 -81 -92 -93 -104 -105 -115 -116 -125 -126 0
-19 -35 -37 -50 -52 -79 -81 -92 -93 -104 -105 -115 -116 -125 -126 0
-19 -36 -37 -50 -53 -79 -81 -92 -93 -104 -105 -115 -116 -125 -126 0
-18 -35 -36 -51 -52 -79 -82 -92 -93 -104 -105 -115 -116 -125 -126 0
-19 -35 -37 -51 -52 -79 -82 -92 -93 -104 -105 -115 -116 -125 -126 0
-19 -36 -37 -51 -53 -79 -82 -92 -93 -104 -105 -115 -116 -125 -126 0
-19 -36 -37 -52 -53 -79 -83 -92 -93 -104 -105 -115 -116 -125 -126 0
-17 -34 -35 -50 -51 -80 -81 -92 -94 -104 -105 -115 -116 -125 -126 0
-18 -34 -36 -50 -51 -80 -81 -92 -94 -104 -105 -115 -116 -125 -126 0
-19 -34 -37 -50 -51 -80 -81 -92 -94 -104 -105 -115 -116 -125 -126 0
-18 -35 -36 -50 -52 -80 -81 -92 -94 -104 -105 -115 -116 -125 -126 0
-19 -35 -37 -50 -52 -80 -81 -92 -94 -104 -105 -115 -116 -125 -126 0
-19 -36 -37 -50 -53 -80 -81 -92 -94 -104 -105 -115 -116 -125 -126 0
-18 -35 -36 -51 -52 -80 -82 -92 -94 -104 -105 -115 -116 -125 -126 0
-19 -35 -37 -51 -52 -80 -82 -92 -94 -104 -105 -115 -116 -125 -126 0
-19 -36 -37 -51 -53 -80 -82 -92 -94 -104 -105 -115 -116 -125 -126 0
-19 -36 -37 -52 -53 -80 -83 -92 -94 -104 -105 -115 -116 -125 -126 0
-18 -35 -36 -51 -52 -81 -82 -92 -95 -104 -105 -115 -116 -125 -126 0
-19 -35 -37 -51 -52 -81 -82 -92 -95 -104 -105 -115 -116 -125 -126 0
-19 -36 -37 -51 -53 -81 -82 -92 -95 -104 -105 -115 -116 -125 -126 0
-19 -36 -37 -52 -53 -81 -83 -92 -95 -104 -105 -115 -116 -125 -126 0
-19 -36 -37 -52 -53 -82 -83 -92 -96 -104 -105 -115 -116 -125 -126 0
-17 -34 -35 -50 -51 -80 -81 -93 -94 -104 -106 -115 -116 -125 -126 0
-18 -34 -36 -50 -51 -80 -81 -93 -94 -104 -106 -115 -116 -125 -126 0
-19 -34 -37 -50 -51 -80 -81 -93 -94 -104 -106 -115 -116 -125 -126 0
-18 -35 -36 -50 -52 -80 -81 -93 -94 -104 -106 -115 -116 -125 -126 0
-19 -35 -37 -50 -52 -80 -81 -93 -94 -104 -106 -115 -116 -125 -126 0
-19 -36 -37 -50 -53 -80 -81 -93 -94 -104 -106 -115 -116 -125 -126 0
-18 -35 -36 -51 -52 -80 -82 -93 -94 -104 -106 -115 -116 -125 -126 0
-19 -35 -37 -51 -52 -80 -82 -93 -94 -104 -106 -115 -116 -125 -126 0
-19 -36 -37 -51 -53 -80 -82 -93 -94 -104 -106 -115 -116 -125 -126 0
-19 -36 -37 -52 -53 -80 -83 -93 -94 -104 -106 -115 -116 -125 -126 0
-18 -35 -36 -51 -52 -81 -82 -93 -95 -104 -106 -115 -116 -125 -126 0
-19 -35 -37 -51 -52 -81 -82 -93 -95 -104 -106 -115 -116 -125 -126 0
-19 -36 -37 -51 -53 -81 -82 -93 -95 -104 -106 -115 -116 -125 -126 0
-19 -36 -37 -52 -53 -81 -83 -93 -95 -104 -106 -115 -116 -125 -126 0
-19 -36 -37 -52 -53 -82 -83 -93 -96 -104 -106 -115 -116 -125 -126 0
-18 -35 -36 -51 -52 -81 -82 -94 -95 -104 -107 -115 -116 -125 -126 0
-19 -35 -37 -51 -52 -81 -82 -94 -95 -104 -107 -115 -116 -125 -126 0
-19 -36 -37 -51 -53 -81 -82 -94 -95 -104 -107 -115 -116 -125 -126 0
-19 -36 -37 -52 -53 -81 -83 -94 -95 -104 -107 -115 -116 -125 -126 0
-19 -36 -37 -52 -53 -82 -83 -94 -96 -104 -107 -115 -116 -125 -126 0
-19 -36 -37 -52 -53 -82 -83 -95 -96 -104 -108 -115 -116 -125 -126 0
-17 -34 -35 -50 -51 -80 -81 -93 -94 -105 -106 -115 -117 -125 -126 0
-18 -34 -36 -50 -51 -80 -81 -93 -94 -105 -106 -115 -117 -125 -126 0
-19 -34 -37 -50 -51 -80 -81 -93 -94 -105 -106 -115 -117 -125 -126 0
-18 -35 -36 -50 -52 -80 -81 -93 -94 -105 -106 -115 -117 -125 -126 0
-19 -35 -37 -50 -52 -80 -81 -93 -94 -105 -106 -115 -117 -125 -126 0
-19 -36 -37 -50 -53 -80 -81 -93 -94 -105 -106 -115 -117 -125 -126 0
-18 -35 -36 -51 -52 -80 -82 -93 -94 -105 -106 -115 -117 -125 -126 0
-19 -35 -37 -51 -52 -80 -82 -93 -94 -105 -106 -115 -117 -125 -126 0
-19 -36 -37 -51 -53 -80 -82 -93 -94 -105 -106 -115 -117 -125 -126 0
-19 -36 -37 -52 -53 -80 -83 -93 -94 -105 -106 -115 -117 -125 -126 0
-18 -35 -36 -51 -52 -81 -82 -93 -95 -105 -106 -115 -117 -125 -126 0
-19 -35 -37 -51 -52 -81 -82 -93 -95 -105 -106 -115 -117 -125 -126 0
-19 -36 -37 -51 -53 -81 -82 -93 -95 -105 -106 -115 -117 -125 -126 0
-19 -36 -37 -52 -53 -81 -83 -93 -95 -105 -106 -115 -117 -125 -126 0
-19 -36 -37 -52 -53 -82 -83 -93 -96 -105 -106 -115 -117 -125 -126 0
-18 -35 -36 -51 -52 -81 -82 -94 -95 -105 -107 -115 -117 -125 -126 0
-19 -35 -37 -51 -52 -81 -82 -94 -95 -105 -107 -115 -117 -125 -126 0
-19 -36 -37 -51 -53 -81 -82 -94 -95 -105 -107 -115 -117 -125 -126 0
-19 -36 -37 -52 -53 -81 -83 -94 -95 -105 -107 -115 -117 -125 -126 0
-19 -36 -37 -52 -53 -82 -83 -94 -96 -105 -107 -115 -117 -125 -126 0
-19 -36 -37 -52 -53 -82 -83 -95 -96 -105 -108 -115 -117 -125 -126 0
-18 -35 -36 -51 -52 -81 -82 -94 -95 -106 -107 -115 -118 -125 -126 0
-19 -35 -37 -51 -52 -81 -82 -94 -95 -106 -107 -115 -118 -125 -126 0
-19 -36 -37 -51 -53 -81 -82 -94 -95 -106 -107 -115 -118 -125 -126 0
-19 -36 -37 -52 -53 -81 -83 -94 -95 -106 -107 -115 -118 -125 -126 0
-19 -36 -37 -52 -53 -82 -83 -94 -96 -106 -107 -115 -118 -125 -126 0
-19 -36 -37 -52 -53 -82 -83 -95 -96 -106 -108 -115 -118 -125 -126 0
-19 -36 -37 -52 -53 -82 -83 -95 -96 -107 -108 -115 -119 -125 -126 0
-17 -34 -35 -50 -51 -80 -81 -93 -94 -105 -106 -116 -117 -125 -127 0
-18 -34 -36 -50 -51 -80 -81 -93 -94 -105 -106 -116 -117 -125 -127 0
-19 -34 -37 -50 -51 -80 -81 -93 -94 -105 -106 -116 -117 -125 -127 0
-18 -35 -36 -50 -52 -80 -81 -93 -94 -105 -106 -116 -117 -125 -127 0
-19 -35 -37 -50 -52 -80 -81 -93 -94 -105 -106 -116 -117 -125 -127 0
-19 -36 -37 -50 -53 -80 -81 -93 -94 -105 -106 -116 -117 -125 -127 0
-18 -35 -36 -51 -52 -80 -82 -93 -94 -105 -106 -116 -117 -125 -127 0
-19 -35 -37 -51 -52 -80 -82 -93 -94 -105 -106 -116 -117 -125 -127 0
-19 -36 -37 -51 -53 -80 -82 -93 -94 -105 -106 -116 -117 -125 -127 0
-19 -36 -37 -52 -53 -80 -83 -93 -94 -105 -106 -116 -117 -125 -127 0
-18 -35 -36 -51 -52 -81 -82 -93 -95 -105 -106 -116 -117 -125 -127 0
-19 -35 -37 -51 -52 -81 -82 -93 -95 -105 -106 -116 -117 -125 -127 0
-19 -36 -37 -51 -53 -81 -82 -93 -95 -105 -106 -116 -117 -125 -127 0
-19 -36 -37 -52 -53 -81 -83 -93 -95 -105 -106 -116 -117 -125 -127 0
-19 -36 -37 -52 -53 -82 -83 -93 -96 -105 -106 -116 -117 -125 -127 0
-18 -35 -36 -51 -52 -81 -82 -94 -95 -105 -107 -116 -117 -125 -127 0
-19 -35 -37 -51 -52 -81 -82 -94 -95 -105 -107 -116 -117 -125 -127 0
-19 -36 -37 -51 -53 -81 -82 -94 -95 -105 -107 -116 -117 -125 -127 0
-19 -36 -37 -52 -53 -81 -83 -94 -95 -105 -107 -116 -117 -125 -127 0
-19 -36 -37 -52 -53 -82 -83 -94 -96 -105 -107 -116 -117 -125 -127 0
-19 -36 -37 -52 -53 -82 -83 -95 -96 -105 -108 -116 -117 -125 -127 0
-18 -35 -36 -51 -52 -81 -82 -94 -95 -106 -107 -116 -118 -125 -127 0
-19 -35 -37 -51 -52 -81 -82 -94 -95 -106 -107 -116 -118 -125 -127 0
-19 -36 -37 -51 -53 -81 -82 -94 -95 -106 -107 -116 -118 -125 -127 0
-19 -36 -37 -52 -53 -81 -83 -94 -95 -106 -107 -116 -118 -125 -127 0
-19 -36 -37 -52 -53 -82 -83 -94 -96 -106 -107 -116 -118 -125 -127 0
-19 -36 -37 -52 -53 -82 -83 -95 -96 -106 -108 -116 -118 -125 -127 0
-19 -36 -37 -52 -53 -82 -83 -95 -96 -107 -108 -116 -119 -125 -127 0
-18 -35 -36 -51 -52 -81 -82 -94 -95 -106 -107 -117 -118 -125 -128 0
-19 -35 -37 -51 -52 -81 -82 -94 -95 -106 -107 -117 -118 -125 -128 0
-19 -36 -37 -51 -53 -81 -82 -94 -95 -106 -107 -117 -118 -125 -128 0
-19 -36 -37 -52 -53 -81 -83 -94 -95 -106 -107 -117 -118 -125 -128 0
-19 -36 -37 -52 -53 -82 -83 -94 -96 -106 -107 -117 -118 -125 -128 0
-19 -36 -37 -52 -53 -82 -83 -95 -96 -106 -108 -117 -118 -125 -128 0
-19 -36 -37 -52 -53 -82 -83 -95 -96 -107 -108 -117 -119 -125 -128 0
-19 -36 -37 -52 -53 -82 -83 -95 -96 -107 -108 -118 -119 -125 -129 0
-17 -34 -35 -50 -51 -80 -81 -93 -94 -105 -106 -116 -117 -126 -127 0
-18 -34 -36 -50 -51 -80 -81 -93 -94 -105 -106 -116 -117 -126 -127 0
-19 -34 -37 -50 -51 -80 -81 -93 -94 -105 -106 -116 -117 -126 -127 0
-18 -35 -36 -50 -52 -80 -81 -93 -94 -105 -106 -116 -117 -126 -127 0
-19 -35 -37 -50 -52 -80 -81 -93 -94 -105 -106 -116 -117 -126 -127 0
-19 -36 -37 -50 -53 -80 -81 -93 -94 -105 -106 -116 -117 -126 -127 0
-18 -35 -36 -51 -52 -80 -82 -93 -94 -105 -106 -116 -117 -126 -127 0
-19 -35 -37 -51 -52 -80 -82 -93 -94 -105 -106 -116 -117 -126 -127 0
-19 -36 -37 -51 -53 -80 -82 -93 -94 -105 -106 -116 -117 -126 -127 0
-19 -36 -37 -52 -53 -80 -83 -93 -94 -105 -106 -116 -117 -126 -127 0
-18 -35 -36 -51 -52 -81 -82 -93 -95 -105 -106 -116 -117 -126 -127 0
-19 -35 -37 -51 -52 -81 -82 -93 -95 -105 -106 -116 -117 -126 -127 0
-19 -36 -37 -51 -53 -81 -82 -93 -95 -105 -106 -116 -117 -126 -127 0
-19 -36 -37 -52 -53 -81 -83 -93 -95 -105 -106 -116 -117 -126 -127 0
-19 -36 -37 -52 -53 -82 -83 -93 -96 -105 -106 -116 -117 -126 -127 0
-18 -35 -36 -51 -52 -81 -82 -94 -95 -105 -107 -116 -117 -126 -127 0
-19 -35 -37 -51 -52 -81 -82 -94 -95 -105 -107 -116 -117 -126 -127 0
-19 -36 -37 -51 -53 -81 -82 -94 -95 -105 -107 -116 -117 -126 -127 0
-19 -36 -37 -52 -53 -81 -83 -94 -95 -105 -107 -116 -117 -126 -127 0
-19 -36 -37 -52 -53 -82 -83 -94 -96 -105 -107 -116 -117 -126 -127 0
-19 -36 -37 -52 -53 -82 -83 -95 -96 -105 -108 -116 -117 -126 -127 0
-18 -35 -36 -51 -52 -81 -82 -94 -95 -106 -107 -116 -118 -126 -127 0
-19 -35 -37 -51 -52 -81 -82 -94 -95 -106 -107 -116 -118 -126 -127 0
-19 -36 -37 -51 -53 -81 -82 -94 -95 -106 -107 -116 -118 -126 -127 0
-19 -36 -37 -52 -53 -81 -83 -94 -95 -106 -107 -116 -118 -126 -127 0
-19 -36 -37 -52 -53 -82 -83 -94 -96 -106 -107 -116 -118 -126 -127 0
-19 -36 -37 -52 -53 -82 -83 -95 -96 -106 -108 -116 -118 -126 -127 0
-19 -36 -37 -52 -53 -82 -83 -95 -96 -107 -108 -116 -119 -126 -127 0
-18 -35 -36 -51 -52 -81 -82 -94 -95 -106 -107 -117 -118 -126 -128 0
-19 -35 -37 -51 -52 -81 -82 -94 -95 -106 -107 -117 -118 -126 -128 0
-19 -36 -37 -51 -53 -81 -82 -94 -95 -106 -107 -117 -118 -126 -128 0
-19 -36 -37 -52 -53 -81 -83 -94 -95 -106 -107 -117 -118 -126 -128 0
-19 -36 -37 -52 -53 -82 -83 -94 -96 -106 -107 -117 -118 -126 -128 0
-19 -36 -37 -52 -53 -82 -83 -95 -96 -106 -108 -117 -118 -126 -128 0
-19 -36 -37 -52 -53 -82 -83 -95 -96 -107 -108 -117 -119 -126 -128 0
-19 -36 -37 -52 -53 -82 -83 -95 -96 -107 -108 -118 -119 -126 -129 0
-18 -35 -36 -51 -52 -81 -82 -94 -95 -106 -107 -117 -118 -127 -128 0
-19 -35 -37 -51 -52 -81 -82 -94 -95 -106 -107 -117 -118 -127 -128 0
-19 -36 -37 -51 -53 -81 -82 -94 -95 -106 -107 -117 -118 -127 -128 0
-19 -36 -37 -52 -53 -81 -83 -94 -95 -106 -107 -117 -118 -127 -128 0
-19 -36 -37 -52 -53 -82 -83 -94 -96 -106 -107 -117 -118 -127 -128 0
-19 -36 -37 -52 -53 -82 -83 -95 -96 -106 -108 -117 -118 -127 -128 0
-19 -36 -37 -52 -53 -82 -83 -95 -96 -107 -108 -117 -119 -127 -128 0
-19 -36 -37 -52 -53 -82 -83 -95 -96 -107 -108 -118 -119 -127 -129 0
-19 -36 -37 -52 -53 -82 -83 -95 -96 -107 -108 -118 -119 -128 -129 0
-17 -34 -35 -50 -51 -80 -81 -93 -94 -105 -106 -116 -117 -136 -137 0
-18 -34 -36 -50 -51 -80 -81 -93 -94 -105 -106 -116 -117 -136 -137 0
-19 -34 -37 -50 -51 -80 -81 -93 -94 -105 -106 -116 -117 -136 -137 0
-18 -35 -36 -50 -52 -80 -81 -93 -94 -105 -106 -116 -117 -136 -137 0
-19 -35 -37 -50 -52 -80 -81 -93 -94 -105 -106 -116 -117 -136 -137 0
-19 -36 -37 -50 -53 -80 -81 -93 -94 -105 -106 -116 -117 -136 -137 0
-18 -35 -36 -51 -52 -80 -82 -93 -94 -105 -106 -116 -117 -136 -137 0
-19 -35 -37 -51 -52 -80 -82 -93 -94 -105 -106 -116 -117 -136 -137 0
-19 -36 -37 -51 -53 -80 -82 -93 -94 -105 -106 -116 -117 -136 -137 0
-19 -36 -37 -52 -53 -80 -83 -93 -94 -105 -106 -116 -117 -136 -137 0
-18 -35 -36 -51 -52 -81 -82 -93 -95 -105 -106 -116 -117 -136 -137 0
-19 -35 -37 -51 -52 -81 -82 -93 -95 -105 -106 -116 -117 -136 -137 0
-19 -36 -37 -51 -53 -81 -82 -93 -95 -105 -106 -116 -117 -136 -137 0
-19 -36 -37 -52 -53 -81 -83 -93 -95 -105 -106 -116 -117 -136 -137 0
-19 -36 -37 -52 -53 -82 -83 -93 -96 -105 -106 -116 -117 -136 -137 0
-18 -35 -36 -51 -52 -81 -82 -94 -95 -105 -107 -116 -117 -136 -137 0
-19 -35 -37 -51 -52 -81 -82 -94 -95 -105 -107 -116 -117 -136 -137 0
-19 -36 -37 -51 -53 -81 -82 -94 -95 -105 -107 -116 -117 -136 -137 0
-19 -36 -37 -52 -53 -81 -83 -94 -95 -105 -107 -116 -117 -136 -137 0
-19 -36 -37 -52 -53 -82 -83 -94 -96 -105 -107 -116 -117 -136 -137 0
-19 -36 -37 -52 -53 -82 -83 -95 -96 -105 -108 -116 -117 -136 -137 0
-18 -35 -36 -51 -52 -81 -82 -94 -95 -106 -107 -116 -118 -136 -137 0
-19 -35 -37 -51 -52 -81 -82 -94 -95 -106 -107 -116 -118 -136 -137 0
-19 -36 -37 -51 -53 -81 -82 -94 -95 -106 -107 -116 -118 -136 -137 0
-19 -36 -37 -52 -53 -81 -83 -94 -95 -106 -107 -116 -118 -136 -137 0
-19 -36 -37 -52 -53 -82 -83 -94 -96 -106 -107 -116 -118 -136 -137 0
-19 -36 -37 -52 -53 -82 -83 -95 -96 -106 -108 -116 -118 -136 -137 0
-19 -36 -37 -52 -53 -82 -83 -95 -96 -107 -108 -116 -119 -136 -137 0
-18 -35 -36 -51 -52 -81 -82 -94 -95 -106 -107 -117 -118 -136 -138 0
-19 -35 -37 -51 -52 -81 -82 -94 -95 -106 -107 -117 -118 -136 -138 0
-19 -36 -37 -51 -53 -81 -82 -94 -95 -106 -107 -117 -118 -136 -138 0
-19 -36 -37 -52 -53 -81 -83 -94 -95 -106 -107 -117 -118 -136 -138 0
-19 -36 -37 -52 -53 -82 -83 -94 -96 -106 -107 -117 -118 -136 -138 0
-19 -36 -37 -52 -53 -82 -83 -95 -96 -106 -108 -117 -118 -136 -138 0
-19 -36 -37 -52 -53 -82 -83 -95 -96 -107 -108 -117 -119 -136 -138 0
-19 -36 -37 -52 -53 -82 -83 -95 -96 -107 -108 -118 -119 -136 -139 0
-18 -35 -36 -51 -52 -81 -82 -94 -95 -106 -107 -117 -118 -137 -138 0
-19 -35 -37 -51 -52 -81 -82 -94 -95 -106 -107 -117 -118 -137 -138 0
-19 -36 -37 -51 -53 -81 -82 -94 -95 -106 -107 -117 -118 -137 -138 0
-19 -36 -37 -52 -53 -81 -83 -94 -95 -106 -107 -117 -118 -137 -138 0
-19 -36 -37 -52 -53 -82 -83 -94 -96 -106 -107 -117 -118 -137 -138 0
-19 -36 -37 -52 -53 -82 -83 -95 -96 -106 -108 -117 -118 -137 -138 0
-19 -36 -37 -52 -53 -82 -83 -95 -96 -107 -108 -117 -119 -137 -138 0
-19 -36 -37 -52 -53 -82 -83 -95 -96 -107 -108 -118 -119 -137 -139 0
-19 -36 -37 -52 -53 -82 -83 -95 -96 -107 -108 -118 -119 -138 -139 0
-18 -35 -36 -51 -52 -81 -82 -94 -95 -106 -107 -117 -118 -146 -147 0
-19 -35 -37 -51 -52 -81 -82 -94 -95 -106 -107 -117 -118 -146 -147 0
-19 -36 -37 -51 -53 -81 -82 -94 -95 -106 -107 -117 -118 -146 -147 0
-19 -36 -37 -52 -53 -81 -83 -94 -95 -106 -107 -117 -118 -146 -147 0
-19 -36 -37 -52 -53 -82 -83 -94 -96 -106 -107 -117 -118 -146 -147 0
-19 -36 -37 -52 -53 -82 -83 -95 -96 -106 -108 -117 -118 -146 -147 0
-19 -36 -37 -52 -53 -82 -83 -95 -96 -107 -108 -117 -119 -146 -147 0
-19 -36 -37 -52 -53 -82 -83 -95 -96 -107 -108 -118 -119 -146 -148 0
-19 -36 -37 -52 -53 -82 -83 -95 -96 -107 -108 -118 -119 -147 -148 0
-19 -36 -37 -52 -53 -82 -83 -95 -96 -107 -108 -118 -119 -155 -156 0
-17 -34 -35 -50 -51 -80 -81 -93 -94 -105 -106 -127 -128 -136 -137 0
-18 -34 -36 -50 -51 -80 -81 -93 -94 -105 -106 -127 -128 -136 -137 0
-19 -34 -37 -50 -51 -80 -81 -93 -94 -105 -106 -127 -128 -136 -137 0
-18 -35 -36 -50 -52 -80 -81 -93 -94 -105 -106 -127 -128 -136 -137 0
-19 -35 -37 -50 -52 -80 -81 -93 -94 -105 -106 -127 -128 -136 -137 0
-19 -36 -37 -50 -53 -80 -81 -93 -94 -105 -106 -127 -128 -136 -137 0
-18 -35 -36 -51 -52 -80 -82 -93 -94 -105 -106 -127 -128 -136 -137 0
-19 -35 -37 -51 -52 -80 -82 -93 -94 -105 -106 -127 -128 -136 -137 0
-19 -36 -37 -51 -53 -80 -82 -93 -94 -105 -106 -127 -128 -136 -137 0
-19 -36 -37 -52 -53 -80 -83 -93 -94 -105 -106 -127 -128 -136 -137 0
-18 -35 -36 -51 -52 -81 -82 -93 -95 -105 -106 -127 -128 -136 -137 0
-19 -35 -37 -51 -52 -81 -82 -93 -95 -105 -106 -127 -128 -136 -137 0
-19 -36 -37 -51 -53 -81 -82 -93 -95 -105 -106 -127 -128 -136 -137 0
-19 -36 -37 -52 -53 -81 -83 -93 -95 -105 -106 -127 -128 -136 -137 0
-19 -36 -37 -52 -53 -82 -83 -93 -96 -105 -106 -127 -128 -136 -137 0
-18 -35 -36 -51 -52 -81 -82 -94 -95 -105 -107 -127 -128 -136 -137 0
-19 -35 -37 -51 -52 -81 -82 -94 -95 -105 -107 -127 -128 -136 -137 0
-19 -36 -37 -51 -53 -81 -82 -94 -95 -105 -107 -127 -128 -136 -137 0
-19 -36 -37 -52 -53 -81 -83 -94 -95 -105 -107 -127 -128 -136 -137 0
-19 -36 -37 -52 -53 -82 -83 -94 -96 -105 -107 -127 -128 -136 -137 0
-19 -36 -37 -52 -53 -82 -83 -95 -96 -105 -108 -127 -128 -136 -137 0
-18 -35 -36 -51 -52 -81 -82 -94 -95 -106 -107 -127 -129 -136 -137 0
-19 -35 -37 -51 -52 -81 -82 -94 -95 -106 -107 -127 -129 -136 -137 0
-19 -36 -37 -51 -53 -81 -82 -94 -95 -106 -107 -127 -129 -136 -137 0
-19 -36 -37 -52 -53 -81 -83 -94 -95 -106 -107 -127 -129 -136 -137 0
-19 -36 -37 -52 -53 -82 -83 -94 -96 -106 -107 -127 -129 -136 -137 0
-19 -36 -37 -52 -53 -82 -83 -95 -96 -106 -108 -127 -129 -136 -137 0
-19 -36 -37 -52 -53 -82 -83 -95 -96 -107 -108 -127 -130 -136 -137 0
-18 -35 -36 -51 -52 -81 -82 -94 -95 -106 -107 -128 -129 -136 -138 0
-19 -35 -37 -51 -52 -81 -82 -94 -95 -106 -107 -128 -129 -136 -138 0
-19 -36 -37 -51 -53 -81 -82 -94 -95 -106 -107 -128 -129 -136 -138 0
-19 -36 -37 -52 -53 -81 -83 -94 -95 -106 -107 -128 -129 -136 -138 0
-19 -36 -37 -52 -53 -82 -83 -94 -96 -106 -107 -128 -129 -136 -138 0
-19 -36 -37 -52 -53 -82 -83 -95 -96 -106 -108 -128 -129 -136 -138 0
-19 -36 -37 -52 -53 -82 -83 -95 -96 -107 -108 -128 -130 -136 -138 0
-19 -36 -37 -52 -53 -82 -83 -95 -96 -107 -108 -129 -130 -136 -139 0
-18 -35 -36 -51 -52 -81 -82 -94 -95 -106 -107 -128 -129 -137 -138 0
-19 -35 -37 -51 -52 -81 -82 -94 -95 -106 -107 -128 -129 -137 -138 0
-19 -36 -37 -51 -53 -81 -82 -94 -95 -106 -107 -128 -129 -137 -138 0
-19 -36 -37 -52 -53 -81 -83 -94 -95 -106 -107 -128 -129 -137 -138 0
-19 -36 -37 -52 -53 -82 -83 -94 -96 -106 -107 -128 -129 -137 -138 0
-19 -36 -37 -52 -53 -82 -83 -95 -96 -106 -108 -128 -129 -137 -138 0
-19 -36 -37 -52 -53 -82 -83 -95 -96 -107 -108 -128 -130 -137 -138 0
-19 -36 -37 -52 -53 -82 -83 -95 -96 -107 -108 -129 -130 -137 -139 0
-19 -36 -37 -52 -53 -82 -83 -95 -96 -107 -108 -129 -130 -138 -139 0
-18 -35 -36 -51 -52 -81 -82 -94 -95 -106 -107 -128 -129 -146 -147 0
-19 -35 -37 -51 -52 -81 -82 -94 -95 -106 -107 -128 -129 -146 -147 0
-19 -36 -37 -51 -53 -81 -82 -94 -95 -106 -107 -128 -129 -146 -147 0
-19 -36 -37 -52 -53 -81 -83 -94 -95 -106 -107 -128 -129 -146 -147 0
-19 -36 -37 -52 -53 -82 -83 -94 -96 -106 -107 -128 -129 -146 -147 0
-19 -36 -37 -52 -53 -82 -83 -95 -96 -106 -108 -128 -129 -146 -147 0
-19 -36 -37 -52 -53 -82 -83 -95 -96 -107 -108 -128 -130 -146 -147 0
-19 -36 -37 -52 -53 -82 -83 -95 -96 -107 -108 -129 -130 -146 -148 0
-19 -36 -37 -52 -53 -82 -83 -95 -96 -107 -108 -129 -130 -147 -148 0
-19 -36 -37 -52 -53 -82 -83 -95 -96 -107 -108 -129 -130 -155 -156 0
-18 -35 -36 -51 -52 -81 -82 -94 -95 -106 -107 -138 -139 -146 -147 0
-19 -35 -37 -51 -52 -81 -82 -94 -95 -106 -107 -138 -139 -146 -147 0
-19 -36 -37 -51 -53 -81 -82 -94 -95 -106 -107 -138 -139 -146 -147 0
-19 -36 -37 -52 -53 -81 -83 -94 -95 -106 -107 -138 -139 -146 -147 0
-19 -36 -37 -52 -53 -82 -83 -94 -96 -106 -107 -138 -139 -146 -147 0
-19 -36 -37 -52 -53 -82 -83 -95 -96 -106 -108 -138 -139 -146 -147 0
-19 -36 -37 -52 -53 -82 -83 -95 -96 -107 -108 -138 -140 -146 -147 0
-19 -36 -37 -52 -53 -82 -83 -95 -96 -107 -108 -139 -140 -146 -148 0
-19 -36 -37 -52 -53 -82 -83 -95 -96 -107 -108 -139 -140 -147 -148 0
-19 -36 -37 -52 -53 -82 -83 -95 -96 -107 -108 -139 -140 -155 -156 0
-19 -36 -37 -52 -53 -82 -83 -95 -96 -107 -108 -148 -149 -155 -156 0
-17 -34 -35 -50 -51 -80 -81 -93 -94 -117 -118 -127 -128 -136 -137 0
-18 -34 -36 -50 -51 -80 -81 -93 -94 -117 -118 -127 -128 -136 -137 0
-19 -34 -37 -50 -51 -80 -81 -93 -94 -117 -118 -127 -128 -136 -137 0
-18 -35 -36 -50 -52 -80 -81 -93 -94 -117 -118 -127 -128 -136 -137 0
-19 -35 -37 -50 -52 -80 -81 -93 -94 -117 -118 -127 -128 -136 -137 0
-19 -36 -37 -50 -53 -80 -81 -93 -94 -117 -118 -127 -128 -136 -137 0
-18 -35 -36 -51 -52 -80 -82 -93 -94 -117 -118 -127 -128 -136 -137 0
-19 -35 -37 -51 -52 -80 -82 -93 -94 -117 -118 -127 -128 -136 -137 0
-19 -36 -37 -51 -53 -80 -82 -93 -94 -117 -118 -127 -128 -136 -137 0
-19 -36 -37 -52 -53 -80 -83 -93 -94 -117 -118 -127 -128 -136 -137 0
-18 -35 -36 -51 -52 -81 -82 -93 -95 -117 -118 -127 -128 -136 -137 0
-19 -35 -37 -51 -52 -81 -82 -93 -95 -117 -118 -127 -128 -136 -137 0
-19 -36 -37 -51 -53 -81 -82 -93 -95 -117 -118 -127 -128 -136 -137 0
-19 -36 -37 -52 -53 -81 -83 -93 -95 -117 -118 -127 -128 -136 -137 0
-19 -36 -37 -52 -53 -82 -83 -93 -96 -117 -118 -127 -128 -136 -137 0
-18 -35 -36 -51 -52 -81 -82 -94 -95 -117 -119 -127 -128 -136 -137 0
-19 -35 -37 -51 -52 -81 -82 -94 -95 -117 -119 -127 -128 -136 -137 0
-19 -36 -37 -51 -53 -81 -82 -94 -95 -117 -119 -127 -128 -136 -137 0
-19 -36 -37 -52 -53 -81 -83 -94 -95 -117 -119 -127 -128 -136 -137 0
-19 -36 -37 -52 -53 -82 -83 -94 -96 -117 -119 -127 -128 -136 -137 0
-19 -36 -37 -52 -53 -82 -83 -95 -96 -117 -120 -127 -128 -136 -137 0
-18 -35 -36 -51 -52 -81 -82 -94 -95 -118 -119 -127 -129 -136 -137 0
-19 -35 -37 -51 -52 -81 -82 -94 -95 -118 -119 -127 -129 -136 -137 0
-19 -36 -37 -51 -53 -81 -82 -94 -95 -118 -119 -127 -129 -136 -137 0
-19 -36 -37 -52 -53 -81 -83 -94 -95 -118 -119 -127 -129 -136 -137 0
-19 -36 -37 -52 -53 -82 -83 -94 -96 -118 -119 -127 -129 -136 -137 0
-19 -36 -37 -52 -53 -82 -83 -95 -96 -118 -120 -127 -129 -136 -137 0
-19 -36 -37 -52 -53 -82 -83 -95 -96 -119 -120 -127 -130 -136 -137 0
-18 -35 -36 -51 -52 -81 -82 -94 -95 -118 -119 -128 -129 -136 -138 0
-19 -35 -37 -51 -52 -81 -82 -94 -95 -118 -119 -128 -129 -136 -138 0
-19 -36 -37 -51 -53 -81 -82 -94 -95 -118 -119 -128 -129 -136 -138 0
-19 -36 -37 -52 -53 -81 -83 -94 -95 -118 -119 -128 -129 -136 -138 0
-19 -36 -37 -52 -53 -82 -83 -94 -96 -118 -119 -128 -129 -136 -138 0
-19 -36 -37 -52 -53 -82 -83 -95 -96 -118 -120 -128 -129 -136 -138 0
-19 -36 -37 -52 -53 -82 -83 -95 -96 -119 -120 -128 -130 -136 -138 0
-19 -36 -37 -52 -53 -82 -83 -95 -96 -119 -120 -129 -130 -136 -139 0
-18 -35 -36 -51 -52 -81 -82 -94 -95 -118 -119 -128 -129 -137 -138 0
-19 -35 -37 -51 -52 -81 -82 -94 -95 -118 -119 -128 -129 -137 -138 0
-19 -36 -37 -51 -53 -81 -82 -94 -95 -118 -119 -128 -129 -137 -138 0
-19 -36 -37 -52 -53 -81 -83 -94 -95 -118 -119 -128 -129 -137 -138 0
-19 -36 -37 -52 -53 -82 -83 -94 -96 -118 -119 -128 -129 -137 -138 0
-19 -36 -37 -52 -53 -82 -83 -95 -96 -118 -120 -128 -129 -137 -138 0
-19 -36 -37 -52 -53 -82 -83 -95 -96 -119 -120 -128 -130 -137 -138 0
-19 -36 -37 -52 -53 -82 -83 -95 -96 -119 -120 -129 -130 -137 -139 0
-19 -36 -37 -52 -53 -82 -83 -95 -96 -119 -120 -129 -130 -138 -139 0
-18 -35 -36 -51 -52 -81 -82 -94 -95 -118 -119 -128 -129 -146 -147 0
-19 -35 -37 -51 -52 -81 -82 -94 -95 -118 -119 -128 -129 -146 -147 0
-19 -36 -37 -51 -53 -81 -82 -94 -95 -118 -119 -128 -129 -146 -147 0
-19 -36 -37 -52 -53 -81 -83 -94 -95 -118 -119 -128 -129 -146 -147 0
-19 -36 -37 -52 -53 -82 -83 -94 -96 -118 -119 -128 -129 -146 -147 0
-19 -36 -37 -52 -53 -82 -83 -95 -96 -118 -120 -128 -129 -146 -147 0
-19 -36 -37 -52 -53 -82 -83 -95 -96 -119 -120 -128 -130 -146 -147 0
-19 -36 -37 -52 -53 -82 -83 -95 -96 -119 -120 -129 -130 -146 -148 0
-19 -36 -37 -52 -53 -82 -83 -95 -96 -119 -120 -129 -130 -147 -148 0
-19 -36 -37 -52 -53 -82 -83 -95 -96 -119 -120 -129 -130 -155 -156 0
-18 -35 -36 -51 -52 -81 -82 -94 -95 -118 -119 -138 -139 -146 -147 0
-19 -35 -37 -51 -52 -81 -82 -94 -95 -118 -119 -138 -139 -146 -147 0
-19 -36 -37 -51 -53 -81 -82 -94 -95 -118 -119 -138 -139 -146 -147 0
-19 -36 -37 -52 -53 -81 -83 -94 -95 -118 -119 -138 -139 -146 -147 0
-19 -36 -37 -52 -53 -82 -83 -94 -96 -118 -119 -138 -139 -146 -147 0
-19 -36 -37 -52 -53 -82 -83 -95 -96 -118 -120 -138 -139 -146 -147 0
-19 -36 -37 -52 -53 -82 -83 -95 -96 -119 -120 -138 -140 -146 -147 0
-19 -36 -37 -52 -53 -82 -83 -95 -96 -119 -120 -139 -140 -146 -148 0
-19 -36 -37 -52 -53 -82 -83 -95 -96 -119 -120 -139 -140 -147 -148 0
-19 -36 -37 -52 -53 -82 -83 -95 -96 -119 -120 -139 -140 -155 -156 0
-19 -36 -37 -52 -53 -82 -83 -95 -96 -119 -120 -148 -149 -155 -156 0
-18 -35 -36 -51 -52 -81 -82 -94 -95 -129 -130 -138 -139 -146 -147 0
-19 -35 -37 -51 -52 -81 -82 -94 -95 -129 -130 -138 -139 -146 -147 0
-19 -36 -37 -51 -53 -81 -82 -94 -95 -129 -130 -138 -139 -146 -147 0
-19 -36 -37 -52 -53 -81 -83 -94 -95 -129 -130 -138 -139 -146 -147 0
-19 -36 -37 -52 -53 -82 -83 -94 -96 -129 -130 -138 -139 -146 -147 0
-19 -36 -37 -52 -53 -82 -83 -95 -96 -129 -131 -138 -139 -146 -147 0
-19 -36 -37 -52 -53 -82 -83 -95 -96 -130 -131 -138 -140 -146 -147 0
-19 -36 -37 -52 -53 -82 -83 -95 -96 -130 -131 -139 -140 -146 -148 0
-19 -36 -37 -52 -53 -82 -83 -95 -96 -130 -131 -139 -140 -147 -148 0
-19 -36 -37 -52 -53 -82 -83 -95 -96 -130 -131 -139 -140 -155 -156 0
-19 -36 -37 -52 -53 -82 -83 -95 -96 -130 -131 -148 -149 -155 -156 0
-19 -36 -37 -52 -53 -82 -83 -95 -96 -140 -141 -148 -149 -155 -156 0
-17 -34 -35 -50 -51 -80 -81 -106 -107 -117 -118 -127 -128 -136 -137 0
-18 -34 -36 -50 -51 -80 -81 -106 -107 -117 -118 -127 -128 -136 -137 0
-19 -34 -37 -50 -51 -80 -81 -106 -107 -117 -118 -127 -128 -136 -137 0
-18 -35 -36 -50 -52 -80 -81 -106 -107 -117 -118 -127 -128 -136 -137 0
-19 -35 -37 -50 -52 -80 -81 -106 -107 -117 -118 -127 -128 -136 -137 0
-19 -36 -37 -50 -53 -80 -81 -106 -107 -117 -118 -127 -128 -136 -137 0
-18 -35 -36 -51 -52 -80 -82 -106 -107 -117 -118 -127 -128 -136 -137 0
-19 -35 -37 -51 -52 -80 -82 -106 -107 -117 -118 -127 -128 -136 -137 0
-19 -36 -37 -51 -53 -80 -82 -106 -107 -117 -118 -127 -128 -136 -137 0
-19 -36 -37 -52 -53 -80 -83 -106 -107 -117 -118 -127 -128 -136 -137 0
-18 -35 -36 -51 -52 -81 -82 -106 -108 -117 -118 -127 -128 -136 -137 0
-19 -35 -37 -51 -52 -81 -82 -106 -108 -117 -118 -127 -128 -136 -137 0
-19 -36 -37 -51 -53 -81 -82 -106 -108 -117 -118 -127 -128 -136 -137 0
-19 -36 -37 -52 -53 -81 -83 -106 -108 -117 -118 -127 -128 -136 -137 0
-19 -36 -37 -52 -53 -82 -83 -106 -109 -117 -118 -127 -128 -136 -137 0
-18 -35 -36 -51 -52 -81 -82 -107 -108 -117 -119 -127 -128 -136 -137 0
-19 -35 -37 -51 -52 -81 -82 -107 -108 -117 -119 -127 -128 -136 -137 0
-19 -36 -37 -51 -53 -81 -82 -107 -108 -117 -119 -127 -128 -136 -137 0
-19 -36 -37 -52 -53 -81 -83 -107 -108 -117 -119 -127 -128 -136 -137 0
-19 -36 -37 -52 -53 -82 -83 -107 -109 -117 -119 -127 -128 -136 -137 0
-19 -36 -37 -52 -53 -82 -83 -108 -109 -117 -120 -127 -128 -136 -137 0
-18 -35 -36 -51 -52 -81 -82 -107 -108 -118 -119 -127 -129 -136 -137 0
-19 -35 -37 -51 -52 -81 -82 -107 -108 -118 -119 -127 -129 -136 -137 0
-19 -36 -37 -51 -53 -81 -82 -107 -108 -118 -119 -127 -129 -136 -137 0
-19 -36 -37 -52 -53 -81 -83 -107 -108 -118 -119 -127 -129 -136 -137 0
-19 -36 -37 -52 -53 -82 -83 -107 -109 -118 -119 -127 -129 -136 -137 0
-19 -36 -37 -52 -53 -82 -83 -108 -109 -118 -120 -127 -129 -136 -137 0
-19 -36 -37 -52 -53 -82 -83 -108 -109 -119 -120 -127 -130 -136 -137 0
-18 -35 -36 -51 -52 -81 -82 -107 -108 -118 -119 -128 -129 -136 -138 0
-19 -35 -37 -51 -52 -81 -82 -107 -108 -118 -119 -128 -129 -136 -138 0
-19 -36 -37 -51 -53 -81 -82 -107 -108 -118 -119 -128 -129 -136 -138 0
-19 -36 -37 -52 -53 -81 -83 -107 -108 -118 -119 -128 -129 -136 -138 0
-19 -36 -37 -52 -53 -82 -83 -107 -109 -118 -119 -128 -129 -136 -138 0
-19 -36 -37 -52 -53 -82 -83 -108 -109 -118 -120 -128 -129 -136 -138 0
-19 -36 -37 -52 -53 -82 -83 -108 -109 -119 -120 -128 -130 -136 -138 0
-19 -36 -37 -52 -53 -82 -83 -108 -109 -119 -120 -129 -130 -136 -139 0
-18 -35 -36 -51 -52 -81 -82 -107 -108 -118 -119 -128 -129 -137 -138 0
-19 -35 -37 -51 -52 -81 -82 -107 -108 -118 -119 -128 -129 -137 -138 0
-19 -36 -37 -51 -53 -81 -82 -107 -108 -118 -119 -128 -129 -137 -138 0
-19 -36 -37 -52 -53 -81 -83 -107 -108 -118 -119 -128 -129 -137 -138 0
-19 -36 -37 -52 -53 -82 -83 -107 -109 -118 -119 -128 -129 -137 -138 0
-19 -36 -37 -52 -53 -82 -83 -108 -109 -118 -120 -128 -129 -137 -138 0
-19 -36 -37 -52 -53 -82 -83 -108 -109 -119 -120 -128 -130 -137 -138 0
-19 -36 -37 -52 -53 -82 -83 -108 -109 -119 -120 -129 -130 -137 -139 0
-19 -36 -37 -52 -53 -82 -83 -108 -109 -119 -120 -129 -130 -138 -139 0
-18 -35 -36 -51 -52 -81 -82 -107 -108 -118 -119 -128 -129 -146 -147 0
-19 -35 -37 -51 -52 -81 -82 -107 -108 -118 -119 -128 -129 -146 -147 0
-19 -36 -37 -51 -53 -81 -82 -107 -108 -118 -119 -128 -129 -146 -147 0
-19 -36 -37 -52 -53 -81 -83 -107 -108 -118 -119 -128 -129 -146 -147 0
-19 -36 -37 -52 -53 -82 -83 -107 -109 -118 -119 -128 -129 -146 -147 0
-19 -36 -37 -52 -53 -82 -83 -108 -109 -118 -120 -128 -129 -146 -147 0
-19 -36 -37 -52 -53 -82 -83 -108 -109 -119 -120 -128 -130 -146 -147 0
-19 -36 -37 -52 -53 -82 -83 -108 -109 -119 -120 -129 -130 -146 -148 0
-19 -36 -37 -52 -53 -82 -83 -108 -109 -119 -120 -129 -130 -147 -148 0
-19 -36 -37 -52 -53 -82 -83 -108 -109 -119 -120 -129 -130 -155 -156 0
-18 -35 -36 -51 -52 -81 -82 -107 -108 -118 -119 -138 -139 -146 -147 0
-19 -35 -37 -51 -52 -81 -82 -107 -108 -118 -119 -138 -139 -146 -147 0
-19 -36 -37 -51 -53 -81 -82 -107 -108 -118 -119 -138 -139 -146 -147 0
-19 -36 -37 -52 -53 -81 -83 -107 -108 -118 -119 -138 -139 -146 -147 0
-19 -36 -37 -52 -53 -82 -83 -107 -109 -118 -119 -138 -139 -146 -147 0
-19 -36 -37 -52 -53 -82 -83 -108 -109 -118 -120 -138 -139 -146 -147 0
-19 -36 -37 -52 -53 -82 -83 -108 -109 -119 -120 -138 -140 -146 -147 0
-19 -36 -37 -52 -53 -82 -83 -108 -109 -119 -120 -139 -140 -146 -148 0
-19 -36 -37 -52 -53 -82 -83 -108 -109 -119 -120 -139 -140 -147 -148 0
-19 -36 -37 -52 -53 -82 -83 -108 -109 -119 -120 -139 -140 -155 -156 0
-19 -36 -37 -52 -53 -82 -83 -108 -109 -119 -120 -148 -149 -155 -156 0
-18 -35 -36 -51 -52 -81 -82 -107 -108 -129 -130 -138 -139 -146 -147 0
-19 -35 -37 -51 -52 -81 -82 -107 -108 -129 -130 -138 -139 -146 -147 0
-19 -36 -37 -51 -53 -81 -82 -107 -108 -129 -130 -138 -139 -146 -147 0
-19 -36 -37 -52 -53 -81 -83 -107 -108 -129 -130 -138 -139 -146 -147 0
-19 -36 -37 -52 -53 -82 -83 -107 -109 -129 -130 -138 -139 -146 -147 0
-19 -36 -37 -52 -53 -82 -83 -108 -109 -129 -131 -138 -139 -146 -147 0
-19 -36 -37 -52 -53 -82 -83 -108 -109 -130 -131 -138 -140 -146 -147 0
-19 -36 -37 -52 -53 -82 -83 -108 -109 -130 -131 -139 -140 -146 -148 0
-19 -36 -37 -52 -53 -82 -83 -108 -109 -130 -131 -139 -140 -147 -148 0
-19 -36 -37 -52 -53 -82 -83 -108 -109 -130 -131 -139 -140 -155 -156 0
-19 -36 -37 -52 -53 -82 -83 -108 -109 -130 -131 -148 -149 -155 -156 0
-19 -36 -37 -52 -53 -82 -83 -108 -109 -140 -141 -148 -149 -155 -156 0
-18 -35 -36 -51 -52 -81 -82 -119 -120 -129 -130 -138 -139 -146 -147 0
-19 -35 -37 -51 -52 -81 -82 -119 -120 -129 -130 -138 -139 -146 -147 0
-19 -36 -37 -51 -53 -81 -82 -119 -120 -129 -130 -138 -139 -146 -147 0
-19 -36 -37 -52 -53 -81 -83 -119 -120 -129 -130 -138 -139 -146 -147 0
-19 -36 -37 -52 -53 -82 -83 -119 -121 -129 -130 -138 -139 -146 -147 0
-19 -36 -37 -52 -53 -82 -83 -120 -121 -129 -131 -138 -139 -146 -147 0
-19 -36 -37 -52 -53 -82 -83 -120 -121 -130 -131 -138 -140 -146 -147 0
-19 -36 -37 -52 -53 -82 -83 -120 -121 -130 -131 -139 -140 -146 -148 0
-19 -36 -37 -52 -53 -82 -83 -120 -121 -130 -131 -139 -140 -147 -148 0
-19 -36 -37 -52 -53 -82 -83 -120 -121 -130 -131 -139 -140 -155 -156 0
-19 -36 -37 -52 -53 -82 -83 -120 -121 -130 -131 -148 -149 -155 -156 0
-19 -36 -37 -52 -53 -82 -83 -120 -121 -140 -141 -148 -149 -155 -156 0
-19 -36 -37 -52 -53 -82 -83 -131 -132 -140 -141 -148 -149 -155 -156 0
-17 -34 -35 -50 -51 -94 -95 -106 -107 -117 -118 -127 -128 -136 -137 0
-18 -34 -36 -50 -51 -94 -95 -106 -107 -117 -118 -127 -128 -136 -137 0
-19 -34 -37 -50 -51 -94 -95 -106 -107 -117 -118 -127 -128 -136 -137 0
-18 -35 -36 -50 -52 -94 -95 -106 -107 -117 -118 -127 -128 -136 -137 0
-19 -35 -37 -50 -52 -94 -95 -106 -107 -117 -118 -127 -128 -136 -137 0
-19 -36 -37 -50 -53 -94 -95 -106 -107 -117 -118 -127 -128 -136 -137 0
-18 -35 -36 -51 -52 -94 -96 -106 -107 -117 -118 -127 -128 -136 -137 0
-19 -35 -37 -51 -52 -94 -96 -106 -107 -117 -118 -127 -128 -136 -137 0
-19 -36 -37 -51 -53 -94 -96 -106 -107 -117 -118 -127 -128 -136 -137 0
-19 -36 -37 -52 -53 -94 -97 -106 -107 -117 -118 -127 -128 -136 -137 0
-18 -35 -36 -51 -52 -95 -96 -106 -108 -117 -118 -127 -128 -136 -137 0
-19 -35 -37 -51 -52 -95 -96 -106 -108 -117 -118 -127 -128 -136 -137 0
-19 -36 -37 -51 -53 -95 -96 -106 -108 -117 -118 -127 -128 -136 -137 0
-19 -36 -37 -52 -53 -95 -97 -106 -108 -117 -118 -127 -128 -136 -137 0
-19 -36 -37 -52 -53 -96 -97 -106 -109 -117 -118 -127 -128 -136 -137 0
-18 -35 -36 -51 -52 -95 -96 -107 -108 -117 -119 -127 -128 -136 -137 0
-19 -35 -37 -51 -52 -95 -96 -107 -108 -117 -119 -127 -128 -136 -137 0
-19 -36 -37 -51 -53 -95 -96 -107 -108 -117 -119 -127 -128 -136 -137 0
-19 -36 -37 -52 -53 -95 -97 -107 -108 -117 -119 -127 -128 -136 -137 0
-19 -36 -37 -52 -53 -96 -97 -107 -109 -117 -119 -127 -128 -136 -137 0
-19 -36 -37 -52 -53 -96 -97 -108 -109 -117 -120 -127 -128 -136 -137 0
-18 -35 -36 -51 -52 -95 -96 -107 -108 -118 -119 -127 -129 -136 -137 0
-19 -35 -37 -51 -52 -95 -96 -107 -108 -118 -119 -127 -129 -136 -137 0
-19 -36 -37 -51 -53 -95 -96 -107 -108 -118 -119 -127 -129 -136 -137 0
-19 -36 -37 -52 -53 -95 -97 -107 -108 -118 -119 -127 -129 -136 -137 0
-19 -36 -37 -52 -53 -96 -97 -107 -109 -118 -119 -127 -129 -136 -137 0
-19 -36 -37 -52 -53 -96 -97 -108 -109 -118 -120 -127 -129 -136 -137 0
-19 -36 -37 -52 -53 -96 -97 -108 -109 -119 -120 -127 -130 -136 -137 0
-18 -35 -36 -51 -52 -95 -96 -107 -108 -118 -119 -128 -129 -136 -138 0
-19 -35 -37 -51 -52 -95 -96 -107 -108 -118 -119 -128 -129 -136 -138 0
-19 -36 -37 -51 -53 -95 -96 -107 -108 -118 -119 -128 -129 -136 -138 0
-19 -36 -37 -52 -53 -95 -97 -107 -108 -118 -119 -128 -129 -136 -138 0
-19 -36 -37 -52 -53 -96 -97 -107 -109 -118 -119 -128 -129 -136 -138 0
-19 -36 -37 -52 -53 -96 -97 -108 -109 -118 -120 -128 -129 -136 -138 0
-19 -36 -37 -52 -53 -96 -97 -108 -109 -119 -120 -128 -130 -136 -138 0
-19 -36 -37 -52 -53 -96 -97 -108 -109 -119 -120 -129 -130 -136 -139 0
-18 -35 -36 -51 -52 -95 -96 -107 -108 -118 -119 -128 -129 -137 -138 0
-19 -35 -37 -51 -52 -95 -96 -107 -108 -118 -119 -128 -129 -137 -138 0
-19 -36 -37 -51 -53 -95 -96 -107 -108 -118 -119 -128 -129 -137 -138 0
-19 -36 -37 -52 -53 -95 -97 -107 -108 -118 -119 -128 -129 -137 -138 0
-19 -36 -37 -52 -53 -96 -97 -107 -109 -118 -119 -128 -129 -137 -138 0
-19 -36 -37 -52 -53 -96 -97 -108 -109 -118 -120 -128 -129 -137 -138 0
-19 -36 -37 -52 -53 -96 -97 -108 -109 -119 -120 -128 -130 -137 -138 0
-19 -36 -37 -52 -53 -96 -97 -108 -109 -119 -120 -129 -130 -137 -139 0
-19 -36 -37 -52 -53 -96 -97 -108 -109 -119 -120 -129 -130 -138 -139 0
-18 -35 -36 -51 -52 -95 -96 -107 -108 -118 -119 -128 -129 -146 -147 0
-19 -35 -37 -51 -52 -95 -96 -107 -108 -118 -119 -128 -129 -146 -147 0
-19 -36 -37 -51 -53 -95 -96 -107 -108 -118 -119 -128 -129 -146 -147 0
-19 -36 -37 -52 -53 -95 -97 -107 -108 -118 -119 -128 -129 -146 -147 0
-19 -36 -37 -52 -53 -96 -97 -107 -109 -118 -119 -128 -129 -146 -147 0
-19 -36 -37 -52 -53 -96 -97 -108 -109 -118 -120 -128 -129 -146 -147 0
-19 -36 -37 -52 -53 -96 -97 -108 -109 -119 -120 -128 -130 -146 -147 0
-19 -36 -37 -52 -53 -96 -97 -108 -109 -119 -120 -129 -130 -146 -148 0
-19 -36 -37 -52 -53 -96 -97 -108 -109 -119 -120 -129 -130 -147 -148 0
-19 -36 -37 -52 -53 -96 -97 -108 -109 -119 -120 -129 -130 -155 -156 0
-18 -35 -36 -51 -52 -95 -96 -107 -108 -118 -119 -138 -139 -146 -147 0
-19 -35 -37 -51 -52 -95 -96 -107 -108 -118 -119 -138 -139 -146 -147 0
-19 -36 -37 -51 -53 -95 -96 -107 -108 -118 -119 -138 -139 -146 -147 0
-19 -36 -37 -52 -53 -95 -97 -107 -108 -118 -119 -138 -139 -146 -147 0
-19 -36 -37 -52 -53 -96 -97 -107 -109 -118 -119 -138 -139 -146 -147 0
-19 -36 -37 -52 -53 -96 -97 -108 -109 -118 -120 -138 -139 -146 -147 0
-19 -36 -37 -52 -53 -96 -97 -108 -109 -119 -120 -138 -140 -146 -147 0
-19 -36 -37 -52 -53 -96 -97 -108 -109 -119 -120 -139 -140 -146 -148 0
-19 -36 -37 -52 -53 -96 -97 -108 -109 -119 -120 -139 -140 -147 -148 0
-19 -36 -37 -52 -53 -96 -97 -108 -109 -119 -120 -139 -140 -155 -156 0
-19 -36 -37 -52 -53 -96 -97 -108 -109 -119 -120 -148 -149 -155 -156 0
-18 -35 -36 -51 -52 -95 -96 -107 -108 -129 -130 -138 -139 -146 -147 0
-19 -35 -37 -51 -52 -95 -96 -107 -108 -129 -130 -138 -139 -146 -147 0
-19 -36 -37 -51 -53 -95 -96 -107 -108 -129 -130 -138 -139 -146 -147 0
-19 -36 -37 -52 -53 -95 -97 -107 -108 -129 -130 -138 -139 -146 -147 0
-19 -36 -37 -52 -53 -96 -97 -107 -109 -129 -130 -138 -139 -146 -147 0
-19 -36 -37 -52 -53 -96 -97 -108 -109 -129 -131 -138 -139 -146 -147 0
-19 -36 -37 -52 -53 -96 -97 -108 -109 -130 -131 -138 -140 -146 -147 0
-19 -36 -37 -52 -53 -96 -97 -108 -109 -130 -131 -139 -140 -146 -148 0
-19 -36 -37 -52 -53 -96 -97 -108 -109 -130 -131 -139 -140 -147 -148 0
-19 -36 -37 -52 -53 -96 -97 -108 -109 -130 -131 -139 -140 -155 -156 0
-19 -36 -37 -52 -53 -96 -97 -108 -109 -130 -131 -148 -149 -155 -156 0
-19 -36 -37 -52 -53 -96 -97 -108 -109 -140 -141 -148 -149 -155 -156 0
-18 -35 -36 -51 -52 -95 -96 -119 -120 -129 -130 -138 -139 -146 -147 0
-19 -35 -37 -51 -52 -95 -96 -119 -120 -129 -130 -138 -139 -146 -147 0
-19 -36 -37 -51 -53 -95 -96 -119 -120 -129 -130 -138 -139 -146 -147 0
-19 -36 -37 -52 -53 -95 -97 -119 -120 -129 -130 -138 -139 -146 -147 0
-19 -36 -37 -52 -53 -96 -97 -119 -121 -129 -130 -138 -139 -146 -147 0
-19 -36 -37 -52 -53 -96 -97 -120 -121 -129 -131 -138 -139 -146 -147 0
-19 -36 -37 -52 -53 -96 -97 -120 -121 -130 -131 -138 -140 -146 -147 0
-19 -36 -37 -52 -53 -96 -97 -120 -121 -130 -131 -139 -140 -146 -148 0
-19 -36 -37 -52 -53 -96 -97 -120 -121 -130 -131 -139 -140 -147 -148 0
-19 -36 -37 -52 -53 -96 -97 -120 -121 -130 -131 -139 -140 -155 -156 0
-19 -36 -37 -52 -53 -96 -97 -120 -121 -130 -131 -148 -149 -155 -156 0
-19 -36 -37 -52 -53 -96 -97 -120 -121 -140 -141 -148 -149 -155 -156 0
-19 -36 -37 -52 -53 -96 -97 -131 -132 -140 -141 -148 -149 -155 -156 0
-18 -35 -36 -51 -52 -108 -109 -119 -120 -129 -130 -138 -139 -146 -147 0
-19 -35 -37 -51 -52 -108 -109 -119 -120 -129 -130 -138 -139 -146 -147 0
-19 -36 -37 -51 -53 -108 -109 -119 -120 -129 -130 -138 -139 -146 -147 0
-19 -36 -37 -52 -53 -108 -110 -119 -120 -129 -130 -138 -139 -146 -147 0
-19 -36 -37 -52 -53 -109 -110 -119 -121 -129 -130 -138 -139 -146 -147 0
-19 -36 -37 -52 -53 -109 -110 -120 -121 -129 -131 -138 -139 -146 -147 0
-19 -36 -37 -52 -53 -109 -110 -120 -121 -130 -131 -138 -140 -146 -147 0
-19 -36 -37 -52 -53 -109 -110 -120 -121 -130 -131 -139 -140 -146 -148 0
-19 -36 -37 -52 -53 -109 -110 -120 -121 -130 -131 -139 -140 -147 -148 0
-19 -36 -37 -52 -53 -109 -110 -120 -121 -130 -131 -139 -140 -155 -156 0
-19 -36 -37 -52 -53 -109 -110 -120 -121 -130 -131 -148 -149 -155 -156 0
-19 -36 -37 -52 -53 -109 -110 -120 -121 -140 -141 -148 -149 -155 -156 0
-19 -36 -37 -52 -53 -109 -110 -131 -132 -140 -141 -148 -149 -155 -156 0
-19 -36 -37 -52 -53 -121 -122 -131 -132 -140 -141 -148 -149 -155 -156 0
-16 -33 -34 -65 -66 -79 -80 -92 -93 -104 -105 -115 -116 -125 -126 0
-17 -33 -35 -65 -66 -79 -80 -92 -93 -104 -105 -115 -116 -125 -126 0
-18 -33 -36 -65 -66 -79 -80 -92 -93 -104 -105 -115 -116 -125 -126 0
-19 -33 -37 -65 -66 -79 -80 -92 -93 -104 -105 -115 -116 -125 -126 0
-17 -34 -35 -65 -67 -79 -80 -92 -93 -104 -105 -115 -116 -125 -126 0
-18 -34 -36 -65 -67 -79 -80 -92 -93 -104 -105 -115 -116 -125 -126 0
-19 -34 -37 -65 -67 -79 -80 -92 -93 -104 -105 -115 -116 -125 -126 0
-18 -35 -36 -65 -68 -79 -80 -92 -93 -104 -105 -115 -116 -125 -126 0
-19 -35 -37 -65 -68 -79 -80 -92 -93 -104 -105 -115 -116 -125 -126 0
-19 -36 -37 -65 -69 -79 -80 -92 -93 -104 -105 -115 -116 -125 -126 0
-17 -34 -35 -66 -67 -79 -81 -92 -93 -104 -105 -115 -116 -125 -126 0
-18 -34 -36 -66 -67 -79 -81 -92 -93 -104 -105 -115 -116 -125 -126 0
-19 -34 -37 -66 -67 -79 -81 -92 -93 -104 -105 -115 -116 -125 -126 0
-18 -35 -36 -66 -68 -79 -81 -92 -93 -104 -105 -115 -116 -125 -126 0
-19 -35 -37 -66 -68 -79 -81 -92 -93 -104 -105 -115 -116 -125 -126 0
-19 -36 -37 -66 -69 -79 -81 -92 -93 -104 -105 -115 -116 -125 -126 0
-18 -35 -36 -67 -68 -79 -82 -92 -93 -104 -105 -115 -116 -125 -126 0
-19 -35 -37 -67 -68 -79 -82 -92 -93 -104 -105 -115 -116 -125 -126 0
-19 -36 -37 -67 -69 -79 -82 -92 -93 -104 -105 -115 -116 -125 -126 0
-19 -36 -37 -68 -69 -79 -83 -92 -93 -104 -105 -115 -116 -125 -126 0
-17 -34 -35 -66 -67 -80 -81 -92 -94 -104 -105 -115 -116 -125 -126 0
-18 -34 -36 -66 -67 -80 -81 -92 -94 -104 -105 -115 -116 -125 -126 0
-19 -34 -37 -66 -67 -80 -81 -92 -94 -104 -105 -115 -116 -125 -126 0
-18 -35 -36 -66 -68 -80 -81 -92 -94 -104 -105 -115 -116 -125 -126 0
-19 -35 -37 -66 -68 -80 -81 -92 -94 -104 -105 -115 -116 -125 -126 0
-19 -36 -37 -66 -69 -80 -81 -92 -94 -104 -105 -115 -116 -125 -126 0
-18 -35 -36 -67 -68 -80 -82 -92 -94 -104 -105 -115 -116 -125 -126 0
-19 -35 -37 -67 -68 -80 -82 -92 -94 -104 -105 -115 -116 -125 -126 0
-19 -36 -37 -67 -69 -80 -82 -92 -94 -104 -105 -115 -116 -125 -126 0
-19 -36 -37 -68 -69 -80 -83 -92 -94 -104 -105 -115 -116 -125 -126 0
-18 -35 -36 -67 -68 -81 -82 -92 -95 -104 -105 -115 -116 -125 -126 0
-19 -35 -37 -67 -68 -81 -82 -92 -95 -104 -105 -115 -116 -125 -126 0
-19 -36 -37 -67 -69 -81 -82 -92 -95 -104 -105 -115 -116 -125 -126 0
-19 -36 -37 -68 -69 -81 -83 -92 -95 -104 -105 -115 -116 -125 -126 0
-19 -36 -37 -68 -69 -82 -83 -92 -96 -104 -105 -115 -116 -125 -126 0
-17 -34 -35 -66 -67 -80 -81 -93 -94 -104 -106 -115 -116 -125 -126 0
-18 -34 -36 -66 -67 -80 -81 -93 -94 -104 -106 -115 -116 -125 -126 0
-19 -34 -37 -66 -67 -80 -81 -93 -94 -104 -106 -115 -116 -125 -126 0
-18 -35 -36 -66 -68 -80 -81 -93 -94 -104 -106 -115 -116 -125 -126 0
-19 -35 -37 -66 -68 -80 -81 -93 -94 -104 -106 -115 -116 -125 -126 0
-19 -36 -37 -66 -69 -80 -81 -93 -94 -104 -106 -115 -116 -125 -126 0
-18 -35 -36 -67 -68 -80 -82 -93 -94 -104 -106 -115 -116 -125 -126 0
-19 -35 -37 -67 -68 -80 -82 -93 -94 -104 -106 -115 -116 -125 -126 0
-19 -36 -37 -67 -69 -80 -82 -93 -94 -104 -106 -115 -116 -125 -126 0
-19 -36 -37 -68 -69 -80 -83 -93 -94 -104 -106 -115 -116 -125 -126 0
-18 -35 -36 -67 -68 -81 -82 -93 -95 -104 -106 -115 -116 -125 -126 0
-19 -35 -37 -67 -68 -81 -82 -93 -95 -104 -106 -115 -116 -125 -126 0
-19 -36 -37 -67 -69 -81 -82 -93 -95 -104 -106 -115 -116 -125 -126 0
-19 -36 -37 -68 -69 -81 -83 -93 -95 -104 -106 -115 -116 -125 -126 0
-19 -36 -37 -68 -69 -82 -83 -93 -96 -104 -106 -115 -116 -125 -126 0
-18 -35 -36 -67 -68 -81 -82 -94 -95 -104 -107 -115 -116 -125 -126 0
-19 -35 -37 -67 -68 -81 -82 -94 -95 -104 -107 -115 -116 -125 -126 0
-19 -36 -37 -67 -69 -81 -82 -94 -95 -104 -107 -115 -116 -125 -126 0
-19 -36 -37 -68 -69 -81 -83 -94 -95 -104 -107 -115 -116 -125 -126 0
-19 -36 -37 -68 -69 -82 -83 -94 -96 -104 -107 -115 -116 -125 -126 0
-19 -36 -37 -68 -69 -82 -83 -95 -96 -104 -108 -115 -116 -125 -126 0
-17 -34 -35 -66 -67 -80 -81 -93 -94 -105 -106 -115 -117 -125 -126 0
-18 -34 -36 -66 -67 -80 -81 -93 -94 -105 -106 -115 -117 -125 -126 0
-19 -34 -37 -66 -67 -80 -81 -93 -94 -105 -106 -115 -117 -125 -126 0
-18 -35 -36 -66 -68 -80 -81 -93 -94 -105 -106 -115 -117 -125 -126 0
-19 -35 -37 -66 -68 -80 -81 -93 -94 -105 -106 -115 -117 -125 -126 0
-19 -36 -37 -66 -69 -80 -81 -93 -94 -105 -106 -115 -117 -125 -126 0
-18 -35 -36 -67 -68 -80 -82 -93 -94 -105 -106 -115 -117 -125 -126 0
-19 -35 -37 -67 -68 -80 -82 -93 -94 -105 -106 -115 -117 -125 -126 0
-19 -36 -37 -67 -69 -80 -82 -93 -94 -105 -106 -115 -117 -125 -126 0
-19 -36 -37 -68 -69 -80 -83 -93 -94 -105 -106 -115 -117 -125 -126 0
-18 -35 -36 -67 -68 -81 -82 -93 -95 -105 -106 -115 -117 -125 -126 0
-19 -35 -37 -67 -68 -81 -82 -93 -95 -105 -106 -115 -117 -125 -126 0
-19 -36 -37 -67 -69 -81 -82 -93 -95 -105 -106 -115 -117 -125 -126 0
-19 -36 -37 -68 -69 -81 -83 -93 -95 -105 -106 -115 -117 -125 -126 0
-19 -36 -37 -68 -69 -82 -83 -93 -96 -105 -106 -115 -117 -125 -126 0
-18 -35 -36 -67 -68 -81 -82 -94 -95 -105 -107 -115 -117 -125 -126 0
-19 -35 -37 -67 -68 -81 -82 -94 -95 -105 -107 -115 -117 -125 -126 0
-19 -36 -37 -67 -69 -81 -82 -94 -95 -105 -107 -115 -117 -125 -126 0
-19 -36 -37 -68 -69 -81 -83 -94 -95 -105 -107 -115 -117 -125 -126 0
-19 -36 -37 -68 -69 -82 -83 -94 -96 -105 -107 -115 -117 -125 -126 0
-19 -36 -37 -68 -69 -82 -83 -95 -96 -105 -108 -115 -117 -125 -126 0
-18 -35 -36 -67 -68 -81 -82 -94 -95 -106 -107 -115 -118 -125 -126 0
-19 -35 -37 -67 -68 -81 -82 -94 -95 -106 -107 -115 -118 -125 -126 0
-19 -36 -37 -67 -69 -81 -82 -94 -95 -106 -107 -115 -118 -125 -126 0
-19 -36 -37 -68 -69 -81 -83 -94 -95 -106 -107 -115 -118 -125 -126 0
-19 -36 -37 -68 -69 -82 -83 -94 -96 -106 -107 -115 -118 -125 -126 0
-19 -36 -37 -68 -69 -82 -83 -95 -96 -106 -108 -115 -118 -125 -126 0
-19 -36 -37 -68 -69 -82 -83 -95 -96 -107 -108 -115 -119 -125 -126 0
-17 -34 -35 -66 -67 -80 -81 -93 -94 -105 -106 -116 -117 -125 -127 0
-18 -34 -36 -66 -67 -80 -81 -93 -94 -105 -106 -116 -117 -125 -127 0
-19 -34 -37 -66 -67 -80 -81 -93 -94 -105 -106 -116 -117 -125 -127 0
-18 -35 -36 -66 -68 -80 -81 -93 -94 -105 -106 -116 -117 -125 -127 0
-19 -35 -37 -66 -68 -80 -81 -93 -94 -105 -106 -116 -117 -125 -127 0
-19 -36 -37 -66 -69 -80 -81 -93 -94 -105 -106 -116 -117 -125 -127 0
-18 -35 -36 -67 -68 -80 -82 -93 -94 -105 -106 -116 -117 -125 -127 0
-19 -35 -37 -67 -68 -80 -82 -93 -94 -105 -106 -116 -117 -125 -127 0
-19 -36 -37 -67 -69 -80 -82 -93 -94 -105 -106 -116 -117 -125 -127 0
-19 -36 -37 -68 -69 -80 -83 -93 -94 -105 -106 -116 -117 -125 -127 0
-18 -35 -36 -67 -68 -81 -82 -93 -95 -105 -106 -116 -117 -125 -127 0
-19 -35 -37 -67 -68 -81 -82 -93 -95 -105 -106 -116 -117 -125 -127 0
-19 -36 -37 -67 -69 -81 -82 -93 -95 -105 -106 -116 -117 -125 -127 0
-19 -36 -37 -68 -69 -81 -83 -93 -95 -105 -106 -116 -117 -125 -127 0
-19 -36 -37 -68 -69 -82 -83 -93 -96 -105 -106 -116 -117 -125 -127 0
-18 -35 -36 -67 -68 -81 -82 -94 -95 -105 -107 -116 -117 -125 -127 0
-19 -35 -37 -67 -68 -81 -82 -94 -95 -105 -107 -116 -117 -125 -127 0
-19 -36 -37 -67 -69 -81 -82 -94 -95 -105 -107 -116 -117 -125 -127 0
-19 -36 -37 -68 -69 -81 -83 -94 -95 -105 -107 -116 -117 -125 -127 0
-19 -36 -37 -68 -69 -82 -83 -94 -96 -105 -107 -116 -117 -125 -127 0
-19 -36 -37 -68 -69 -82 -83 -95 -96 -105 -108 -116 -117 -125 -127 0
-18 -35 -36 -67 -68 -81 -82 -94 -95 -106 -107 -116 -118 -125 -127 0
-19 -35 -37 -67 -68 -81 -82 -94 -95 -106 -107 -116 -118 -125 -127 0
-19 -36 -37 -67 -69 -81 -82 -94 -95 -106 -107 -116 -118 -125 -127 0
-19 -36 -37 -68 -69 -81 -83 -94 -95 -106 -107 -116 -118 -125 -127 0
-19 -36 -37 -68 -69 -82 -83 -94 -96 -106 -107 -116 -118 -125 -127 0
-19 -36 -37 -68 -69 -82 -83 -95 -96 -106 -108 -116 -118 -125 -127 0
-19 -36 -37 -68 -69 -82 -83 -95 -96 -107 -108 -116 -119 -125 -127 0
-18 -35 -36 -67 -68 -81 -82 -94 -95 -106 -107 -117 -118 -125 -128 0
-19 -35 -37 -67 -68 -81 -82 -94 -95 -106 -107 -117 -118 -125 -128 0
-19 -36 -37 -67 -69 -81 -82 -94 -95 -106 -107 -117 -118 -125 -128 0
-19 -36 -37 -68 -69 -81 -83 -94 -95 -106 -107 -117 -118 -125 -128 0
-19 -36 -37 -68 -69 -82 -83 -94 -96 -106 -107 -117 -118 -125 -128 0
-19 -36 -37 -68 -69 -82 -83 -95 -96 -106 -108 -117 -118 -125 -128 0
-19 -36 -37 -68 -69 -82 -83 -95 -96 -107 -108 -117 -119 -125 -128 0
-19 -36 -37 -68 -69 -82 -83 -95 -96 -107 -108 -118 -119 -125 -129 0
-17 -34 -35 -66 -67 -80 -81 -93 -94 -105 -106 -116 -117 -126 -127 0
-18 -34 -36 -66 -67 -80 -81 -93 -94 -105 -106 -116 -117 -126 -127 0
-19 -34 -37 -66 -67 -80 -81 -93 -94 -105 -106 -116 -117 -126 -127 0
-18 -35 -36 -66 -68 -80 -81 -93 -94 -105 -106 -116 -117 -126 -127 0
-19 -35 -37 -66 -68 -80 -81 -93 -94 -105 -106 -116 -117 -126 -127 0
-19 -36 -37 -66 -69 -80 -81 -93 -94 -105 -106 -116 -117 -126 -127 0
-18 -35 -36 -67 -68 -80 -82 -93 -94 -105 -106 -116 -117 -126 -127 0
-19 -35 -37 -67 -68 -80 -82 -93 -94 -105 -106 -116 -117 -126 -127 0
-19 -36 -37 -67 -69 -80 -82 -93 -94 -105 -106 -116 -117 -126 -127 0
-19 -36 -37 -68 -69 -80 -83 -93 -94 -105 -106 -116 -117 -126 -127 0
-18 -35 -36 -67 -68 -81 -82 -93 -95 -105 -106 -116 -117 -126 -127 0
-19 -35 -37 -67 -68 -81 -82 -93 -95 -105 -106 -116 -117 -126 -127 0
-19 -36 -37 -67 -69 -81 -82 -93 -95 -105 -106 -116 -117 -126 -127 0
-19 -36 -37 -68 -69 -81 -83 -93 -95 -105 -106 -116 -117 -126 -127 0
-19 -36 -37 -68 -69 -82 -83 -93 -96 -105 -106 -116 -117 -126 -127 0
-18 -35 -36 -67 -68 -81 -82 -94 -95 -105 -107 -116 -117 -126 -127 0
-19 -35 -37 -67 -68 -81 -82 -94 -95 -105 -107 -116 -117 -126 -127 0
-19 -36 -37 -67 -69 -81 -82 -94 -95 -105 -107 -116 -117 -126 -127 0
-19 -36 -37 -68 -69 -81 -83 -94 -95 -105 -107 -116 -117 -126 -127 0
-19 -36 -37 -68 -69 -82 -83 -94 -96 -105 -107 -116 -117 -126 -127 0
-19 -36 -37 -68 -69 -82 -83 -95 -96 -105 -108 -116 -117 -126 -127 0
-18 -35 -36 -67 -68 -81 -82 -94 -95 -106 -107 -116 -118 -126 -127 0
-19 -35 -37 -67 -68 -81 -82 -94 -95 -106 -107 -116 -118 -126 -127 0
-19 -36 -37 -67 -69 -81 -82 -94 -95 -106 -107 -116 -118 -126 -127 0
-19 -36 -37 -68 -69 -81 -83 -94 -95 -106 -107 -116 -118 -126 -127 0
-19 -36 -37 -68 -69 -82 -83 -94 -96 -106 -107 -116 -118 -126 -127 0
-19 -36 -37 -68 -69 -82 -83 -95 -96 -106 -108 -116 -118 -126 -127 0
-19 -36 -37 -68 -69 -82 -83 -95 -96 -107 -108 -116 -119 -126 -127 0
-18 -35 -36 -67 -68 -81 -82 -94 -95 -106 -107 -117 -118 -126 -128 0
-19 -35 -37 -67 -68 -81 -82 -94 -95 -106 -107 -117 -118 -126 -128 0
-19 -36 -37 -67 -69 -81 -82 -94 -95 -106 -107 -117 -118 -126 -128 0
-19 -36 -37 -68 -69 -81 -83 -94 -95 -106 -107 -117 -118 -126 -128 0
-19 -36 -37 -68 -69 -82 -83 -94 -96 -106 -107 -117 -118 -126 -128 0
-19 -36 -37 -68 -69 -82 -83 -95 -96 -106 -108 -117 -118 -126 -128 0
-19 -36 -37 -68 -69 -82 -83 -95 -96 -107 -108 -117 -119 -126 -128 0
-19 -36 -37 -68 -69 -82 -83 -95 -96 -107 -108 -118 -119 -126 -129 0
-18 -35 -36 -67 -68 -81 -82 -94 -95 -106 -107 -117 -118 -127 -128 0
-19 -35 -37 -67 -68 -81 -82 -94 -95 -106 -107 -117 -118 -127 -128 0
-19 -36 -37 -67 -69 -81 -82 -94 -95 -106 -107 -117 -118 -127 -128 0
-19 -36 -37 -68 -69 -81 -83 -94 -95 -106 -107 -117 -118 -127 -128 0
-19 -36 -37 -68 -69 -82 -83 -94 -96 -106 -107 -117 -118 -127 -128 0
-19 -36 -37 -68 -69 -82 -83 -95 -96 -106 -108 -117 -118 -127 -128 0
-19 -36 -37 -68 -69 -82 -83 -95 -96 -107 -108 -117 -119 -127 -128 0
-19 -36 -37 -68 -69 -82 -83 -95 -96 -107 -108 -118 -119 -127 -129 0
-19 -36 -37 -68 -69 -82 -83 -95 -96 -107 -108 -118 -119 -128 -129 0
-17 -34 -35 -66 -67 -80 -81 -93 -94 -105 -106 -116 -117 -136 -137 0
-18 -34 -36 -66 -67 -80 -81 -93 -94 -105 -106 -116 -117 -136 -137 0
-19 -34 -37 -66 -67 -80 -81 -93 -94 -105 -106 -116 -117 -136 -137 0
-18 -35 -36 -66 -68 -80 -81 -93 -94 -105 -106 -116 -117 -136 -137 0
-19 -35 -37 -66 -68 -80 -81 -93 -94 -105 -106 -116 -117 -136 -137 0
-19 -36 -37 -66 -69 -80 -81 -93 -94 -105 -106 -116 -117 -136 -137 0
-18 -35 -36 -67 -68 -80 -82 -93 -94 -105 -106 -116 -117 -136 -137 0
-19 -35 -37 -67 -68 -80 -82 -93 -94 -105 -106 -116 -117 -136 -137 0
-19 -36 -37 -67 -69 -80 -82 -93 -94 -105 -106 -116 -117 -136 -137 0
-19 -36 -37 -68 -69 -80 -83 -93 -94 -105 -106 -116 -117 -136 -137 0
-18 -35 -36 -67 -68 -81 -82 -93 -95 -105 -106 -116 -117 -136 -137 0
-19 -35 -37 -67 -68 -81 -82 -93 -95 -105 -106 -116 -117 -136 -137 0
-19 -36 -37 -67 -69 -81 -82 -93 -95 -105 -106 -116 -117 -136 -137 0
-19 -36 -37 -68 -69 -81 -83 -93 -95 -105 -106 -116 -117 -136 -137 0
-19 -36 -37 -68 -69 -82 -83 -93 -96 -105 -106 -116 -117 -136 -137 0
-18 -35 -36 -67 -68 -81 -82 -94 -95 -105 -107 -116 -117 -136 -137 0
-19 -35 -37 -67 -68 -81 -82 -94 -95 -105 -107 -116 -117 -136 -137 0
-19 -36 -37 -67 -69 -81 -82 -94 -95 -105 -107 -116 -117 -136 -137 0
-19 -36 -37 -68 -69 -81 -83 -94 -95 -105 -107 -116 -117 -136 -137 0
-19 -36 -37 -68 -69 -82 -83 -94 -96 -105 -107 -116 -117 -136 -137 0
-19 -36 -37 -68 -69 -82 -83 -95 -96 -105 -108 -116 -117 -136 -137 0
-18 -35 -36 -67 -68 -81 -82 -94 -95 -106 -107 -116 -118 -136 -137 0
-19 -35 -37 -67 -68 -81 -82 -94 -95 -106 -107 -116 -118 -136 -137 0
-19 -36 -37 -67 -69 -81 -82 -94 -95 -106 -107 -116 -118 -136 -137 0
-19 -36 -37 -68 -69 -81 -83 -94 -95 -106 -107 -116 -118 -136 -137 0
-19 -36 -37 -68 -69 -82 -83 -94 -96 -106 -107 -116 -118 -136 -137 0
-19 -36 -37 -68 -69 -82 -83 -95 -96 -106 -108 -116 -118 -136 -137 0
-19 -36 -37 -68 -69 -82 -83 -95 -96 -107 -108 -116 -119 -136 -137 0
-18 -35 -36 -67 -68 -81 -82 -94 -95 -106 -107 -117 -118 -136 -138 0
-19 -35 -37 -67 -68 -81 -82 -94 -95 -106 -107 -117 -118 -136 -138 0
-19 -36 -37 -67 -69 -81 -82 -94 -95 -106 -107 -117 -118 -136 -138 0
-19 -36 -37 -68 -69 -81 -83 -94 -95 -106 -107 -117 -118 -136 -138 0
-19 -36 -37 -68 -69 -82 -83 -94 -96 -106 -107 -117 -118 -136 -138 0
-19 -36 -37 -68 -69 -82 -83 -95 -96 -106 -108 -117 -118 -136 -138 0
-19 -36 -37 -68 -69 -82 -83 -95 -96 -107 -108 -117 -119 -136 -138 0
-19 -36 -37 -68 -69 -82 -83 -95 -96 -107 -108 -118 -119 -136 -139 0
-18 -35 -36 -67 -68 -81 -82 -94 -95 -106 -107 -117 -118 -137 -138 0
-19 -35 -37 -67 -68 -81 -82 -94 -95 -106 -107 -117 -118 -137 -138 0
-19 -36 -37 -67 -69 -81 -82 -94 -95 -106 -107 -117 -118 -137 -138 0
-19 -36 -37 -68 -69 -81 -83 -94 -95 -106 -107 -117 -118 -137 -138 0
-19 -36 -37 -68 -69 -82 -83 -94 -96 -106 -107 -117 -118 -137 -138 0
-19 -36 -37 -68 -69 -82 -83 -95 -96 -106 -108 -117 -118 -137 -138 0
-19 -36 -37 -68 -69 -82 -83 -95 -96 -107 -108 -117 -119 -137 -138 0
-19 -36 -37 -68 -69 -82 -83 -95 -96 -107 -108 -118 -119 -137 -139 0
-19 -36 -37 -68 -69 -82 -83 -95 -96 -107 -108 -118 -119 -138 -139 0
-18 -35 -36 -67 -68 -81 -82 -94 -95 -106 -107 -117 -118 -146 -147 0
-19 -35 -37 -67 -68 -81 -82 -94 -95 -106 -107 -117 -118 -146 -147 0
-19 -36 -37 -67 -69 -81 -82 -94 -95 -106 -107 -117 -118 -146 -147 0
-19 -36 -37 -68 -69 -81 -83 -94 -95 -106 -107 -117 -118 -146 -147 0
-19 -36 -37 -68 -69 -82 -83 -94 -96 -106 -107 -117 -118 -146 -147 0
-19 -36 -37 -68 -69 -82 -83 -95 -96 -106 -108 -117 -118 -146 -147 0
-19 -36 -37 -68 -69 -82 -83 -95 -96 -107 -108 -117 -119 -146 -147 0
-19 -36 -37 -68 -69 -82 -83 -95 -96 -107 -108 -118 -119 -146 -148 0
-19 -36 -37 -68 -69 -82 -83 -95 -96 -107 -108 -118 -119 -147 -148 0
-19 -36 -37 -68 -69 -82 -83 -95 -96 -107 -108 -118 -119 -155 -156 0
-17 -34 -35 -66 -67 -80 -81 -93 -94 -105 -106 -127 -128 -136 -137 0
-18 -34 -36 -66 -67 -80 -81 -93 -94 -105 -106 -127 -128 -136 -137 0
-19 -34 -37 -66 -67 -80 -81 -93 -94 -105 -106 -127 -128 -136 -137 0
-18 -35 -36 -66 -68 -80 -81 -93 -94 -105 -106 -127 -128 -136 -137 0
-19 -35 -37 -66 -68 -80 -81 -93 -94 -105 -106 -127 -128 -136 -137 0
-19 -36 -37 -66 -69 -80 -81 -93 -94 -105 -106 -127 -128 -136 -137 0
-18 -35 -36 -67 -68 -80 -82 -93 -94 -105 -106 -127 -128 -136 -137 0
-19 -35 -37 -67 -68 -80 -82 -93 -94 -105 -106 -127 -128 -136 -137 0
-19 -36 -37 -67 -69 -80 -82 -93 -94 -105 -106 -127 -128 -136 -137 0
-19 -36 -37 -68 -69 -80 -83 -93 -94 -105 -106 -127 -128 -136 -137 0
-18 -35 -36 -67 -68 -81 -82 -93 -95 -105 -106 -127 -128 -136 -137 0
-19 -35 -37 -67 -68 -81 -82 -93 -95 -105 -106 -127 -128 -136 -137 0
-19 -36 -37 -67 -69 -81 -82 -93 -95 -105 -106 -127 -128 -136 -137 0
-19 -36 -37 -68 -69 -81 -83 -93 -95 -105 -106 -127 -128 -136 -137 0
-19 -36 -37 -68 -69 -82 -83 -93 -96 -105 -106 -127 -128 -136 -137 0
-18 -35 -36 -67 -68 -81 -82 -94 -95 -105 -107 -127 -128 -136 -137 0
-19 -35 -37 -67 -68 -81 -82 -94 -95 -105 -107 -127 -128 -136 -137 0
-19 -36 -37 -67 -69 -81 -82 -94 -95 -105 -107 -127 -128 -136 -137 0
-19 -36 -37 -68 -69 -81 -83 -94 -95 -105 -107 -127 -128 -136 -137 0
-19 -36 -37 -68 -69 -82 -83 -94 -96 -105 -107 -127 -128 -136 -137 0
-19 -36 -37 -68 -69 -82 -83 -95 -96 -105 -108 -127 -128 -136 -137 0
-18 -35 -36 -67 -68 -81 -82 -94 -95 -106 -107 -127 -129 -136 -137 0
-19 -35 -37 -67 -68 -81 -82 -94 -95 -106 -107 -127 -129 -136 -137 0
-19 -36 -37 -67 -69 -81 -82 -94 -95 -106 -107 -127 -129 -136 -137 0
-19 -36 -37 -68 -69 -81 -83 -94 -95 -106 -107 -127 -129 -136 -137 0
-19 -36 -37 -68 -69 -82 -83 -94 -96 -106 -107 -127 -129 -136 -137 0
-19 -36 -37 -68 -69 -82 -83 -95 -96 -106 -108 -127 -129 -136 -137 0
-19 -36 -37 -68 -69 -82 -83 -95 -96 -107 -108 -127 -130 -136 -137 0
-18 -35 -36 -67 -68 -81 -82 -94 -95 -106 -107 -128 -129 -136 -138 0
-19 -35 -37 -67 -68 -81 -82 -94 -95 -106 -107 -128 -129 -136 -138 0
-19 -36 -37 -67 -69 -81 -82 -94 -95 -106 -107 -128 -129 -136 -138 0
-19 -36 -37 -68 -69 -81 -83 -94 -95 -106 -107 -128 -129 -136 -138 0
-19 -36 -37 -68 -69 -82 -83 -94 -96 -106 -107 -128 -129 -136 -138 0
-19 -36 -37 -68 -69 -82 -83 -95 -96 -106 -108 -128 -129 -136 -138 0
-19 -36 -37 -68 -69 -82 -83 -95 -96 -107 -108 -128 -130 -136 -138 0
-19 -36 -37 -68 -69 -82 -83 -95 -96 -107 -108 -129 -130 -136 -139 0
-18 -35 -36 -67 -68 -81 -82 -94 -95 -106 -107 -128 -129 -137 -138 0
-19 -35 -37 -67 -68 -81 -82 -94 -95 -106 -107 -128 -129 -137 -138 0
-19 -36 -37 -67 -69 -81 -82 -94 -95 -106 -107 -128 -129 -137 -138 0
-19 -36 -37 -68 -69 -81 -83 -94 -95 -106 -107 -128 -129 -137 -138 0
-19 -36 -37 -68 -69 -82 -83 -94 -96 -106 -107 -128 -129 -137 -138 0
-19 -36 -37 -68 -69 -82 -83 -95 -96 -106 -108 -128 -129 -137 -138 0
-19 -36 -37 -68 -69 -82 -83 -95 -96 -107 -108 -128 -130 -137 -138 0
-19 -36 -37 -68 -69 -82 -83 -95 -96 -107 -108 -129 -130 -137 -139 0
-19 -36 -37 -68 -69 -82 -83 -95 -96 -107 -108 -129 -130 -138 -139 0
-18 -35 -36 -67 -68 -81 -82 -94 -95 -106 -107 -128 -129 -146 -147 0
-19 -35 -37 -67 -68 -81 -82 -94 -95 -106 -107 -128 -129 -146 -147 0
-19 -36 -37 -67 -69 -81 -82 -94 -95 -106 -107 -128 -129 -146 -147 0
-19 -36 -37 -68 -69 -81 -83 -94 -95 -106 -107 -128 -129 -146 -147 0
-19 -36 -37 -68 -69 -82 -83 -94 -96 -106 -107 -128 -129 -146 -147 0
-19 -36 -37 -68 -69 -82 -83 -95 -96 -106 -108 -128 -129 -146 -147 0
-19 -36 -37 -68 -69 -82 -83 -95 -96 -107 -108 -128 -130 -146 -147 0
-19 -36 -37 -68 -69 -82 -83 -95 -96 -107 -108 -129 -130 -146 -148 0
-19 -36 -37 -68 -69 -82 -83 -95 -96 -107 -108 -129 -130 -147 -148 0
-19 -36 -37 -68 -69 -82 -83 -95 -96 -107 -108 -129 -130 -155 -156 0
-18 -35 -36 -67 -68 -81 -82 -94 -95 -106 -107 -138 -139 -146 -147 0
-19 -35 -37 -67 -68 -81 -82 -94 -95 -106 -107 -138 -139 -146 -147 0
-19 -36 -37 -67 -69 -81 -82 -94 -95 -106 -107 -138 -139 -146 -147 0
-19 -36 -37 -68 -69 -81 -83 -94 -95 -106 -107 -138 -139 -146 -147 0
-19 -36 -37 -68 -69 -82 -83 -94 -96 -106 -107 -138 -139 -146 -147 0
-19 -36 -37 -68 -69 -82 -83 -95 -96 -106 -108 -138 -139 -146 -147 0
-19 -36 -37 -68 -69 -82 -83 -95 -96 -107 -108 -138 -140 -146 -147 0
-19 -36 -37 -68 -69 -82 -83 -95 -96 -107 -108 -139 -140 -146 -148 0
-19 -36 -37 -68 -69 -82 -83 -95 -96 -107 -108 -139 -140 -147 -148 0
-19 -36 -37 -68 -69 -82 -83 -95 -96 -107 -108 -139 -140 -155 -156 0
-19 -36 -37 -68 -69 -82 -83 -95 -96 -107 -108 -148 -149 -155 -156 0
-17 -34 -35 -66 -67 -80 -81 -93 -94 -117 -118 -127 -128 -136 -137 0
-18 -34 -36 -66 -67 -80 -81 -93 -94 -117 -118 -127 -128 -136 -137 0
-19 -34 -37 -66 -67 -80 -81 -93 -94 -117 -118 -127 -128 -136 -137 0
-18 -35 -36 -66 -68 -80 -81 -93 -94 -117 -118 -127 -128 -136 -137 0
-19 -35 -37 -66 -68 -80 -81 -93 -94 -117 -118 -127 -128 -136 -137 0
-19 -36 -37 -66 -69 -80 -81 -93 -94 -117 -118 -127 -128 -136 -137 0
-18 -35 -36 -67 -68 -80 -82 -93 -94 -117 -118 -127 -128 -136 -137 0
-19 -35 -37 -67 -68 -80 -82 -93 -94 -117 -118 -127 -128 -136 -137 0
-19 -36 -37 -67 -69 -80 -82 -93 -94 -117 -118 -127 -128 -136 -137 0
-19 -36 -37 -68 -69 -80 -83 -93 -94 -117 -118 -127 -128 -136 -137 0
-18 -35 -36 -67 -68 -81 -82 -93 -95 -117 -118 -127 -128 -136 -137 0
-19 -35 -37 -67 -68 -81 -82 -93 -95 -117 -118 -127 -128 -136 -137 0
-19 -36 -37 -67 -69 -81 -82 -93 -95 -117 -118 -127 -128 -136 -137 0
-19 -36 -37 -68 -69 -81 -83 -93 -95 -117 -118 -127 -128 -136 -137 0
-19 -36 -37 -68 -69 -82 -83 -93 -96 -117 -118 -127 -128 -136 -137 0
-18 -35 -36 -67 -68 -81 -82 -94 -95 -117 -119 -127 -128 -136 -137 0
-19 -35 -37 -67 -68 -81 -82 -94 -95 -117 -119 -127 -128 -136 -137 0
-19 -36 -37 -67 -69 -81 -82 -94 -95 -117 -119 -127 -128 -136 -137 0
-19 -36 -37 -68 -69 -81 -83 -94 -95 -117 -119 -127 -128 -136 -137 0
-19 -36 -37 -68 -69 -82 -83 -94 -96 -117 -119 -127 -128 -136 -137 0
-19 -36 -37 -68 -69 -82 -83 -95 -96 -117 -120 -127 -128 -136 -137 0
-18 -35 -36 -67 -68 -81 -82 -94 -95 -118 -119 -127 -129 -136 -137 0
-19 -35 -37 -67 -68 -81 -82 -94 -95 -118 -119 -127 -129 -136 -137 0
-19 -36 -37 -67 -69 -81 -82 -94 -95 -118 -119 -127 -129 -136 -137 0
-19 -36 -37 -68 -69 -81 -83 -94 -95 -118 -119 -127 -129 -136 -137 0
-19 -36 -37 -68 -69 -82 -83 -94 -96 -118 -119 -127 -129 -136 -137 0
-19 -36 -37 -68 -69 -82 -83 -95 -96 -118 -120 -127 -129 -136 -137 0
-19 -36 -37 -68 -69 -82 -83 -95 -96 -119 -120 -127 -130 -136 -137 0
-18 -35 -36 -67 -68 -81 -82 -94 -95 -118 -119 -128 -129 -136 -138 0
-19 -35 -37 -67 -68 -81 -82 -94 -95 -118 -119 -128 -129 -136 -138 0
-19 -36 -37 -67 -69 -81 -82 -94 -95 -118 -119 -128 -129 -136 -138 0
-19 -36 -37 -68 -69 -81 -83 -94 -95 -118 -119 -128 -129 -136 -138 0
-19 -36 -37 -68 -69 -82 -83 -94 -96 -118 -119 -128 -129 -136 -138 0
-19 -36 -37 -68 -69 -82 -83 -95 -96 -118 -120 -128 -129 -136 -138 0
-19 -36 -37 -68 -69 -82 -83 -95 -96 -119 -120 -128 -130 -136 -138 0
-19 -36 -37 -68 -69 -82 -83 -95 -96 -119 -120 -129 -130 -136 -139 0
-18 -35 -36 -67 -68 -81 -82 -94 -95 -118 -119 -128 -129 -137 -138 0
-19 -35 -37 -67 -68 -81 -82 -94 -95 -118 -119 -128 -129 -137 -138 0
-19 -36 -37 -67 -69 -81 -82 -94 -95 -118 -119 -128 -129 -137 -138 0
-19 -36 -37 -68 -69 -81 -83 -94 -95 -118 -119 -128 -129 -137 -138 0
-19 -36 -37 -68 -69 -82 -83 -94 -96 -118 -119 -128 -129 -137 -138 0
-19 -36 -37 -68 -69 -82 -83 -95 -96 -118 -120 -128 -129 -137 -138 0
-19 -36 -37 -68 -69 -82 -83 -95 -96 -119 -120 -128 -130 -137 -138 0
-19 -36 -37 -68 -69 -82 -83 -95 -96 -119 -120 -129 -130 -137 -139 0
-19 -36 -37 -68 -69 -82 -83 -95 -96 -119 -120 -129 -130 -138 -139 0
-18 -35 -36 -67 -68 -81 -82 -94 -95 -118 -119 -128 -129 -146 -147 0
-19 -35 -37 -67 -68 -81 -82 -94 -95 -118 -119 -128 -129 -146 -147 0
-19 -36 -37 -67 -69 -81 -82 -94 -95 -118 -119 -128 -129 -146 -147 0
-19 -36 -37 -68 -69 -81 -83 -94 -95 -118 -119 -128 -129 -146 -147 0
-19 -36 -37 -68 -69 -82 -83 -94 -96 -118 -119 -128 -129 -146 -147 0
-19 -36 -37 -68 -69 -82 -83 -95 -96 -118 -120 -128 -129 -146 -147 0
-19 -36 -37 -68 -69 -82 -83 -95 -96 -119 -120 -128 -130 -146 -147 0
-19 -36 -37 -68 -69 -82 -83 -95 -96 -119 -120 -129 -130 -146 -148 0
-19 -36 -37 -68 -69 -82 -83 -95 -96 -119 -120 -129 -130 -147 -148 0
-19 -36 -37 -68 -69 -82 -83 -95 -96 -119 -120 -129 -130 -155 -156 0
-18 -35 -36 -67 -68 -81 -82 -94 -95 -118 -119 -138 -139 -146 -147 0
-19 -35 -37 -67 -68 -81 -82 -94 -95 -118 -119 -138 -139 -146 -147 0
-19 -36 -37 -67 -69 -81 -82 -94 -95 -118 -119 -138 -139 -146 -147 0
-19 -36 -37 -68 -69 -81 -83 -94 -95 -118 -119 -138 -139 -146 -147 0
-19 -36 -37 -68 -69 -82 -83 -94 -96 -118 -119 -138 -139 -146 -147 0
-19 -36 -37 -68 -69 -82 -83 -95 -96 -118 -120 -138 -139 -146 -147 0
-19 -36 -37 -68 -69 -82 -83 -95 -96 -119 -120 -138 -140 -146 -147 0
-19 -36 -37 -68 -69 -82 -83 -95 -96 -119 -120 -139 -140 -146 -148 0
-19 -36 -37 -68 -69 -82 -83 -95 -96 -119 -120 -139 -140 -147 -148 0
-19 -36 -37 -68 -69 -82 -83 -95 -96 -119 -120 -139 -140 -155 -156 0
-19 -36 -37 -68 -69 -82 -83 -95 -96 -119 -120 -148 -149 -155 -156 0
-18 -35 -36 -67 -68 -81 -82 -94 -95 -129 -130 -138 -139 -146 -147 0
-19 -35 -37 -67 -68 -81 -82 -94 -95 -129 -130 -138 -139 -146 -147 0
-19 -36 -37 -67 -69 -81 -82 -94 -95 -129 -130 -138 -139 -146 -147 0
-19 -36 -37 -68 -69 -81 -83 -94 -95 -129 -130 -138 -139 -146 -147 0
-19 -36 -37 -68 -69 -82 -83 -94 -96 -129 -130 -138 -139 -146 -147 0
-19 -36 -37 -68 -69 -82 -83 -95 -96 -129 -131 -138 -139 -146 -147 0
-19 -36 -37 -68 -69 -82 -83 -95 -96 -130 -131 -138 -140 -146 -147 0
-19 -36 -37 -68 -69 -82 -83 -95 -96 -130 -131 -139 -140 -146 -148 0
-19 -36 -37 -68 -69 -82 -83 -95 -96 -130 -131 -139 -140 -147 -148 0
-19 -36 -37 -68 -69 -82 -83 -95 -96 -130 -131 -139 -140 -155 -156 0
-19 -36 -37 -68 -69 -82 -83 -95 -96 -130 -131 -148 -149 -155 -156 0
-19 -36 -37 -68 -69 -82 -83 -95 -96 -140 -141 -148 -149 -155 -156 0
-17 -34 -35 -66 -67 -80 -81 -106 -107 -117 -118 -127 -128 -136 -137 0
-18 -34 -36 -66 -67 -80 -81 -106 -107 -117 -118 -127 -128 -136 -137 0
-19 -34 -37 -66 -67 -80 -81 -106 -107 -117 -118 -127 -128 -136 -137 0
-18 -35 -36 -66 -68 -80 -81 -106 -107 -117 -118 -127 -128 -136 -137 0
-19 -35 -37 -66 -68 -80 -81 -106 -107 -117 -118 -127 -128 -136 -137 0
-19 -36 -37 -66 -69 -80 -81 -106 -107 -117 -118 -127 -128 -136 -137 0
-18 -35 -36 -67 -68 -80 -82 -106 -107 -117 -118 -127 -128 -136 -137 0
-19 -35 -37 -67 -68 -80 -82 -106 -107 -117 -118 -127 -128 -136 -137 0
-19 -36 -37 -67 -69 -80 -82 -106 -107 -117 -118 -127 -128 -136 -137 0
-19 -36 -37 -68 -69 -80 -83 -106 -107 -117 -118 -127 -128 -136 -137 0
-18 -35 -36 -67 -68 -81 -82 -106 -108 -117 -118 -127 -128 -136 -137 0
-19 -35 -37 -67 -68 -81 -82 -106 -108 -117 -118 -127 -128 -136 -137 0
-19 -36 -37 -67 -69 -81 -82 -106 -108 -117 -118 -127 -128 -136 -137 0
-19 -36 -37 -68 -69 -81 -83 -106 -108 -117 -118 -127 -128 -136 -137 0
-19 -36 -37 -68 -69 -82 -83 -106 -109 -117 -118 -127 -128 -136 -137 0
-18 -35 -36 -67 -68 -81 -82 -107 -108 -117 -119 -127 -128 -136 -137 0
-19 -35 -37 -67 -68 -81 -82 -107 -108 -117 -119 -127 -128 -136 -137 0
-19 -36 -37 -67 -69 -81 -82 -107 -108 -117 -119 -127 -128 -136 -137 0
-19 -36 -37 -68 -69 -81 -83 -107 -108 -117 -119 -127 -128 -136 -137 0
-19 -36 -37 -68 -69 -82 -83 -107 -109 -117 -119 -127 -128 -136 -137 0
-19 -36 -37 -68 -69 -82 -83 -108 -109 -117 -120 -127 -128 -136 -137 0
-18 -35 -36 -67 -68 -81 -82 -107 -108 -118 -119 -127 -129 -136 -137 0
-19 -35 -37 -67 -68 -81 -82 -107 -108 -118 -119 -127 -129 -136 -137 0
-19 -36 -37 -67 -69 -81 -82 -107 -108 -118 -119 -127 -129 -136 -137 0
-19 -36 -37 -68 -69 -81 -83 -107 -108 -118 -119 -127 -129 -136 -137 0
-19 -36 -37 -68 -69 -82 -83 -107 -109 -118 -119 -127 -129 -136 -137 0
-19 -36 -37 -68 -69 -82 -83 -108 -109 -118 -120 -127 -129 -136 -137 0
-19 -36 -37 -68 -69 -82 -83 -108 -109 -119 -120 -127 -130 -136 -137 0
-18 -35 -36 -67 -68 -81 -82 -107 -108 -118 -119 -128 -129 -136 -138 0
-19 -35 -37 -67 -68 -81 -82 -107 -108 -118 -119 -128 -129 -136 -138 0
-19 -36 -37 -67 -69 -81 -82 -107 -108 -118 -119 -128 -129 -136 -138 0
-19 -36 -37 -68 -69 -81 -83 -107 -108 -118 -119 -128 -129 -136 -138 0
-19 -36 -37 -68 -69 -82 -83 -107 -109 -118 -119 -128 -129 -136 -138 0
-19 -36 -37 -68 -69 -82 -83 -108 -109 -118 -120 -128 -129 -136 -138 0
-19 -36 -37 -68 -69 -82 -83 -108 -109 -119 -120 -128 -130 -136 -138 0
-19 -36 -37 -68 -69 -82 -83 -108 -109 -119 -120 -129 -130 -136 -139 0
-18 -35 -36 -67 -68 -81 -82 -107 -108 -118 -119 -128 -129 -137 -138 0
-19 -35 -37 -67 -68 -81 -82 -107 -108 -118 -119 -128 -129 -137 -138 0
-19 -36 -37 -67 -69 -81 -82 -107 -108 -118 -119 -128 -129 -137 -138 0
-19 -36 -37 -68 -69 -81 -83 -107 -108 -118 -119 -128 -129 -137 -138 0
-19 -36 -37 -68 -69 -82 -83 -107 -109 -118 -119 -128 -129 -137 -138 0
-19 -36 -37 -68 -69 -82 -83 -108 -109 -118 -120 -128 -129 -137 -138 0
-19 -36 -37 -68 -69 -82 -83 -108 -109 -119 -120 -128 -130 -137 -138 0
-19 -36 -37 -68 -69 -82 -83 -108 -109 -119 -120 -129 -130 -137 -139 0
-19 -36 -37 -68 -69 -82 -83 -108 -109 -119 -120 -129 -130 -138 -139 0
-18 -35 -36 -67 -68 -81 -82 -107 -108 -118 -119 -128 -129 -146 -147 0
-19 -35 -37 -67 -68 -81 -82 -107 -108 -118 -119 -128 -129 -146 -147 0
-19 -36 -37 -67 -69 -81 -82 -107 -108 -118 -119 -128 -129 -146 -147 0
-19 -36 -37 -68 -69 -81 -83 -107 -108 -118 -119 -128 -129 -146 -147 0
-19 -36 -37 -68 -69 -82 -83 -107 -109 -118 -119 -128 -129 -146 -147 0
-19 -36 -37 -68 -69 -82 -83 -108 -109 -118 -120 -128 -129 -146 -147 0
-19 -36 -37 -68 -69 -82 -83 -108 -109 -119 -120 -128 -130 -146 -147 0
-19 -36 -37 -68 -69 -82 -83 -108 -109 -119 -120 -129 -130 -146 -148 0
-19 -36 -37 -68 -69 -82 -83 -108 -109 -119 -120 -129 -130 -147 -148 0
-19 -36 -37 -68 -69 -82 -83 -108 -109 -119 -120 -129 -130 -155 -156 0
-18 -35 -36 -67 -68 -81 -82 -107 -108 -118 -119 -138 -139 -146 -147 0
-19 -35 -37 -67 -68 -81 -82 -107 -108 -118 -119 -138 -139 -146 -147 0
-19 -36 -37 -67 -69 -81 -82 -107 -108 -118 -119 -138 -139 -146 -147 0
-19 -36 -37 -68 -69 -81 -83 -107 -108 -118 -119 -138 -139 -146 -147 0
-19 -36 -37 -68 -69 -82 -83 -107 -109 -118 -119 -138 -139 -146 -147 0
-19 -36 -37 -68 -69 -82 -83 -108 -109 -118 -120 -138 -139 -146 -147 0
-19 -36 -37 -68 -69 -82 -83 -108 -109 -119 -120 -138 -140 -146 -147 0
-19 -36 -37 -68 -69 -82 -83 -108 -109 -119 -120 -139 -140 -146 -148 0
-19 -36 -37 -68 -69 -82 -83 -108 -109 -119 -120 -139 -140 -147 -148 0
-19 -36 -37 -68 -69 -82 -83 -108 -109 -119 -120 -139 -140 -155 -156 0
-19 -36 -37 -68 -69 -82 -83 -108 -109 -119 -120 -148 -149 -155 -156 0
-18 -35 -36 -67 -68 -81 -82 -107 -108 -129 -130 -138 -139 -146 -147 0
-19 -35 -37 -67 -68 -81 -82 -107 -108 -129 -130 -138 -139 -146 -147 0
-19 -36 -37 -67 -69 -81 -82 -107 -108 -129 -130 -138 -139 -146 -147 0
-19 -36 -37 -68 -69 -81 -83 -107 -108 -129 -130 -138 -139 -146 -147 0
-19 -36 -37 -68 -69 -82 -83 -107 -109 -129 -130 -138 -139 -146 -147 0
-19 -36 -37 -68 -69 -82 -83 -108 -109 -129 -131 -138 -139 -146 -147 0
-19 -36 -37 -68 -69 -82 -83 -108 -109 -130 -131 -138 -140 -146 -147 0
-19 -36 -37 -68 -69 -82 -83 -108 -109 -130 -131 -139 -140 -146 -148 0
-19 -36 -37 -68 -69 -82 -83 -108 -109 -130 -131 -139 -140 -147 -148 0
-19 -36 -37 -68 -69 -82 -83 -108 -109 -130 -131 -139 -140 -155 -156 0
-19 -36 -37 -68 -69 -82 -83 -108 -109 -130 -131 -148 -149 -155 -156 0
-19 -36 -37 -68 -69 -82 -83 -108 -109 -140 -141 -148 -149 -155 -156 0
-18 -35 -36 -67 -68 -81 -82 -119 -120 -129 -130 -138 -139 -146 -147 0
-19 -35 -37 -67 -68 -81 -82 -119 -120 -129 -130 -138 -139 -146 -147 0
-19 -36 -37 -67 -69 -81 -82 -119 -120 -129 -130 -138 -139 -146 -147 0
-19 -36 -37 -68 -69 -81 -83 -119 -120 -129 -130 -138 -139 -146 -147 0
-19 -36 -37 -68 -69 -82 -83 -119 -121 -129 -130 -138 -139 -146 -147 0
-19 -36 -37 -68 -69 -82 -83 -120 -121 -129 -131 -138 -139 -146 -147 0
-19 -36 -37 -68 -69 -82 -83 -120 -121 -130 -131 -138 -140 -146 -147 0
-19 -36 -37 -68 -69 -82 -83 -120 -121 -130 -131 -139 -140 -146 -148 0
-19 -36 -37 -68 -69 -82 -83 -120 -121 -130 -131 -139 -140 -147 -148 0
-19 -36 -37 -68 -69 -82 -83 -120 -121 -130 -131 -139 -140 -155 -156 0
-19 -36 -37 -68 -69 -82 -83 -120 -121 -130 -131 -148 -149 -155 -156 0
-19 -36 -37 -68 -69 -82 -83 -120 -121 -140 -141 -148 -149 -155 -156 0
-19 -36 -37 -68 -69 -82 -83 -131 -132 -140 -141 -148 -149 -155 -156 0
-17 -34 -35 -66 -67 -94 -95 -106 -107 -117 -118 -127 -128 -136 -137 0
-18 -34 -36 -66 -67 -94 -95 -106 -107 -117 -118 -127 -128 -136 -137 0
-19 -34 -37 -66 -67 -94 -95 -106 -107 -117 -118 -127 -128 -136 -137 0
-18 -35 -36 -66 -68 -94 -95 -106 -107 -117 -118 -127 -128 -136 -137 0
-19 -35 -37 -66 -68 -94 -95 -106 -107 -117 -118 -127 -128 -136 -137 0
-19 -36 -37 -66 -69 -94 -95 -106 -107 -117 -118 -127 -128 -136 -137 0
-18 -35 -36 -67 -68 -94 -96 -106 -107 -117 -118 -127 -128 -136 -137 0
-19 -35 -37 -67 -68 -94 -96 -106 -107 -117 -118 -127 -128 -136 -137 0
-19 -36 -37 -67 -69 -94 -96 -106 -107 -117 -118 -127 -128 -136 -137 0
-19 -36 -37 -68 -69 -94 -97 -106 -107 -117 -118 -127 -128 -136 -137 0
-18 -35 -36 -67 -68 -95 -96 -106 -108 -117 -118 -127 -128 -136 -137 0
-19 -35 -37 -67 -68 -95 -96 -106 -108 -117 -118 -127 -128 -136 -137 0
-19 -36 -37 -67 -69 -95 -96 -106 -108 -117 -118 -127 -128 -136 -137 0
-19 -36 -37 -68 -69 -95 -97 -106 -108 -117 -118 -127 -128 -136 -137 0
-19 -36 -37 -68 -69 -96 -97 -106 -109 -117 -118 -127 -128 -136 -137 0
-18 -35 -36 -67 -68 -95 -96 -107 -108 -117 -119 -127 -128 -136 -137 0
-19 -35 -37 -67 -68 -95 -96 -107 -108 -117 -119 -127 -128 -136 -137 0
-19 -36 -37 -67 -69 -95 -96 -107 -108 -117 -119 -127 -128 -136 -137 0
-19 -36 -37 -68 -69 -95 -97 -107 -108 -117 -119 -127 -128 -136 -137 0
-19 -36 -37 -68 -69 -96 -97 -107 -109 -117 -119 -127 -128 -136 -137 0
-19 -36 -37 -68 -69 -96 -97 -108 -109 -117 -120 -127 -128 -136 -137 0
-18 -35 -36 -67 -68 -95 -96 -107 -108 -118 -119 -127 -129 -136 -137 0
-19 -35 -37 -67 -68 -95 -96 -107 -108 -118 -119 -127 -129 -136 -137 0
-19 -36 -37 -67 -69 -95 -96 -107 -108 -118 -119 -127 -129 -136 -137 0
-19 -36 -37 -68 -69 -95 -97 -107 -108 -118 -119 -127 -129 -136 -137 0
-19 -36 -37 -68 -69 -96 -97 -107 -109 -118 -119 -127 -129 -136 -137 0
-19 -36 -37 -68 -69 -96 -97 -108 -109 -118 -120 -127 -129 -136 -137 0
-19 -36 -37 -68 -69 -96 -97 -108 -109 -119 -120 -127 -130 -136 -137 0
-18 -35 -36 -67 -68 -95 -96 -107 -108 -118 -119 -128 -129 -136 -138 0
-19 -35 -37 -67 -68 -95 -96 -107 -108 -118 -119 -128 -129 -136 -138 0
-19 -36 -37 -67 -69 -95 -96 -107 -108 -118 -119 -128 -129 -136 -138 0
-19 -36 -37 -68 -69 -95 -97 -107 -108 -118 -119 -128 -129 -136 -138 0
-19 -36 -37 -68 -69 -96 -97 -107 -109 -118 -119 -128 -129 -136 -138 0
-19 -36 -37 -68 -69 -96 -97 -108 -109 -118 -120 -128 -129 -136 -138 0
-19 -36 -37 -68 -69 -96 -97 -108 -109 -119 -120 -128 -130 -136 -138 0
-19 -36 -37 -68 -69 -96 -97 -108 -109 -119 -120 -129 -130 -136 -139 0
-18 -35 -36 -67 -68 -95 -96 -107 -108 -118 -119 -128 -129 -137 -138 0
-19 -35 -37 -67 -68 -95 -96 -107 -108 -118 -119 -128 -129 -137 -138 0
-19 -36 -37 -67 -69 -95 -96 -107 -108 -118 -119 -128 -129 -137 -138 0
-19 -36 -37 -68 -69 -95 -97 -107 -108 -118 -119 -128 -129 -137 -138 0
-19 -36 -37 -68 -69 -96 -97 -107 -109 -118 -119 -128 -129 -137 -138 0
-19 -36 -37 -68 -69 -96 -97 -108 -109 -118 -120 -128 -129 -137 -138 0
-19 -36 -37 -68 -69 -96 -97 -108 -109 -119 -120 -128 -130 -137 -138 0
-19 -36 -37 -68 -69 -96 -97 -108 -109 -119 -120 -129 -130 -137 -139 0
-19 -36 -37 -68 -69 -96 -97 -108 -109 -119 -120 -129 -130 -138 -139 0
-18 -35 -36 -67 -68 -95 -96 -107 -108 -118 -119 -128 -129 -146 -147 0
-19 -35 -37 -67 -68 -95 -96 -107 -108 -118 -119 -128 -129 -146 -147 0
-19 -36 -37 -67 -69 -95 -96 -107 -108 -118 -119 -128 -129 -146 -147 0
-19 -36 -37 -68 -69 -95 -97 -107 -108 -118 -119 -128 -129 -146 -147 0
-19 -36 -37 -68 -69 -96 -97 -107 -109 -118 -119 -128 -129 -146 -147 0
-19 -36 -37 -68 -69 -96 -97 -108 -109 -118 -120 -128 -129 -146 -147 0
-19 -36 -37 -68 -69 -96 -97 -108 -109 -119 -120 -128 -130 -146 -147 0
-19 -36 -37 -68 -69 -96 -97 -108 -109 -119 -120 -129 -130 -146 -148 0
-19 -36 -37 -68 -69 -96 -97 -108 -109 -119 -120 -129 -130 -147 -148 0
-19 -36 -37 -68 -69 -96 -97 -108 -109 -119 -120 -129 -130 -155 -156 0
-18 -35 -36 -67 -68 -95 -96 -107 -108 -118 -119 -138 -139 -146 -147 0
-19 -35 -37 -67 -68 -95 -96 -107 -108 -118 -119 -138 -139 -146 -147 0
-19 -36 -37 -67 -69 -95 -96 -107 -108 -118 -119 -138 -139 -146 -147 0
-19 -36 -37 -68 -69 -95 -97 -107 -108 -118 -119 -138 -139 -146 -147 0
-19 -36 -37 -68 -69 -96 -97 -107 -109 -118 -119 -138 -139 -146 -147 0
-19 -36 -37 -68 -69 -96 -97 -108 -109 -118 -120 -138 -139 -146 -147 0
-19 -36 -37 -68 -69 -96 -97 -108 -109 -119 -120 -138 -140 -146 -147 0
-19 -36 -37 -68 -69 -96 -97 -108 -109 -119 -120 -139 -140 -146 -148 0
-19 -36 -37 -68 -69 -96 -97 -108 -109 -119 -120 -139 -140 -147 -148 0
-19 -36 -37 -68 -69 -96 -97 -108 -109 -119 -120 -139 -140 -155 -156 0
-19 -36 -37 -68 -69 -96 -97 -108 -109 -119 -120 -148 -149 -155 -156 0
-18 -35 -36 -67 -68 -95 -96 -107 -108 -129 -130 -138 -139 -146 -147 0
-19 -35 -37 -67 -68 -95 -96 -107 -108 -129 -130 -138 -139 -146 -147 0
-19 -36 -37 -67 -69 -95 -96 -107 -108 -129 -130 -138 -139 -146 -147 0
-19 -36 -37 -68 -69 -95 -97 -107 -108 -129 -130 -138 -139 -146 -147 0
-19 -36 -37 -68 -69 -96 -97 -107 -109 -129 -130 -138 -139 -146 -147 0
-19 -36 -37 -68 -69 -96 -97 -108 -109 -129 -131 -138 -139 -146 -147 0
-19 -36 -37 -68 -69 -96 -97 -108 -109 -130 -131 -138 -140 -146 -147 0
-19 -36 -37 -68 -69 -96 -97 -108 -109 -130 -131 -139 -140 -146 -148 0
-19 -36 -37 -68 -69 -96 -97 -108 -109 -130 -131 -139 -140 -147 -148 0
-19 -36 -37 -68 -69 -96 -97 -108 -109 -130 -131 -139 -140 -155 -156 0
-19 -36 -37 -68 -69 -96 -97 -108 -109 -130 -131 -148 -149 -155 -156 0
-19 -36 -37 -68 -69 -96 -97 -108 -109 -140 -141 -148 -149 -155 -156 0
-18 -35 -36 -67 -68 -95 -96 -119 -120 -129 -130 -138 -139 -146 -147 0
-19 -35 -37 -67 -68 -95 -96 -119 -120 -129 -130 -138 -139 -146 -147 0
-19 -36 -37 -67 -69 -95 -96 -119 -120 -129 -130 -138 -139 -146 -147 0
-19 -36 -37 -68 -69 -95 -97 -119 -120 -129 -130 -138 -139 -146 -147 0
-19 -36 -37 -68 -69 -96 -97 -119 -121 -129 -130 -138 -139 -146 -147 0
-19 -36 -37 -68 -69 -96 -97 -120 -121 -129 -131 -138 -139 -146 -147 0
-19 -36 -37 -68 -69 -96 -97 -120 -121 -130 -131 -138 -140 -146 -147 0
-19 -36 -37 -68 -69 -96 -97 -120 -121 -130 -131 -139 -140 -146 -148 0
-19 -36 -37 -68 -69 -96 -97 -120 -121 -130 -131 -139 -140 -147 -148 0
-19 -36 -37 -68 -69 -96 -97 -120 -121 -130 -131 -139 -140 -155 -156 0
-19 -36 -37 -68 -69 -96 -97 -120 -121 -130 -131 -148 -149 -155 -156 0
-19 -36 -37 -68 -69 -96 -97 -120 -121 -140 -141 -148 -149 -155 -156 0
-19 -36 -37 -68 -69 -96 -97 -131 -132 -140 -141 -148 -149 -155 -156 0
-18 -35 -36 -67 -68 -108 -109 -119 -120 -129 -130 -138 -139 -146 -147 0
-19 -35 -37 -67 -68 -108 -109 -119 -120 -129 -130 -138 -139 -146 -147 0
-19 -36 -37 -67 -69 -108 -109 -119 -120 -129 -130 -138 -139 -146 -147 0
-19 -36 -37 -68 -69 -108 -110 -119 -120 -129 -130 -138 -139 -146 -147 0
-19 -36 -37 -68 -69 -109 -110 -119 -121 -129 -130 -138 -139 -146 -147 0
-19 -36 -37 -68 -69 -109 -110 -120 -121 -129 -131 -138 -139 -146 -147 0
-19 -36 -37 -68 -69 -109 -110 -120 -121 -130 -131 -138 -140 -146 -147 0
-19 -36 -37 -68 -69 -109 -110 -120 -121 -130 -131 -139 -140 -146 -148 0
-19 -36 -37 -68 -69 -109 -110 -120 -121 -130 -131 -139 -140 -147 -148 0
-19 -36 -37 -68 -69 -109 -110 -120 -121 -130 -131 -139 -140 -155 -156 0
-19 -36 -37 -68 -69 -109 -110 -120 -121 -130 -131 -148 -149 -155 -156 0
-19 -36 -37 -68 -69 -109 -110 -120 -121 -140 -141 -148 -149 -155 -156 0
-19 -36 -37 -68 -69 -109 -110 -131 -132 -140 -141 -148 -149 -155 -156 0
-19 -36 -37 -68 -69 -121 -122 -131 -132 -140 -141 -148 -149 -155 -156 0
-17 -34 -35 -81 -82 -94 -95 -106 -107 -117 -118 -127 -128 -136 -137 0
-18 -34 -36 -81 -82 -94 -95 -106 -107 -117 -118 -127 -128 -136 -137 0
-19 -34 -37 -81 -82 -94 -95 -106 -107 -117 -118 -127 -128 -136 -137 0
-18 -35 -36 -81 -83 -94 -95 -106 -107 -117 -118 -127 -128 -136 -137 0
-19 -35 -37 -81 -83 -94 -95 -106 -107 -117 -118 -127 -128 -136 -137 0
-19 -36 -37 -81 -84 -94 -95 -106 -107 -117 -118 -127 -128 -136 -137 0
-18 -35 -36 -82 -83 -94 -96 -106 -107 -117 -118 -127 -128 -136 -137 0
-19 -35 -37 -82 -83 -94 -96 -106 -107 -117 -118 -127 -128 -136 -137 0
-19 -36 -37 -82 -84 -94 -96 -106 -107 -117 -118 -127 -128 -136 -137 0
-19 -36 -37 -83 -84 -94 -97 -106 -107 -117 -118 -127 -128 -136 -137 0
-18 -35 -36 -82 -83 -95 -96 -106 -108 -117 -118 -127 -128 -136 -137 0
-19 -35 -37 -82 -83 -95 -96 -106 -108 -117 -118 -127 -128 -136 -137 0
-19 -36 -37 -82 -84 -95 -96 -106 -108 -117 -118 -127 -128 -136 -137 0
-19 -36 -37 -83 -84 -95 -97 -106 -108 -117 -118 -127 -128 -136 -137 0
-19 -36 -37 -83 -84 -96 -97 -106 -109 -117 -118 -127 -128 -136 -137 0
-18 -35 -36 -82 -83 -95 -96 -107 -108 -117 -119 -127 -128 -136 -137 0
-19 -35 -37 -82 -83 -95 -96 -107 -108 -117 -119 -127 -128 -136 -137 0
-19 -36 -37 -82 -84 -95 -96 -107 -108 -117 -119 -127 -128 -136 -137 0
-19 -36 -37 -83 -84 -95 -97 -107 -108 -117 -119 -127 -128 -136 -137 0
-19 -36 -37 -83 -84 -96 -97 -107 -109 -117 -119 -127 -128 -136 -137 0
-19 -36 -37 -83 -84 -96 -97 -108 -109 -117 -120 -127 -128 -136 -137 0
-18 -35 -36 -82 -83 -95 -96 -107 -108 -118 -119 -127 -129 -136 -137 0
-19 -35 -37 -82 -83 -95 -96 -107 -108 -118 -119 -127 -129 -136 -137 0
-19 -36 -37 -82 -84 -95 -96 -107 -108 -118 -119 -127 -129 -136 -137 0
-19 -36 -37 -83 -84 -95 -97 -107 -108 -118 -119 -127 -129 -136 -137 0
-19 -36 -37 -83 -84 -96 -97 -107 -109 -118 -119 -127 -129 -136 -137 0
-19 -36 -37 -83 -84 -96 -97 -108 -109 -118 -120 -127 -129 -136 -137 0
-19 -36 -37 -83 -84 -96 -97 -108 -109 -119 -120 -127 -130 -136 -137 0
-18 -35 -36 -82 -83 -95 -96 -107 -108 -118 -119 -128 -129 -136 -138 0
-19 -35 -37 -82 -83 -95 -96 -107 -108 -118 -119 -128 -129 -136 -138 0
-19 -36 -37 -82 -84 -95 -96 -107 -108 -118 -119 -128 -129 -136 -138 0
-19 -36 -37 -83 -84 -95 -97 -107 -108 -118 -119 -128 -129 -136 -138 0
-19 -36 -37 -83 -84 -96 -97 -107 -109 -118 -119 -128 -129 -136 -138 0
-19 -36 -37 -83 -84 -96 -97 -108 -109 -118 -120 -128 -129 -136 -138 0
-19 -36 -37 -83 -84 -96 -97 -108 -109 -119 -120 -128 -130 -136 -138 0
-19 -36 -37 -83 -84 -96 -97 -108 -109 -119 -120 -129 -130 -136 -139 0
-18 -35 -36 -82 -83 -95 -96 -107 -108 -118 -119 -128 -129 -137 -138 0
-19 -35 -37 -82 -83 -95 -96 -107 -108 -118 -119 -128 -129 -137 -138 0
-19 -36 -37 -82 -84 -95 -96 -107 -108 -118 -119 -128 -129 -137 -138 0
-19 -36 -37 -83 -84 -95 -97 -107 -108 -118 -119 -128 -129 -137 -138 0
-19 -36 -37 -83 -84 -96 -97 -107 -109 -118 -119 -128 -129 -137 -138 0
-19 -36 -37 -83 -84 -96 -97 -108 -109 -118 -120 -128 -129 -137 -138 0
-19 -36 -37 -83 -84 -96 -97 -108 -109 -119 -120 -128 -130 -137 -138 0
-19 -36 -37 -83 -84 -96 -97 -108 -109 -119 -120 -129 -130 -137 -139 0
-19 -36 -37 -83 -84 -96 -97 -108 -109 -119 -120 -129 -130 -138 -139 0
-18 -35 -36 -82 -83 -95 -96 -107 -108 -118 -119 -128 -129 -146 -147 0
-19 -35 -37 -82 -83 -95 -96 -107 -108 -118 -119 -128 -129 -146 -147 0
-19 -36 -37 -82 -84 -95 -96 -107 -108 -118 -119 -128 -129 -146 -147 0
-19 -36 -37 -83 -84 -95 -97 -107 -108 -118 -119 -128 -129 -146 -147 0
-19 -36 -37 -83 -84 -96 -97 -107 -109 -118 -119 -128 -129 -146 -147 0
-19 -36 -37 -83 -84 -96 -97 -108 -109 -118 -120 -128 -129 -146 -147 0
-19 -36 -37 -83 -84 -96 -97 -108 -109 -119 -120 -128 -130 -146 -147 0
-19 -36 -37 -83 -84 -96 -97 -108 -109 -119 -120 -129 -130 -146 -148 0
-19 -36 -37 -83 -84 -96 -97 -108 -109 -119 -120 -129 -130 -147 -148 0
-19 -36 -37 -83 -84 -96 -97 -108 -109 -119 -120 -129 -130 -155 -156 0
-18 -35 -36 -82 -83 -95 -96 -107 -108 -118 -119 -138 -139 -146 -147 0
-19 -35 -37 -82 -83 -95 -96 -107 -108 -118 -119 -138 -139 -146 -147 0
-19 -36 -37 -82 -84 -95 -96 -107 -108 -118 -119 -138 -139 -146 -147 0
-19 -36 -37 -83 -84 -95 -97 -107 -108 -118 -119 -138 -139 -146 -147 0
-19 -36 -37 -83 -84 -96 -97 -107 -109 -118 -119 -138 -139 -146 -147 0
-19 -36 -37 -83 -84 -96 -97 -108 -109 -118 -120 -138 -139 -146 -147 0
-19 -36 -37 -83 -84 -96 -97 -108 -109 -119 -120 -138 -140 -146 -147 0
-19 -36 -37 -83 -84 -96 -97 -108 -109 -119 -120 -139 -140 -146 -148 0
-19 -36 -37 -83 -84 -96 -97 -108 -109 -119 -120 -139 -140 -147 -148 0
-19 -36 -37 -83 -84 -96 -97 -108 -109 -119 -120 -139 -140 -155 -156 0
-19 -36 -37 -83 -84 -96 -97 -108 -109 -119 -120 -148 -149 -155 -156 0
-18 -35 -36 -82 -83 -95 -96 -107 -108 -129 -130 -138 -139 -146 -147 0
-19 -35 -37 -82 -83 -95 -96 -107 -108 -129 -130 -138 -139 -146 -147 0
-19 -36 -37 -82 -84 -95 -96 -107 -108 -129 -130 -138 -139 -146 -147 0
-19 -36 -37 -83 -84 -95 -97 -107 -108 -129 -130 -138 -139 -146 -147 0
-19 -36 -37 -83 -84 -96 -97 -107 -109 -129 -130 -138 -139 -146 -147 0
-19 -36 -37 -83 -84 -96 -97 -108 -109 -129 -131 -138 -139 -146 -147 0
-19 -36 -37 -83 -84 -96 -97 -108 -109 -130 -131 -138 -140 -146 -147 0
-19 -36 -37 -83 -84 -96 -97 -108 -109 -130 -131 -139 -140 -146 -148 0
-19 -36 -37 -83 -84 -96 -97 -108 -109 -130 -131 -139 -140 -147 -148 0
-19 -36 -37 -83 -84 -96 -97 -108 -109 -130 -131 -139 -140 -155 -156 0
-19 -36 -37 -83 -84 -96 -97 -108 -109 -130 -131 -148 -149 -155 -156 0
-19 -36 -37 -83 -84 -96 -97 -108 -109 -140 -141 -148 -149 -155 -156 0
-18 -35 -36 -82 -83 -95 -96 -119 -120 -129 -130 -138 -139 -146 -147 0
-19 -35 -37 -82 -83 -95 -96 -119 -120 -129 -130 -138 -139 -146 -147 0
-19 -36 -37 -82 -84 -95 -96 -119 -120 -129 -130 -138 -139 -146 -147 0
-19 -36 -37 -83 -84 -95 -97 -119 -120 -129 -130 -138 -139 -146 -147 0
-19 -36 -37 -83 -84 -96 -97 -119 -121 -129 -130 -138 -139 -146 -147 0
-19 -36 -37 -83 -84 -96 -97 -120 -121 -129 -131 -138 -139 -146 -147 0
-19 -36 -37 -83 -84 -96 -97 -120 -121 -130 -131 -138 -140 -146 -147 0
-19 -36 -37 -83 -84 -96 -97 -120 -121 -130 -131 -139 -140 -146 -148 0
-19 -36 -37 -83 -84 -96 -97 -120 -121 -130 -131 -139 -140 -147 -148 0
-19 -36 -37 -83 -84 -96 -97 -120 -121 -130 -131 -139 -140 -155 -156 0
-19 -36 -37 -83 -84 -96 -97 -120 -121 -130 -131 -148 -149 -155 -156 0
-19 -36 -37 -83 -84 -96 -97 -120 -121 -140 -141 -148 -149 -155 -156 0
-19 -36 -37 -83 -84 -96 -97 -131 -132 -140 -141 -148 -149 -155 -156 0
-18 -35 -36 -82 -83 -108 -109 -119 -120 -129 -130 -138 -139 -146 -147 0
-19 -35 -37 -82 -83 -108 -109 -119 -120 -129 -130 -138 -139 -146 -147 0
-19 -36 -37 -82 -84 -108 -109 -119 -120 -129 -130 -138 -139 -146 -147 0
-19 -36 -37 -83 -84 -108 -110 -119 -120 -129 -130 -138 -139 -146 -147 0
-19 -36 -37 -83 -84 -109 -110 -119 -121 -129 -130 -138 -139 -146 -147 0
-19 -36 -37 -83 -84 -109 -110 -120 -121 -129 -131 -138 -139 -146 -147 0
-19 -36 -37 -83 -84 -109 -110 -120 -121 -130 -131 -138 -140 -146 -147 0
-19 -36 -37 -83 -84 -109 -110 -120 -121 -130 -131 -139 -140 -146 -148 0
-19 -36 -37 -83 -84 -109 -110 -120 -121 -130 -131 -139 -140 -147 -148 0
-19 -36 -37 -83 -84 -109 -110 -120 -121 -130 -131 -139 -140 -155 -156 0
-19 -36 -37 -83 -84 -109 -110 -120 -121 -130 -131 -148 -149 -155 -156 0
-19 -36 -37 -83 -84 -109 -110 -120 -121 -140 -141 -148 -149 -155 -156 0
-19 -36 -37 -83 -84 -109 -110 -131 -132 -140 -141 -148 -149 -155 -156 0
-19 -36 -37 -83 -84 -121 -122 -131 -132 -140 -141 -148 -149 -155 -156 0
-18 -35 -36 -96 -97 -108 -109 -119 -120 -129 -130 -138 -139 -146 -147 0
-19 -35 -37 -96 -97 -108 -109 -119 -120 -129 -130 -138 -139 -146 -147 0
-19 -36 -37 -96 -98 -108 -109 -119 -120 -129 -130 -138 -139 -146 -147 0
-19 -36 -37 -97 -98 -108 -110 -119 -120 -129 -130 -138 -139 -146 -147 0
-19 -36 -37 -97 -98 -109 -110 -119 -121 -129 -130 -138 -139 -146 -147 0
-19 -36 -37 -97 -98 -109 -110 -120 -121 -129 -131 -138 -139 -146 -147 0
-19 -36 -37 -97 -98 -109 -110 -120 -121 -130 -131 -138 -140 -146 -147 0
-19 -36 -37 -97 -98 -109 -110 -120 -121 -130 -131 -139 -140 -146 -148 0
-19 -36 -37 -97 -98 -109 -110 -120 -121 -130 -131 -139 -140 -147 -148 0
-19 -36 -37 -97 -98 -109 -110 -120 -121 -130 -131 -139 -140 -155 -156 0
-19 -36 -37 -97 -98 -109 -110 -120 -121 -130 -131 -148 -149 -155 -156 0
-19 -36 -37 -97 -98 -109 -110 -120 -121 -140 -141 -148 -149 -155 -156 0
-19 -36 -37 -97 -98 -109 -110 -131 -132 -140 -141 -148 -149 -155 -156 0
-19 -36 -37 -97 -98 -121 -122 -131 -132 -140 -141 -148 -149 -155 -156 0
-19 -36 -37 -110 -111 -121 -122 -131 -132 -140 -141 -148 -149 -155 -156 0
-16 -50 -51 -65 -66 -79 -80 -92 -93 -104 -105 -115 -116 -125 -126 0
-17 -50 -52 -65 -66 -79 -80 -92 -93 -104 -105 -115 -116 -125 -126 0
-18 -50 -53 -65 -66 -79 -80 -92 -93 -104 -105 -115 -116 -125 -126 0
-19 -50 -54 -65 -66 -79 -80 -92 -93 -104 -105 -115 -116 -125 -126 0
-17 -51 -52 -65 -67 -79 -80 -92 -93 -104 -105 -115 -116 -125 -126 0
-18 -51 -53 -65 -67 -79 -80 -92 -93 -104 -105 -115 -116 -125 -126 0
-19 -51 -54 -65 -67 -79 -80 -92 -93 -104 -105 -115 -116 -125 -126 0
-18 -52 -53 -65 -68 -79 -80 -92 -93 -104 -105 -115 -116 -125 -126 0
-19 -52 -54 -65 -68 -79 -80 -92 -93 -104 -105 -115 -116 -125 -126 0
-19 -53 -54 -65 -69 -79 -80 -92 -93 -104 -105 -115 -116 -125 -126 0
-17 -51 -52 -66 -67 -79 -81 -92 -93 -104 -105 -115 -116 -125 -126 0
-18 -51 -53 -66 -67 -79 -81 -92 -93 -104 -105 -115 -116 -125 -126 0
-19 -51 -54 -66 -67 -79 -81 -92 -93 -104 -105 -115 -116 -125 -126 0
-18 -52 -53 -66 -68 -79 -81 -92 -93 -104 -105 -115 -116 -125 -126 0
-19 -52 -54 -66 -68 -79 -81 -92 -93 -104 -105 -115 -116 -125 -126 0
-19 -53 -54 -66 -69 -79 -81 -92 -93 -104 -105 -115 -116 -125 -126 0
-18 -52 -53 -67 -68 -79 -82 -92 -93 -104 -105 -115 -116 -125 -126 0
-19 -52 -54 -67 -68 -79 -82 -92 -93 -104 -105 -115 -116 -125 -126 0
-19 -53 -54 -67 -69 -79 -82 -92 -93 -104 -105 -115 -116 -125 -126 0
-19 -53 -54 -68 -69 -79 -83 -92 -93 -104 -105 -115 -116 -125 -126 0
-17 -51 -52 -66 -67 -80 -81 -92 -94 -104 -105 -115 -116 -125 -126 0
-18 -51 -53 -66 -67 -80 -81 -92 -94 -104 -105 -115 -116 -125 -126 0
-19 -51 -54 -66 -67 -80 -81 -92 -94 -104 -105 -115 -116 -125 -126 0
-18 -52 -53 -66 -68 -80 -81 -92 -94 -104 -105 -115 -116 -125 -126 0
-19 -52 -54 -66 -68 -80 -81 -92 -94 -104 -105 -115 -116 -125 -126 0
-19 -53 -54 -66 -69 -80 -81 -92 -94 -104 -105 -115 -116 -125 -126 0
-18 -52 -53 -67 -68 -80 -82 -92 -94 -104 -105 -115 -116 -125 -126 0
-19 -52 -54 -67 -68 -80 -82 -92 -94 -104 -105 -115 -116 -125 -126 0
-19 -53 -54 -67 -69 -80 -82 -92 -94 -104 -105 -115 -116 -125 -126 0
-19 -53 -54 -68 -69 -80 -83 -92 -94 -104 -105 -115 -116 -125 -126 0
-18 -52 -53 -67 -68 -81 -82 -92 -95 -104 -105 -115 -116 -125 -126 0
-19 -52 -54 -67 -68 -81 -82 -92 -95 -104 -105 -115 -116 -125 -126 0
-19 -53 -54 -67 -69 -81 -82 -92 -95 -104 -105 -115 -116 -125 -126 0
-19 -53 -54 -68 -69 -81 -83 -92 -95 -104 -105 -115 -116 -125 -126 0
-19 -53 -54 -68 -69 -82 -83 -92 -96 -104 -105 -115 -116 -125 -126 0
-17 -51 -52 -66 -67 -80 -81 -93 -94 -104 -106 -115 -116 -125 -126 0
-18 -51 -53 -66 -67 -80 -81 -93 -94 -104 -106 -115 -116 -125 -126 0
-19 -51 -54 -66 -67 -80 -81 -93 -94 -104 -106 -115 -116 -125 -126 0
-18 -52 -53 -66 -68 -80 -81 -93 -94 -104 -106 -115 -116 -125 -126 0
-19 -52 -54 -66 -68 -80 -81 -93 -94 -104 -106 -115 -116 -125 -126 0
-19 -53 -54 -66 -69 -80 -81 -93 -94 -104 -106 -115 -116 -125 -126 0
-18 -52 -53 -67 -68 -80 -82 -93 -94 -104 -106 -115 -116 -125 -126 0
-19 -52 -54 -67 -68 -80 -82 -93 -94 -104 -106 -115 -116 -125 -126 0
-19 -53 -54 -67 -69 -80 -82 -93 -94 -104 -106 -115 -116 -125 -126 0
-19 -53 -54 -68 -69 -80 -83 -93 -94 -104 -106 -115 -116 -125 -126 0
-18 -52 -53 -67 -68 -81 -82 -93 -95 -104 -106 -115 -116 -125 -126 0
-19 -52 -54 -67 -68 -81 -82 -93 -95 -104 -106 -115 -116 -125 -126 0
-19 -53 -54 -67 -69 -81 -82 -93 -95 -104 -106 -115 -116 -125 -126 0
-19 -53 -54 -68 -69 -81 -83 -93 -95 -104 -106 -115 -116 -125 -126 0
-19 -53 -54 -68 -69 -82 -83 -93 -96 -104 -106 -115 -116 -125 -126 0
-18 -52 -53 -67 -68 -81 -82 -94 -95 -104 -107 -115 -116 -125 -126 0
-19 -52 -54 -67 -68 -81 -82 -94 -95 -104 -107 -115 -116 -125 -126 0
-19 -53 -54 -67 -69 -81 -82 -94 -95 -104 -107 -115 -116 -125 -126 0
-19 -53 -54 -68 -69 -81 -83 -94 -95 -104 -107 -115 -116 -125 -126 0
-19 -53 -54 -68 -69 -82 -83 -94 -96 -104 -107 -115 -116 -125 -126 0
-19 -53 -54 -68 -69 -82 -83 -95 -96 -104 -108 -115 -116 -125 -126 0
-17 -51 -52 -66 -67 -80 -81 -93 -94 -105 -106 -115 -117 -125 -126 0
-18 -51 -53 -66 -67 -80 -81 -93 -94 -105 -106 -115 -117 -125 -126 0
-19 -51 -54 -66 -67 -80 -81 -93 -94 -105 -106 -115 -117 -125 -126 0
-18 -52 -53 -66 -68 -80 -81 -93 -94 -105 -106 -115 -117 -125 -126 0
-19 -52 -54 -66 -68 -80 -81 -93 -94 -105 -106 -115 -117 -125 -126 0
-19 -53 -54 -66 -69 -80 -81 -93 -94 -105 -106 -115 -117 -125 -126 0
-18 -52 -53 -67 -68 -80 -82 -93 -94 -105 -106 -115 -117 -125 -126 0
-19 -52 -54 -67 -68 -80 -82 -93 -94 -105 -106 -115 -117 -125 -126 0
-19 -53 -54 -67 -69 -80 -82 -93 -94 -105 -106 -115 -117 -125 -126 0
-19 -53 -54 -68 -69 -80 -83 -93 -94 -105 -106 -115 -117 -125 -126 0
-18 -52 -53 -67 -68 -81 -82 -93 -95 -105 -106 -115 -117 -125 -126 0
-19 -52 -54 -67 -68 -81 -82 -93 -95 -105 -106 -115 -117 -125 -126 0
-19 -53 -54 -67 -69 -81 -82 -93 -95 -105 -106 -115 -117 -125 -126 0
-19 -53 -54 -68 -69 -81 -83 -93 -95 -105 -106 -115 -117 -125 -126 0
-19 -53 -54 -68 -69 -82 -83 -93 -96 -105 -106 -115 -117 -125 -126 0
-18 -52 -53 -67 -68 -81 -82 -94 -95 -105 -107 -115 -117 -125 -126 0
-19 -52 -54 -67 -68 -81 -82 -94 -95 -105 -107 -115 -117 -125 -126 0
-19 -53 -54 -67 -69 -81 -82 -94 -95 -105 -107 -115 -117 -125 -126 0
-19 -53 -54 -68 -69 -81 -83 -94 -95 -105 -107 -115 -117 -125 -126 0
-19 -53 -54 -68 -69 -82 -83 -94 -96 -105 -107 -115 -117 -125 -126 0
-19 -53 -54 -68 -69 -82 -83 -95 -96 -105 -108 -115 -117 -125 -126 0
-18 -52 -53 -67 -68 -81 -82 -94 -95 -106 -107 -115 -118 -125 -126 0
-19 -52 -54 -67 -68 -81 -82 -94 -95 -106 -107 -115 -118 -125 -126 0
-19 -53 -54 -67 -69 -81 -82 -94 -95 -106 -107 -115 -118 -125 -126 0
-19 -53 -54 -68 -69 -81 -83 -94 -95 -106 -107 -115 -118 -125 -126 0
-19 -53 -54 -68 -69 -82 -83 -94 -96 -106 -107 -115 -118 -125 -126 0
-19 -53 -54 -68 -69 -82 -83 -95 -96 -106 -108 -115 -118 -125 -126 0
-19 -53 -54 -68 -69 -82 -83 -95 -96 -107 -108 -115 -119 -125 -126 0
-17 -51 -52 -66 -67 -80 -81 -93 -94 -105 -106 -116 -117 -125 -127 0
-18 -51 -53 -66 -67 -80 -81 -93 -94 -105 -106 -116 -117 -125 -127 0
-19 -51 -54 -66 -67 -80 -81 -93 -94 -105 -106 -116 -117 -125 -127 0
-18 -52 -53 -66 -68 -80 -81 -93 -94 -105 -106 -116 -117 -125 -127 0
-19 -52 -54 -66 -68 -80 -81 -93 -94 -105 -106 -116 -117 -125 -127 0
-19 -53 -54 -66 -69 -80 -81 -93 -94 -105 -106 -116 -117 -125 -127 0
-18 -52 -53 -67 -68 -80 -82 -93 -94 -105 -106 -116 -117 -125 -127 0
-19 -52 -54 -67 -68 -80 -82 -93 -94 -105 -106 -116 -117 -125 -127 0
-19 -53 -54 -67 -69 -80 -82 -93 -94 -105 -106 -116 -117 -125 -127 0
-19 -53 -54 -68 -69 -80 -83 -93 -94 -105 -106 -116 -117 -125 -127 0
-18 -52 -53 -67 -68 -81 -82 -93 -95 -105 -106 -116 -117 -125 -127 0
-19 -52 -54 -67 -68 -81 -82 -93 -95 -105 -106 -116 -117 -125 -127 0
-19 -53 -54 -67 -69 -81 -82 -93 -95 -105 -106 -116 -117 -125 -127 0
-19 -53 -54 -68 -69 -81 -83 -93 -95 -105 -106 -116 -117 -125 -127 0
-19 -53 -54 -68 -69 -82 -83 -93 -96 -105 -106 -116 -117 -125 -127 0
-18 -52 -53 -67 -68 -81 -82 -94 -95 -105 -107 -116 -117 -125 -127 0
-19 -52 -54 -67 -68 -81 -82 -94 -95 -105 -107 -116 -117 -125 -127 0
-19 -53 -54 -67 -69 -81 -82 -94 -95 -105 -107 -116 -117 -125 -127 0
-19 -53 -54 -68 -69 -81 -83 -94 -95 -105 -107 -116 -117 -125 -127 0
-19 -53 -54 -68 -69 -82 -83 -94 -96 -105 -107 -116 -117 -125 -127 0
-19 -53 -54 -68 -69 -82 -83 -95 -96 -105 -108 -116 -117 -125 -127 0
-18 -52 -53 -67 -68 -81 -82 -94 -95 -106 -107 -116 -118 -125 -127 0
-19 -52 -54 -67 -68 -81 -82 -94 -95 -106 -107 -116 -118 -125 -127 0
-19 -53 -54 -67 -69 -81 -82 -94 -95 -106 -107 -116 -118 -125 -127 0
-19 -53 -54 -68 -69 -81 -83 -94 -95 -106 -107 -116 -118 -125 -127 0
-19 -53 -54 -68 -69 -82 -83 -94 -96 -106 -107 -116 -118 -125 -127 0
-19 -53 -54 -68 -69 -82 -83 -95 -96 -106 -108 -116 -118 -125 -127 0
-19 -53 -54 -68 -69 -82 -83 -95 -96 -107 -108 -116 -119 -125 -127 0
-18 -52 -53 -67 -68 -81 -82 -94 -95 -106 -107 -117 -118 -125 -128 0
-19 -52 -54 -67 -68 -81 -82 -94 -95 -106 -107 -117 -118 -125 -128 0
-19 -53 -54 -67 -69 -81 -82 -94 -95 -106 -107 -117 -118 -125 -128 0
-19 -53 -54 -68 -69 -81 -83 -94 -95 -106 -107 -117 -118 -125 -128 0
-19 -53 -54 -68 -69 -82 -83 -94 -96 -106 -107 -117 -118 -125 -128 0
-19 -53 -54 -68 -69 -82 -83 -95 -96 -106 -108 -117 -118 -125 -128 0
-19 -53 -54 -68 -69 -82 -83 -95 -96 -107 -108 -117 -119 -125 -128 0
-19 -53 -54 -68 -69 -82 -83 -95 -96 -107 -108 -118 -119 -125 -129 0
-17 -51 -52 -66 -67 -80 -81 -93 -94 -105 -106 -116 -117 -126 -127 0
-18 -51 -53 -66 -67 -80 -81 -93 -94 -105 -106 -116 -117 -126 -127 0
-19 -51 -54 -66 -67 -80 -81 -93 -94 -105 -106 -116 -117 -126 -127 0
-18 -52 -53 -66 -68 -80 -81 -93 -94 -105 -106 -116 -117 -126 -127 0
-19 -52 -54 -66 -68 -80 -81 -93 -94 -105 -106 -116 -117 -126 -127 0
-19 -53 -54 -66 -69 -80 -81 -93 -94 -105 -106 -116 -117 -126 -127 0
-18 -52 -53 -67 -68 -80 -82 -93 -94 -105 -106 -116 -117 -126 -127 0
-19 -52 -54 -67 -68 -80 -82 -93 -94 -105 -106 -116 -117 -126 -127 0
-19 -53 -54 -67 -69 -80 -82 -93 -94 -105 -106 -116 -117 -126 -127 0
-19 -53 -54 -68 -69 -80 -83 -93 -94 -105 -106 -116 -117 -126 -127 0
-18 -52 -53 -67 -68 -81 -82 -93 -95 -105 -106 -116 -117 -126 -127 0
-19 -52 -54 -67 -68 -81 -82 -93 -95 -105 -106 -116 -117 -126 -127 0
-19 -53 -54 -67 -69 -81 -82 -93 -95 -105 -106 -116 -117 -126 -127 0
-19 -53 -54 -68 -69 -81 -83 -93 -95 -105 -106 -116 -117 -126 -127 0
-19 -53 -54 -68 -69 -82 -83 -93 -96 -105 -106 -116 -117 -126 -127 0
-18 -52 -53 -67 -68 -81 -82 -94 -95 -105 -107 -116 -117 -126 -127 0
-19 -52 -54 -67 -68 -81 -82 -94 -95 -105 -107 -116 -117 -126 -127 0
-19 -53 -54 -67 -69 -81 -82 -94 -95 -105 -107 -116 -117 -126 -127 0
-19 -53 -54 -68 -69 -81 -83 -94 -95 -105 -107 -116 -117 -126 -127 0
-19 -53 -54 -68 -69 -82 -83 -94 -96 -105 -107 -116 -117 -126 -127 0
-19 -53 -54 -68 -69 -82 -83 -95 -96 -105 -108 -116 -117 -126 -127 0
-18 -52 -53 -67 -68 -81 -82 -94 -95 -106 -107 -116 -118 -126 -127 0
-19 -52 -54 -67 -68 -81 -82 -94 -95 -106 -107 -116 -118 -126 -127 0
-19 -53 -54 -67 -69 -81 -82 -94 -95 -106 -107 -116 -118 -126 -127 0
-19 -53 -54 -68 -69 -81 -83 -94 -95 -106 -107 -116 -118 -126 -127 0
-19 -53 -54 -68 -69 -82 -83 -94 -96 -106 -107 -116 -118 -126 -127 0
-19 -53 -54 -68 -69 -82 -83 -95 -96 -106 -108 -116 -118 -126 -127 0
-19 -53 -54 -68 -69 -82 -83 -95 -96 -107 -108 -116 -119 -126 -127 0
-18 -52 -53 -67 -68 -81 -82 -94 -95 -106 -107 -117 -118 -126 -128 0
-19 -52 -54 -67 -68 -81 -82 -94 -95 -106 -107 -117 -118 -126 -128 0
-19 -53 -54 -67 -69 -81 -82 -94 -95 -106 -107 -117 -118 -126 -128 0
-19 -53 -54 -68 -69 -81 -83 -94 -95 -106 -107 -117 -118 -126 -128 0
-19 -53 -54 -68 -69 -82 -83 -94 -96 -106 -107 -117 -118 -126 -128 0
-19 -53 -54 -68 -69 -82 -83 -95 -96 -106 -108 -117 -118 -126 -128 0
-19 -53 -54 -68 -69 -82 -83 -95 -96 -107 -108 -117 -119 -126 -128 0
-19 -53 -54 -68 -69 -82 -83 -95 -96 -107 -108 -118 -119 -126 -129 0
-18 -52 -53 -67 -68 -81 -82 -94 -95 -106 -107 -117 -118 -127 -128 0
-19 -52 -54 -67 -68 -81 -82 -94 -95 -106 -107 -117 -118 -127 -128 0
-19 -53 -54 -67 -69 -81 -82 -94 -95 -106 -107 -117 -118 -127 -128 0
-19 -53 -54 -68 -69 -81 -83 -94 -95 -106 -107 -117 -118 -127 -128 0
-19 -53 -54 -68 -69 -82 -83 -94 -96 -106 -107 -117 -118 -127 -128 0
-19 -53 -54 -68 -69 -82 -83 -95 -96 -106 -108 -117 -118 -127 -128 0
-19 -53 -54 -68 -69 -82 -83 -95 -96 -107 -108 -117 -119 -127 -128 0
-19 -53 -54 -68 -69 -82 -83 -95 -96 -107 -108 -118 -119 -127 -129 0
-19 -53 -54 -68 -69 -82 -83 -95 -96 -107 -108 -118 -119 -128 -129 0
-17 -51 -52 -66 -67 -80 -81 -93 -94 -105 -106 -116 -117 -136 -137 0
-18 -51 -53 -66 -67 -80 -81 -93 -94 -105 -106 -116 -117 -136 -137 0
-19 -51 -54 -66 -67 -80 -81 -93 -94 -105 -106 -116 -117 -136 -137 0
-18 -52 -53 -66 -68 -80 -81 -93 -94 -105 -106 -116 -117 -136 -137 0
-19 -52 -54 -66 -68 -80 -81 -93 -94 -105 -106 -116 -117 -136 -137 0
-19 -53 -54 -66 -69 -80 -81 -93 -94 -105 -106 -116 -117 -136 -137 0
-18 -52 -53 -67 -68 -80 -82 -93 -94 -105 -106 -116 -117 -136 -137 0
-19 -52 -54 -67 -68 -80 -82 -93 -94 -105 -106 -116 -117 -136 -137 0
-19 -53 -54 -67 -69 -80 -82 -93 -94 -105 -106 -116 -117 -136 -137 0
-19 -53 -54 -68 -69 -80 -83 -93 -94 -105 -106 -116 -117 -136 -137 0
-18 -52 -53 -67 -68 -81 -82 -93 -95 -105 -106 -116 -117 -136 -137 0
-19 -52 -54 -67 -68 -81 -82 -93 -95 -105 -106 -116 -117 -136 -137 0
-19 -53 -54 -67 -69 -81 -82 -93 -95 -105 -106 -116 -117 -136 -137 0
-19 -53 -54 -68 -69 -81 -83 -93 -95 -105 -106 -116 -117 -136 -137 0
-19 -53 -54 -68 -69 -82 -83 -93 -96 -105 -106 -116 -117 -136 -137 0
-18 -52 -53 -67 -68 -81 -82 -94 -95 -105 -107 -116 -117 -136 -137 0
-19 -52 -54 -67 -68 -81 -82 -94 -95 -105 -107 -116 -117 -136 -137 0
-19 -53 -54 -67 -69 -81 -82 -94 -95 -105 -107 -116 -117 -136 -137 0
-19 -53 -54 -68 -69 -81 -83 -94 -95 -105 -107 -116 -117 -136 -137 0
-19 -53 -54 -68 -69 -82 -83 -94 -96 -105 -107 -116 -117 -136 -137 0
-19 -53 -54 -68 -69 -82 -83 -95 -96 -105 -108 -116 -117 -136 -137 0
-18 -52 -53 -67 -68 -81 -82 -94 -95 -106 -107 -116 -118 -136 -137 0
-19 -52 -54 -67 -68 -81 -82 -94 -95 -106 -107 -116 -118 -136 -137 0
-19 -53 -54 -67 -69 -81 -82 -94 -95 -106 -107 -116 -118 -136 -137 0
-19 -53 -54 -68 -69 -81 -83 -94 -95 -106 -107 -116 -118 -136 -137 0
-19 -53 -54 -68 -69 -82 -83 -94 -96 -106 -107 -116 -118 -136 -137 0
-19 -53 -54 -68 -69 -82 -83 -95 -96 -106 -108 -116 -118 -136 -137 0
-19 -53 -54 -68 -69 -82 -83 -95 -96 -107 -108 -116 -119 -136 -137 0
-18 -52 -53 -67 -68 -81 -82 -94 -95 -106 -107 -117 -118 -136 -138 0
-19 -52 -54 -67 -68 -81 -82 -94 -95 -106 -107 -117 -118 -136 -138 0
-19 -53 -54 -67 -69 -81 -82 -94 -95 -106 -107 -117 -118 -136 -138 0
-19 -53 -54 -68 -69 -81 -83 -94 -95 -106 -107 -117 -118 -136 -138 0
-19 -53 -54 -68 -69 -82 -83 -94 -96 -106 -107 -117 -118 -136 -138 0
-19 -53 -54 -68 -69 -82 -83 -95 -96 -106 -108 -117 -118 -136 -138 0
-19 -53 -54 -68 -69 -82 -83 -95 -96 -107 -108 -117 -119 -136 -138 0
-19 -53 -54 -68 -69 -82 -83 -95 -96 -107 -108 -118 -119 -136 -139 0
-18 -52 -53 -67 -68 -81 -82 -94 -95 -106 -107 -117 -118 -137 -138 0
-19 -52 -54 -67 -68 -81 -82 -94 -95 -106 -107 -117 -118 -137 -138 0
-19 -53 -54 -67 -69 -81 -82 -94 -95 -106 -107 -117 -118 -137 -138 0
-19 -53 -54 -68 -69 -81 -83 -94 -95 -106 -107 -117 -118 -137 -138 0
-19 -53 -54 -68 -69 -82 -83 -94 -96 -106 -107 -117 -118 -137 -138 0
-19 -53 -54 -68 -69 -82 -83 -95 -96 -106 -108 -117 -118 -137 -138 0
-19 -53 -54 -68 -69 -82 -83 -95 -96 -107 -108 -117 -119 -137 -138 0
-19 -53 -54 -68 -69 -82 -83 -95 -96 -107 -108 -118 -119 -137 -139 0
-19 -53 -54 -68 -69 -82 -83 -95 -96 -107 -108 -118 -119 -138 -139 0
-18 -52 -53 -67 -68 -81 -82 -94 -95 -106 -107 -117 -118 -146 -147 0
-19 -52 -54 -67 -68 -81 -82 -94 -95 -106 -107 -117 -118 -146 -147 0
-19 -53 -54 -67 -69 -81 -82 -94 -95 -106 -107 -117 -118 -146 -147 0
-19 -53 -54 -68 -69 -81 -83 -94 -95 -106 -107 -117 -118 -146 -147 0
-19 -53 -54 -68 -69 -82 -83 -94 -96 -106 -107 -117 -118 -146 -147 0
-19 -53 -54 -68 -69 -82 -83 -95 -96 -106 -108 -117 -118 -146 -147 0
-19 -53 -54 -68 -69 -82 -83 -95 -96 -107 -108 -117 -119 -146 -147 0
-19 -53 -54 -68 -69 -82 -83 -95 -96 -107 -108 -118 -119 -146 -148 0
-19 -53 -54 -68 -69 -82 -83 -95 -96 -107 -108 -118 -119 -147 -148 0
-19 -53 -54 -68 -69 -82 -83 -95 -96 -107 -108 -118 -119 -155 -156 0
-17 -51 -52 -66 -67 -80 -81 -93 -94 -105 -106 -127 -128 -136 -137 0
-18 -51 -53 -66 -67 -80 -81 -93 -94 -105 -106 -127 -128 -136 -137 0
-19 -51 -54 -66 -67 -80 -81 -93 -94 -105 -106 -127 -128 -136 -137 0
-18 -52 -53 -66 -68 -80 -81 -93 -94 -105 -106 -127 -128 -136 -137 0
-19 -52 -54 -66 -68 -80 -81 -93 -94 -105 -106 -127 -128 -136 -137 0
-19 -53 -54 -66 -69 -80 -81 -93 -94 -105 -106 -127 -128 -136 -137 0
-18 -52 -53 -67 -68 -80 -82 -93 -94 -105 -106 -127 -128 -136 -137 0
-19 -52 -54 -67 -68 -80 -82 -93 -94 -105 -106 -127 -128 -136 -137 0
-19 -53 -54 -67 -69 -80 -82 -93 -94 -105 -106 -127 -128 -136 -137 0
-19 -53 -54 -68 -69 -80 -83 -93 -94 -105 -106 -127 -128 -136 -137 0
-18 -52 -53 -67 -68 -81 -82 -93 -95 -105 -106 -127 -128 -136 -137 0
-19 -52 -54 -67 -68 -81 -82 -93 -95 -105 -106 -127 -128 -136 -137 0
-19 -53 -54 -67 -69 -81 -82 -93 -95 -105 -106 -127 -128 -136 -137 0
-19 -53 -54 -68 -69 -81 -83 -93 -95 -105 -106 -127 -128 -136 -137 0
-19 -53 -54 -68 -69 -82 -83 -93 -96 -105 -106 -127 -128 -136 -137 0
-18 -52 -53 -67 -68 -81 -82 -94 -95 -105 -107 -127 -128 -136 -137 0
-19 -52 -54 -67 -68 -81 -82 -94 -95 -105 -107 -127 -128 -136 -137 0
-19 -53 -54 -67 -69 -81 -82 -94 -95 -105 -107 -127 -128 -136 -137 0
-19 -53 -54 -68 -69 -81 -83 -94 -95 -105 -107 -127 -128 -136 -137 0
-19 -53 -54 -68 -69 -82 -83 -94 -96 -105 -107 -127 -128 -136 -137 0
-19 -53 -54 -68 -69 -82 -83 -95 -96 -105 -108 -127 -128 -136 -137 0
-18 -52 -53 -67 -68 -81 -82 -94 -95 -106 -107 -127 -129 -136 -137 0
-19 -52 -54 -67 -68 -81 -82 -94 -95 -106 -107 -127 -129 -136 -137 0
-19 -53 -54 -67 -69 -81 -82 -94 -95 -106 -107 -127 -129 -136 -137 0
-19 -53 -54 -68 -69 -81 -83 -94 -95 -106 -107 -127 -129 -136 -137 0
-19 -53 -54 -68 -69 -82 -83 -94 -96 -106 -107 -127 -129 -136 -137 0
-19 -53 -54 -68 -69 -82 -83 -95 -96 -106 -108 -127 -129 -136 -137 0
-19 -53 -54 -68 -69 -82 -83 -95 -96 -107 -108 -127 -130 -136 -137 0
-18 -52 -53 -67 -68 -81 -82 -94 -95 -106 -107 -128 -129 -136 -138 0
-19 -52 -54 -67 -68 -81 -82 -94 -95 -106 -107 -128 -129 -136 -138 0
-19 -53 -54 -67 -69 -81 -82 -94 -95 -106 -107 -128 -129 -136 -138 0
-19 -53 -54 -68 -69 -81 -83 -94 -95 -106 -107 -128 -129 -136 -138 0
-19 -53 -54 -68 -69 -82 -83 -94 -96 -106 -107 -128 -129 -136 -138 0
-19 -53 -54 -68 -69 -82 -83 -95 -96 -106 -108 -128 -129 -136 -138 0
-19 -53 -54 -68 -69 -82 -83 -95 -96 -107 -108 -128 -130 -136 -138 0
-19 -53 -54 -68 -69 -82 -83 -95 -96 -107 -108 -129 -130 -136 -139 0
-18 -52 -53 -67 -68 -81 -82 -94 -95 -106 -107 -128 -129 -137 -138 0
-19 -52 -54 -67 -68 -81 -82 -94 -95 -106 -107 -128 -129 -137 -138 0
-19 -53 -54 -67 -69 -81 -82 -94 -95 -106 -107 -128 -129 -137 -138 0
-19 -53 -54 -68 -69 -81 -83 -94 -95 -106 -107 -128 -129 -137 -138 0
-19 -53 -54 -68 -69 -82 -83 -94 -96 -106 -107 -128 -129 -137 -138 0
-19 -53 -54 -68 -69 -82 -83 -95 -96 -106 -108 -128 -129 -137 -138 0
-19 -53 -54 -68 -69 -82 -83 -95 -96 -107 -108 -128 -130 -137 -138 0
-19 -53 -54 -68 -69 -82 -83 -95 -96 -107 -108 -129 -130 -137 -139 0
-19 -53 -54 -68 -69 -82 -83 -95 -96 -107 -108 -129 -130 -138 -139 0
-18 -52 -53 -67 -68 -81 -82 -94 -95 -106 -107 -128 -129 -146 -147 0
-19 -52 -54 -67 -68 -81 -82 -94 -95 -106 -107 -128 -129 -146 -147 0
-19 -53 -54 -67 -69 -81 -82 -94 -95 -106 -107 -128 -129 -146 -147 0
-19 -53 -54 -68 -69 -81 -83 -94 -95 -106 -107 -128 -129 -146 -147 0
-19 -53 -54 -68 -69 -82 -83 -94 -96 -106 -107 -128 -129 -146 -147 0
-19 -53 -54 -68 -69 -82 -83 -95 -96 -106 -108 -128 -129 -146 -147 0
-19 -53 -54 -68 -69 -82 -83 -95 -96 -107 -108 -128 -130 -146 -147 0
-19 -53 -54 -68 -69 -82 -83 -95 -96 -107 -108 -129 -130 -146 -148 0
-19 -53 -54 -68 -69 -82 -83 -95 -96 -107 -108 -129 -130 -147 -148 0
-19 -53 -54 -68 -69 -82 -83 -95 -96 -107 -108 -129 -130 -155 -156 0
-18 -52 -53 -67 -68 -81 -82 -94 -95 -106 -107 -138 -139 -146 -147 0
-19 -52 -54 -67 -68 -81 -82 -94 -95 -106 -107 -138 -139 -146 -147 0
-19 -53 -54 -67 -69 -81 -82 -94 -95 -106 -107 -138 -139 -146 -147 0
-19 -53 -54 -68 -69 -81 -83 -94 -95 -106 -107 -138 -139 -146 -147 0
-19 -53 -54 -68 -69 -82 -83 -94 -96 -106 -107 -138 -139 -146 -147 0
-19 -53 -54 -68 -69 -82 -83 -95 -96 -106 -108 -138 -139 -146 -147 0
-19 -53 -54 -68 -69 -82 -83 -95 -96 -107 -108 -138 -140 -146 -147 0
-19 -53 -54 -68 -69 -82 -83 -95 -96 -107 -108 -139 -140 -146 -148 0
-19 -53 -54 -68 -69 -82 -83 -95 -96 -107 -108 -139 -140 -147 -148 0
-19 -53 -54 -68 -69 -82 -83 -95 -96 -107 -108 -139 -140 -155 -156 0
-19 -53 -54 -68 -69 -82 -83 -95 -96 -107 -108 -148 -149 -155 -156 0
-17 -51 -52 -66 -67 -80 -81 -93 -94 -117 -118 -127 -128 -136 -137 0
-18 -51 -53 -66 -67 -80 -81 -93 -94 -117 -118 -127 -128 -136 -137 0
-19 -51 -54 -66 -67 -80 -81 -93 -94 -117 -118 -127 -128 -136 -137 0
-18 -52 -53 -66 -68 -80 -81 -93 -94 -117 -118 -127 -128 -136 -137 0
-19 -52 -54 -66 -68 -80 -81 -93 -94 -117 -118 -127 -128 -136 -137 0
-19 -53 -54 -66 -69 -80 -81 -93 -94 -117 -118 -127 -128 -136 -137 0
-18 -52 -53 -67 -68 -80 -82 -93 -94 -117 -118 -127 -128 -136 -137 0
-19 -52 -54 -67 -68 -80 -82 -93 -94 -117 -118 -127 -128 -136 -137 0
-19 -53 -54 -67 -69 -80 -82 -93 -94 -117 -118 -127 -128 -136 -137 0
-19 -53 -54 -68 -69 -80 -83 -93 -94 -117 -118 -127 -128 -136 -137 0
-18 -52 -53 -67 -68 -81 -82 -93 -95 -117 -118 -127 -128 -136 -137 0
-19 -52 -54 -67 -68 -81 -82 -93 -95 -117 -118 -127 -128 -136 -137 0
-19 -53 -54 -67 -69 -81 -82 -93 -95 -117 -118 -127 -128 -136 -137 0
-19 -53 -54 -68 -69 -81 -83 -93 -95 -117 -118 -127 -128 -136 -137 0
-19 -53 -54 -68 -69 -82 -83 -93 -96 -117 -118 -127 -128 -136 -137 0
-18 -52 -53 -67 -68 -81 -82 -94 -95 -117 -119 -127 -128 -136 -137 0
-19 -52 -54 -67 -68 -81 -82 -94 -95 -117 -119 -127 -128 -136 -137 0
-19 -53 -54 -67 -69 -81 -82 -94 -95 -117 -119 -127 -128 -136 -137 0
-19 -53 -54 -68 -69 -81 -83 -94 -95 -117 -119 -127 -128 -136 -137 0
-19 -53 -54 -68 -69 -82 -83 -94 -96 -117 -119 -127 -128 -136 -137 0
-19 -53 -54 -68 -69 -82 -83 -95 -96 -117 -120 -127 -128 -136 -137 0
-18 -52 -53 -67 -68 -81 -82 -94 -95 -118 -119 -127 -129 -136 -137 0
-19 -52 -54 -67 -68 -81 -82 -94 -95 -118 -119 -127 -129 -136 -137 0
-19 -53 -54 -67 -69 -81 -82 -94 -95 -118 -119 -127 -129 -136 -137 0
-19 -53 -54 -68 -69 -81 -83 -94 -95 -118 -119 -127 -129 -136 -137 0
-19 -53 -54 -68 -69 -82 -83 -94 -96 -118 -119 -127 -129 -136 -137 0
-19 -53 -54 -68 -69 -82 -83 -95 -96 -118 -120 -127 -129 -136 -137 0
-19 -53 -54 -68 -69 -82 -83 -95 -96 -119 -120 -127 -130 -136 -137 0
-18 -52 -53 -67 -68 -81 -82 -94 -95 -118 -119 -128 -129 -136 -138 0
-19 -52 -54 -67 -68 -81 -82 -94 -95 -118 -119 -128 -129 -136 -138 0
-19 -53 -54 -67 -69 -81 -82 -94 -95 -118 -119 -128 -129 -136 -138 0
-19 -53 -54 -68 -69 -81 -83 -94 -95 -118 -119 -128 -129 -136 -138 0
-19 -53 -54 -68 -69 -82 -83 -94 -96 -118 -119 -128 -129 -136 -138 0
-19 -53 -54 -68 -69 -82 -83 -95 -96 -118 -120 -128 -129 -136 -138 0
-19 -53 -54 -68 -69 -82 -83 -95 -96 -119 -120 -128 -130 -136 -138 0
-19 -53 -54 -68 -69 -82 -83 -95 -96 -119 -120 -129 -130 -136 -139 0
-18 -52 -53 -67 -68 -81 -82 -94 -95 -118 -119 -128 -129 -137 -138 0
-19 -52 -54 -67 -68 -81 -82 -94 -95 -118 -119 -128 -129 -137 -138 0
-19 -53 -54 -67 -69 -81 -82 -94 -95 -118 -119 -128 -129 -137 -138 0
-19 -53 -54 -68 -69 -81 -83 -94 -95 -118 -119 -128 -129 -137 -138 0
-19 -53 -54 -68 -69 -82 -83 -94 -96 -118 -119 -128 -129 -137 -138 0
-19 -53 -54 -68 -69 -82 -83 -95 -96 -118 -120 -128 -129 -137 -138 0
-19 -53 -54 -68 -69 -82 -83 -95 -96 -119 -120 -128 -130 -137 -138 0
-19 -53 -54 -68 -69 -82 -83 -95 -96 -119 -120 -129 -130 -137 -139 0
-19 -53 -54 -68 -69 -82 -83 -95 -96 -119 -120 -129 -130 -138 -139 0
-18 -52 -53 -67 -68 -81 -82 -94 -95 -118 -119 -128 -129 -146 -147 0
-19 -52 -54 -67 -68 -81 -82 -94 -95 -118 -119 -128 -129 -146 -147 0
-19 -53 -54 -67 -69 -81 -82 -94 -95 -118 -119 -128 -129 -146 -147 0
-19 -53 -54 -68 -69 -81 -83 -94 -95 -118 -119 -128 -129 -146 -147 0
-19 -53 -54 -68 -69 -82 -83 -94 -96 -118 -119 -128 -129 -146 -147 0
-19 -53 -54 -68 -69 -82 -83 -95 -96 -118 -120 -128 -129 -146 -147 0
-19 -53 -54 -68 -69 -82 -83 -95 -96 -119 -120 -128 -130 -146 -147 0
-19 -53 -54 -68 -69 -82 -83 -95 -96 -119 -120 -129 -130 -146 -148 0
-19 -53 -54 -68 -69 -82 -83 -95 -96 -119 -120 -129 -130 -147 -148 0
-19 -53 -54 -68 -69 -82 -83 -95 -96 -119 -120 -129 -130 -155 -156 0
-18 -52 -53 -67 -68 -81 -82 -94 -95 -118 -119 -138 -139 -146 -147 0
-19 -52 -54 -67 -68 -81 -82 -94 -95 -118 -119 -138 -139 -146 -147 0
-19 -53 -54 -67 -69 -81 -82 -94 -95 -118 -119 -138 -139 -146 -147 0
-19 -53 -54 -68 -69 -81 -83 -94 -95 -118 -119 -138 -139 -146 -147 0
-19 -53 -54 -68 -69 -82 -83 -94 -96 -118 -119 -138 -139 -146 -147 0
-19 -53 -54 -68 -69 -82 -83 -95 -96 -118 -120 -138 -139 -146 -147 0
-19 -53 -54 -68 -69 -82 -83 -95 -96 -119 -120 -138 -140 -146 -147 0
-19 -53 -54 -68 -69 -82 -83 -95 -96 -119 -120 -139 -140 -146 -148 0
-19 -53 -54 -68 -69 -82 -83 -95 -96 -119 -120 -139 -140 -147 -148 0
-19 -53 -54 -68 -69 -82 -83 -95 -96 -119 -120 -139 -140 -155 -156 0
-19 -53 -54 -68 -69 -82 -83 -95 -96 -119 -120 -148 -149 -155 -156 0
-18 -52 -53 -67 -68 -81 -82 -94 -95 -129 -130 -138 -139 -146 -147 0
-19 -52 -54 -67 -68 -81 -82 -94 -95 -129 -130 -138 -139 -146 -147 0
-19 -53 -54 -67 -69 -81 -82 -94 -95 -129 -130 -138 -139 -146 -147 0
-19 -53 -54 -68 -69 -81 -83 -94 -95 -129 -130 -138 -139 -146 -147 0
-19 -53 -54 -68 -69 -82 -83 -94 -96 -129 -130 -138 -139 -146 -147 0
-19 -53 -54 -68 -69 -82 -83 -95 -96 -129 -131 -138 -139 -146 -147 0
-19 -53 -54 -68 -69 -82 -83 -95 -96 -130 -131 -138 -140 -146 -147 0
-19 -53 -54 -68 -69 -82 -83 -95 -96 -130 -131 -139 -140 -146 -148 0
-19 -53 -54 -68 -69 -82 -83 -95 -96 -130 -131 -139 -140 -147 -148 0
-19 -53 -54 -68 -69 -82 -83 -95 -96 -130 -131 -139 -140 -155 -156 0
-19 -53 -54 -68 -69 -82 -83 -95 -96 -130 -131 -148 -149 -155 -156 0
-19 -53 -54 -68 -69 -82 -83 -95 -96 -140 -141 -148 -149 -155 -156 0
-17 -51 -52 -66 -67 -80 -81 -106 -107 -117 -118 -127 -128 -136 -137 0
-18 -51 -53 -66 -67 -80 -81 -106 -107 -117 -118 -127 -128 -136 -137 0
-19 -51 -54 -66 -67 -80 -81 -106 -107 -117 -118 -127 -128 -136 -137 0
-18 -52 -53 -66 -68 -80 -81 -106 -107 -117 -118 -127 -128 -136 -137 0
-19 -52 -54 -66 -68 -80 -81 -106 -107 -117 -118 -127 -128 -136 -137 0
-19 -53 -54 -66 -69 -80 -81 -106 -107 -117 -118 -127 -128 -136 -137 0
-18 -52 -53 -67 -68 -80 -82 -106 -107 -117 -118 -127 -128 -136 -137 0
-19 -52 -54 -67 -68 -80 -82 -106 -107 -117 -118 -127 -128 -136 -137 0
-19 -53 -54 -67 -69 -80 -82 -106 -107 -117 -118 -127 -128 -136 -137 0
-19 -53 -54 -68 -69 -80 -83 -106 -107 -117 -118 -127 -128 -136 -137 0
-18 -52 -53 -67 -68 -81 -82 -106 -108 -117 -118 -127 -128 -136 -137 0
-19 -52 -54 -67 -68 -81 -82 -106 -108 -117 -118 -127 -128 -136 -137 0
-19 -53 -54 -67 -69 -81 -82 -106 -108 -117 -118 -127 -128 -136 -137 0
-19 -53 -54 -68 -69 -81 -83 -106 -108 -117 -118 -127 -128 -136 -137 0
-19 -53 -54 -68 -69 -82 -83 -106 -109 -117 -118 -127 -128 -136 -137 0
-18 -52 -53 -67 -68 -81 -82 -107 -108 -117 -119 -127 -128 -136 -137 0
-19 -52 -54 -67 -68 -81 -82 -107 -108 -117 -119 -127 -128 -136 -137 0
-19 -53 -54 -67 -69 -81 -82 -107 -108 -117 -119 -127 -128 -136 -137 0
-19 -53 -54 -68 -69 -81 -83 -107 -108 -117 -119 -127 -128 -136 -137 0
-19 -53 -54 -68 -69 -82 -83 -107 -109 -117 -119 -127 -128 -136 -137 0
-19 -53 -54 -68 -69 -82 -83 -108 -109 -117 -120 -127 -128 -136 -137 0
-18 -52 -53 -67 -68 -81 -82 -107 -108 -118 -119 -127 -129 -136 -137 0
-19 -52 -54 -67 -68 -81 -82 -107 -108 -118 -119 -127 -129 -136 -137 0
-19 -53 -54 -67 -69 -81 -82 -107 -108 -118 -119 -127 -129 -136 -137 0
-19 -53 -54 -68 -69 -81 -83 -107 -108 -118 -119 -127 -129 -136 -137 0
-19 -53 -54 -68 -69 -82 -83 -107 -109 -118 -119 -127 -129 -136 -137 0
-19 -53 -54 -68 -69 -82 -83 -108 -109 -118 -120 -127 -129 -136 -137 0
-19 -53 -54 -68 -69 -82 -83 -108 -109 -119 -120 -127 -130 -136 -137 0
-18 -52 -53 -67 -68 -81 -82 -107 -108 -118 -119 -128 -129 -136 -138 0
-19 -52 -54 -67 -68 -81 -82 -107 -108 -118 -119 -128 -129 -136 -138 0
-19 -53 -54 -67 -69 -81 -82 -107 -108 -118 -119 -128 -129 -136 -138 0
-19 -53 -54 -68 -69 -81 -83 -107 -108 -118 -119 -128 -129 -136 -138 0
-19 -53 -54 -68 -69 -82 -83 -107 -109 -118 -119 -128 -129 -136 -138 0
-19 -53 -54 -68 -69 -82 -83 -108 -109 -118 -120 -128 -129 -136 -138 0
-19 -53 -54 -68 -69 -82 -83 -108 -109 -119 -120 -128 -130 -136 -138 0
-19 -53 -54 -68 -69 -82 -83 -108 -109 -119 -120 -129 -130 -136 -139 0
-18 -52 -53 -67 -68 -81 -82 -107 -108 -118 -119 -128 -129 -137 -138 0
-19 -52 -54 -67 -68 -81 -82 -107 -108 -118 -119 -128 -129 -137 -138 0
-19 -53 -54 -67 -69 -81 -82 -107 -108 -118 -119 -128 -129 -137 -138 0
-19 -53 -54 -68 -69 -81 -83 -107 -108 -118 -119 -128 -129 -137 -138 0
-19 -53 -54 -68 -69 -82 -83 -107 -109 -118 -119 -128 -129 -137 -138 0
-19 -53 -54 -68 -69 -82 -83 -108 -109 -118 -120 -128 -129 -137 -138 0
-19 -53 -54 -68 -69 -82 -83 -108 -109 -119 -120 -128 -130 -137 -138 0
-19 -53 -54 -68 -69 -82 -83 -108 -109 -119 -120 -129 -130 -137 -139 0
-19 -53 -54 -68 -69 -82 -83 -108 -109 -119 -120 -129 -130 -138 -139 0
-18 -52 -53 -67 -68 -81 -82 -107 -108 -118 -119 -128 -129 -146 -147 0
-19 -52 -54 -67 -68 -81 -82 -107 -108 -118 -119 -128 -129 -146 -147 0
-19 -53 -54 -67 -69 -81 -82 -107 -108 -118 -119 -128 -129 -146 -147 0
-19 -53 -54 -68 -69 -81 -83 -107 -108 -118 -119 -128 -129 -146 -147 0
-19 -53 -54 -68 -69 -82 -83 -107 -109 -118 -119 -128 -129 -146 -147 0
-19 -53 -54 -68 -69 -82 -83 -108 -109 -118 -120 -128 -129 -146 -147 0
-19 -53 -54 -68 -69 -82 -83 -108 -109 -119 -120 -128 -130 -146 -147 0
-19 -53 -54 -68 -69 -82 -83 -108 -109 -119 -120 -129 -130 -146 -148 0
-19 -53 -54 -68 -69 -82 -83 -108 -109 -119 -120 -129 -130 -147 -148 0
-19 -53 -54 -68 -69 -82 -83 -108 -109 -119 -120 -129 -130 -155 -156 0
-18 -52 -53 -67 -68 -81 -82 -107 -108 -118 -119 -138 -139 -146 -147 0
-19 -52 -54 -67 -68 -81 -82 -107 -108 -118 -119 -138 -139 -146 -147 0
-19 -53 -54 -67 -69 -81 -82 -107 -108 -118 -119 -138 -139 -146 -147 0
-19 -53 -54 -68 -69 -81 -83 -107 -108 -118 -119 -138 -139 -146 -147 0
-19 -53 -54 -68 -69 -82 -83 -107 -109 -118 -119 -138 -139 -146 -147 0
-19 -53 -54 -68 -69 -82 -83 -108 -109 -118 -120 -138 -139 -146 -147 0
-19 -53 -54 -68 -69 -82 -83 -108 -109 -119 -120 -138 -140 -146 -147 0
-19 -53 -54 -68 -69 -82 -83 -108 -109 -119 -120 -139 -140 -146 -148 0
-19 -53 -54 -68 -69 -82 -83 -108 -109 -119 -120 -139 -140 -147 -148 0
-19 -53 -54 -68 -69 -82 -83 -108 -109 -119 -120 -139 -140 -155 -156 0
-19 -53 -54 -68 -69 -82 -83 -108 -109 -119 -120 -148 -149 -155 -156 0
-18 -52 -53 -67 -68 -81 -82 -107 -108 -129 -130 -138 -139 -146 -147 0
-19 -52 -54 -67 -68 -81 -82 -107 -108 -129 -130 -138 -139 -146 -147 0
-19 -53 -54 -67 -69 -81 -82 -107 -108 -129 -130 -138 -139 -146 -147 0
-19 -53 -54 -68 -69 -81 -83 -107 -108 -129 -130 -138 -139 -146 -147 0
-19 -53 -54 -68 -69 -82 -83 -107 -109 -129 -130 -138 -139 -146 -147 0
-19 -53 -54 -68 -69 -82 -83 -108 -109 -129 -131 -138 -139 -146 -147 0
-19 -53 -54 -68 -69 -82 -83 -108 -109 -130 -131 -138 -140 -146 -147 0
-19 -53 -54 -68 -69 -82 -83 -108 -109 -130 -131 -139 -140 -146 -148 0
-19 -53 -54 -68 -69 -82 -83 -108 -109 -130 -131 -139 -140 -147 -148 0
-19 -53 -54 -68 -69 -82 -83 -108 -109 -130 -131 -139 -140 -155 -156 0
-19 -53 -54 -68 -69 -82 -83 -108 -109 -130 -131 -148 -149 -155 -156 0
-19 -53 -54 -68 -69 -82 -83 -108 -109 -140 -141 -148 -149 -155 -156 0
-18 -52 -53 -67 -68 -81 -82 -119 -120 -129 -130 -138 -139 -146 -147 0
-19 -52 -54 -67 -68 -81 -82 -119 -120 -129 -130 -138 -139 -146 -147 0
-19 -53 -54 -67 -69 -81 -82 -119 -120 -129 -130 -138 -139 -146 -147 0
-19 -53 -54 -68 -69 -81 -83 -119 -120 -129 -130 -138 -139 -146 -147 0
-19 -53 -54 -68 -69 -82 -83 -119 -121 -129 -130 -138 -139 -146 -147 0
-19 -53 -54 -68 -69 -82 -83 -120 -121 -129 -131 -138 -139 -146 -147 0
-19 -53 -54 -68 -69 -82 -83 -120 -121 -130 -131 -138 -140 -146 -147 0
-19 -53 -54 -68 -69 -82 -83 -120 -121 -130 -131 -139 -140 -146 -148 0
-19 -53 -54 -68 -69 -82 -83 -120 -121 -130 -131 -139 -140 -147 -148 0
-19 -53 -54 -68 -69 -82 -83 -120 -121 -130 -131 -139 -140 -155 -156 0
-19 -53 -54 -68 -69 -82 -83 -120 -121 -130 -131 -148 -149 -155 -156 0
-19 -53 -54 -68 -69 -82 -83 -120 -121 -140 -141 -148 -149 -155 -156 0
-19 -53 -54 -68 -69 -82 -83 -131 -132 -140 -141 -148 -149 -155 -156 0
-17 -51 -52 -66 -67 -94 -95 -106 -107 -117 -118 -127 -128 -136 -137 0
-18 -51 -53 -66 -67 -94 -95 -106 -107 -117 -118 -127 -128 -136 -137 0
-19 -51 -54 -66 -67 -94 -95 -106 -107 -117 -118 -127 -128 -136 -137 0
-18 -52 -53 -66 -68 -94 -95 -106 -107 -117 -118 -127 -128 -136 -137 0
-19 -52 -54 -66 -68 -94 -95 -106 -107 -117 -118 -127 -128 -136 -137 0
-19 -53 -54 -66 -69 -94 -95 -106 -107 -117 -118 -127 -128 -136 -137 0
-18 -52 -53 -67 -68 -94 -96 -106 -107 -117 -118 -127 -128 -136 -137 0
-19 -52 -54 -67 -68 -94 -96 -106 -107 -117 -118 -127 -128 -136 -137 0
-19 -53 -54 -67 -69 -94 -96 -106 -107 -117 -118 -127 -128 -136 -137 0
-19 -53 -54 -68 -69 -94 -97 -106 -107 -117 -118 -127 -128 -136 -137 0
-18 -52 -53 -67 -68 -95 -96 -106 -108 -117 -118 -127 -128 -136 -137 0
-19 -52 -54 -67 -68 -95 -96 -106 -108 -117 -118 -127 -128 -136 -137 0
-19 -53 -54 -67 -69 -95 -96 -106 -108 -117 -118 -127 -128 -136 -137 0
-19 -53 -54 -68 -69 -95 -97 -106 -108 -117 -118 -127 -128 -136 -137 0
-19 -53 -54 -68 -69 -96 -97 -106 -109 -117 -118 -127 -128 -136 -137 0
-18 -52 -53 -67 -68 -95 -96 -107 -108 -117 -119 -127 -128 -136 -137 0
-19 -52 -54 -67 -68 -95 -96 -107 -108 -117 -119 -127 -128 -136 -137 0
-19 -53 -54 -67 -69 -95 -96 -107 -108 -117 -119 -127 -128 -136 -137 0
-19 -53 -54 -68 -69 -95 -97 -107 -108 -117 -119 -127 -128 -136 -137 0
-19 -53 -54 -68 -69 -96 -97 -107 -109 -117 -119 -127 -128 -136 -137 0
-19 -53 -54 -68 -69 -96 -97 -108 -109 -117 -120 -127 -128 -136 -137 0
-18 -52 -53 -67 -68 -95 -96 -107 -108 -118 -119 -127 -129 -136 -137 0
-19 -52 -54 -67 -68 -95 -96 -107 -108 -118 -119 -127 -129 -136 -137 0
-19 -53 -54 -67 -69 -95 -96 -107 -108 -118 -119 -127 -129 -136 -137 0
-19 -53 -54 -68 -69 -95 -97 -107 -108 -118 -119 -127 -129 -136 -137 0
-19 -53 -54 -68 -69 -96 -97 -107 -109 -118 -119 -127 -129 -136 -137 0
-19 -53 -54 -68 -69 -96 -97 -108 -109 -118 -120 -127 -129 -136 -137 0
-19 -53 -54 -68 -69 -96 -97 -108 -109 -119 -120 -127 -130 -136 -137 0
-18 -52 -53 -67 -68 -95 -96 -107 -108 -118 -119 -128 -129 -136 -138 0
-19 -52 -54 -67 -68 -95 -96 -107 -108 -118 -119 -128 -129 -136 -138 0
-19 -53 -54 -67 -69 -95 -96 -107 -108 -118 -119 -128 -129 -136 -138 0
-19 -53 -54 -68 -69 -95 -97 -107 -108 -118 -119 -128 -129 -136 -138 0
-19 -53 -54 -68 -69 -96 -97 -107 -109 -118 -119 -128 -129 -136 -138 0
-19 -53 -54 -68 -69 -96 -97 -108 -109 -118 -120 -128 -129 -136 -138 0
-19 -53 -54 -68 -69 -96 -97 -108 -109 -119 -120 -128 -130 -136 -138 0
-19 -53 -54 -68 -69 -96 -97 -108 -109 -119 -120 -129 -130 -136 -139 0
-18 -52 -53 -67 -68 -95 -96 -107 -108 -118 -119 -128 -129 -137 -138 0
-19 -52 -54 -67 -68 -95 -96 -107 -108 -118 -119 -128 -129 -137 -138 0
-19 -53 -54 -67 -69 -95 -96 -107 -108 -118 -119 -128 -129 -137 -138 0
-19 -53 -54 -68 -69 -95 -97 -107 -108 -118 -119 -128 -129 -137 -138 0
-19 -53 -54 -68 -69 -96 -97 -107 -109 -118 -119 -128 -129 -137 -138 0
-19 -53 -54 -68 -69 -96 -97 -108 -109 -118 -120 -128 -129 -137 -138 0
-19 -53 -54 -68 -69 -96 -97 -108 -109 -119 -120 -128 -130 -137 -138 0
-19 -53 -54 -68 -69 -96 -97 -108 -109 -119 -120 -129 -130 -137 -139 0
-19 -53 -54 -68 -69 -96 -97 -108 -109 -119 -120 -129 -130 -138 -139 0
-18 -52 -53 -67 -68 -95 -96 -107 -108 -118 -119 -128 -129 -146 -147 0
-19 -52 -54 -67 -68 -95 -96 -107 -108 -118 -119 -128 -129 -146 -147 0
-19 -53 -54 -67 -69 -95 -96 -107 -108 -118 -119 -128 -129 -146 -147 0
-19 -53 -54 -68 -69 -95 -97 -107 -108 -118 -119 -128 -129 -146 -147 0
-19 -53 -54 -68 -69 -96 -97 -107 -109 -118 -119 -128 -129 -146 -147 0
-19 -53 -54 -68 -69 -96 -97 -108 -109 -118 -120 -128 -129 -146 -147 0
-19 -53 -54 -68 -69 -96 -97 -108 -109 -119 -120 -128 -130 -146 -147 0
-19 -53 -54 -68 -69 -96 -97 -108 -109 -119 -120 -129 -130 -146 -148 0
-19 -53 -54 -68 -69 -96 -97 -108 -109 -119 -120 -129 -130 -147 -148 0
-19 -53 -54 -68 -69 -96 -97 -108 -109 -119 -120 -129 -130 -155 -156 0
-18 -52 -53 -67 -68 -95 -96 -107 -108 -118 -119 -138 -139 -146 -147 0
-19 -52 -54 -67 -68 -95 -96 -107 -108 -118 -119 -138 -139 -146 -147 0
-19 -53 -54 -67 -69 -95 -96 -107 -108 -118 -119 -138 -139 -146 -147 0
-19 -53 -54 -68 -69 -95 -97 -107 -108 -118 -119 -138 -139 -146 -147 0
-19 -53 -54 -68 -69 -96 -97 -107 -109 -118 -119 -138 -139 -146 -147 0
-19 -53 -54 -68 -69 -96 -97 -108 -109 -118 -120 -138 -139 -146 -147 0
-19 -53 -54 -68 -69 -96 -97 -108 -109 -119 -120 -138 -140 -146 -147 0
-19 -53 -54 -68 -69 -96 -97 -108 -109 -119 -120 -139 -140 -146 -148 0
-19 -53 -54 -68 -69 -96 -97 -108 -109 -119 -120 -139 -140 -147 -148 0
-19 -53 -54 -68 -69 -96 -97 -108 -109 -119 -120 -139 -140 -155 -156 0
-19 -53 -54 -68 -69 -96 -97 -108 -109 -119 -120 -148 -149 -155 -156 0
-18 -52 -53 -67 -68 -95 -96 -107 -108 -129 -130 -138 -139 -146 -147 0
-19 -52 -54 -67 -68 -95 -96 -107 -108 -129 -130 -138 -139 -146 -147 0
-19 -53 -54 -67 -69 -95 -96 -107 -108 -129 -130 -138 -139 -146 -147 0
-19 -53 -54 -68 -69 -95 -97 -107 -108 -129 -130 -138 -139 -146 -147 0
-19 -53 -54 -68 -69 -96 -97 -107 -109 -129 -130 -138 -139 -146 -147 0
-19 -53 -54 -68 -69 -96 -97 -108 -109 -129 -131 -138 -139 -146 -147 0
-19 -53 -54 -68 -69 -96 -97 -108 -109 -130 -131 -138 -140 -146 -147 0
-19 -53 -54 -68 -69 -96 -97 -108 -109 -130 -131 -139 -140 -146 -148 0
-19 -53 -54 -68 -69 -96 -97 -108 -109 -130 -131 -139 -140 -147 -148 0
-19 -53 -54 -68 -69 -96 -97 -108 -109 -130 -131 -139 -140 -155 -156 0
-19 -53 -54 -68 -69 -96 -97 -108 -109 -130 -131 -148 -149 -155 -156 0
-19 -53 -54 -68 -69 -96 -97 -108 -109 -140 -141 -148 -149 -155 -156 0
-18 -52 -53 -67 -68 -95 -96 -119 -120 -129 -130 -138 -139 -146 -147 0
-19 -52 -54 -67 -68 -95 -96 -119 -120 -129 -130 -138 -139 -146 -147 0
-19 -53 -54 -67 -69 -95 -96 -119 -120 -129 -130 -138 -139 -146 -147 0
-19 -53 -54 -68 -69 -95 -97 -119 -120 -129 -130 -138 -139 -146 -147 0
-19 -53 -54 -68 -69 -96 -97 -119 -121 -129 -130 -138 -139 -146 -147 0
-19 -53 -54 -68 -69 -96 -97 -120 -121 -129 -131 -138 -139 -146 -147 0
-19 -53 -54 -68 -69 -96 -97 -120 -121 -130 -131 -138 -140 -146 -147 0
-19 -53 -54 -68 -69 -96 -97 -120 -121 -130 -131 -139 -140 -146 -148 0
-19 -53 -54 -68 -69 -96 -97 -120 -121 -130 -131 -139 -140 -147 -148 0
-19 -53 -54 -68 -69 -96 -97 -120 -121 -130 -131 -139 -140 -155 -156 0
-19 -53 -54 -68 -69 -96 -97 -120 -121 -130 -131 -148 -149 -155 -156 0
-19 -53 -54 -68 -69 -96 -97 -120 -121 -140 -141 -148 -149 -155 -156 0
-19 -53 -54 -68 -69 -96 -97 -131 -132 -140 -141 -148 -149 -155 -156 0
-18 -52 -53 -67 -68 -108 -109 -119 -120 -129 -130 -138 -139 -146 -147 0
-19 -52 -54 -67 -68 -108 -109 -119 -120 -129 -130 -138 -139 -146 -147 0
-19 -53 -54 -67 -69 -108 -109 -119 -120 -129 -130 -138 -139 -146 -147 0
-19 -53 -54 -68 -69 -108 -110 -119 -120 -129 -130 -138 -139 -146 -147 0
-19 -53 -54 -68 -69 -109 -110 -119 -121 -129 -130 -138 -139 -146 -147 0
-19 -53 -54 -68 -69 -109 -110 -120 -121 -129 -131 -138 -139 -146 -147 0
-19 -53 -54 -68 -69 -109 -110 -120 -121 -130 -131 -138 -140 -146 -147 0
-19 -53 -54 -68 -69 -109 -110 -120 -121 -130 -131 -139 -140 -146 -148 0
-19 -53 -54 -68 -69 -109 -110 -120 -121 -130 -131 -139 -140 -147 -148 0
-19 -53 -54 -68 -69 -109 -110 -120 -121 -130 -131 -139 -140 -155 -156 0
-19 -53 -54 -68 -69 -109 -110 -120 -121 -130 -131 -148 -149 -155 -156 0
-19 -53 -54 -68 -69 -109 -110 -120 -121 -140 -141 -148 -149 -155 -156 0
-19 -53 -54 -68 -69 -109 -110 -131 -132 -140 -141 -148 -149 -155 -156 0
-19 -53 -54 -68 -69 -121 -122 -131 -132 -140 -141 -148 -149 -155 -156 0
-17 -51 -52 -81 -82 -94 -95 -106 -107 -117 -118 -127 -128 -136 -137 0
-18 -51 -53 -81 -82 -94 -95 -106 -107 -117 -118 -127 -128 -136 -137 0
-19 -51 -54 -81 -82 -94 -95 -106 -107 -117 -118 -127 -128 -136 -137 0
-18 -52 -53 -81 -83 -94 -95 -106 -107 -117 -118 -127 -128 -136 -137 0
-19 -52 -54 -81 -83 -94 -95 -106 -107 -117 -118 -127 -128 -136 -137 0
-19 -53 -54 -81 -84 -94 -95 -106 -107 -117 -118 -127 -128 -136 -137 0
-18 -52 -53 -82 -83 -94 -96 -106 -107 -117 -118 -127 -128 -136 -137 0
-19 -52 -54 -82 -83 -94 -96 -106 -107 -117 -118 -127 -128 -136 -137 0
-19 -53 -54 -82 -84 -94 -96 -106 -107 -117 -118 -127 -128 -136 -137 0
-19 -53 -54 -83 -84 -94 -97 -106 -107 -117 -118 -127 -128 -136 -137 0
-18 -52 -53 -82 -83 -95 -96 -106 -108 -117 -118 -127 -128 -136 -137 0
-19 -52 -54 -82 -83 -95 -96 -106 -108 -117 -118 -127 -128 -136 -137 0
-19 -53 -54 -82 -84 -95 -96 -106 -108 -117 -118 -127 -128 -136 -137 0
-19 -53 -54 -83 -84 -95 -97 -106 -108 -117 -118 -127 -128 -136 -137 0
-19 -53 -54 -83 -84 -96 -97 -106 -109 -117 -118 -127 -128 -136 -137 0
-18 -52 -53 -82 -83 -95 -96 -107 -108 -117 -119 -127 -128 -136 -137 0
-19 -52 -54 -82 -83 -95 -96 -107 -108 -117 -119 -127 -128 -136 -137 0
-19 -53 -54 -82 -84 -95 -96 -107 -108 -117 -119 -127 -128 -136 -137 0
-19 -53 -54 -83 -84 -95 -97 -107 -108 -117 -119 -127 -128 -136 -137 0
-19 -53 -54 -83 -84 -96 -97 -107 -109 -117 -119 -127 -128 -136 -137 0
-19 -53 -54 -83 -84 -96 -97 -108 -109 -117 -120 -127 -128 -136 -137 0
-18 -52 -53 -82 -83 -95 -96 -107 -108 -118 -119 -127 -129 -136 -137 0
-19 -52 -54 -82 -83 -95 -96 -107 -108 -118 -119 -127 -129 -136 -137 0
-19 -53 -54 -82 -84 -95 -96 -107 -108 -118 -119 -127 -129 -136 -137 0
-19 -53 -54 -83 -84 -95 -97 -107 -108 -118 -119 -127 -129 -136 -137 0
-19 -53 -54 -83 -84 -96 -97 -107 -109 -118 -119 -127 -129 -136 -137 0
-19 -53 -54 -83 -84 -96 -97 -108 -109 -118 -120 -127 -129 -136 -137 0
-19 -53 -54 -83 -84 -96 -97 -108 -109 -119 -120 -127 -130 -136 -137 0
-18 -52 -53 -82 -83 -95 -96 -107 -108 -118 -119 -128 -129 -136 -138 0
-19 -52 -54 -82 -83 -95 -96 -107 -108 -118 -119 -128 -129 -136 -138 0
-19 -53 -54 -82 -84 -95 -96 -107 -108 -118 -119 -128 -129 -136 -138 0
-19 -53 -54 -83 -84 -95 -97 -107 -108 -118 -119 -128 -129 -136 -138 0
-19 -53 -54 -83 -84 -96 -97 -107 -109 -118 -119 -128 -129 -136 -138 0
-19 -53 -54 -83 -84 -96 -97 -108 -109 -118 -120 -128 -129 -136 -138 0
-19 -53 -54 -83 -84 -96 -97 -108 -109 -119 -120 -128 -130 -136 -138 0
-19 -53 -54 -83 -84 -96 -97 -108 -109 -119 -120 -129 -130 -136 -139 0
-18 -52 -53 -82 -83 -95 -96 -107 -108 -118 -119 -128 -129 -137 -138 0
-19 -52 -54 -82 -83 -95 -96 -107 -108 -118 -119 -128 -129 -137 -138 0
-19 -53 -54 -82 -84 -95 -96 -107 -108 -118 -119 -128 -129 -137 -138 0
-19 -53 -54 -83 -84 -95 -97 -107 -108 -118 -119 -128 -129 -137 -138 0
-19 -53 -54 -83 -84 -96 -97 -107 -109 -118 -119 -128 -129 -137 -138 0
-19 -53 -54 -83 -84 -96 -97 -108 -109 -118 -120 -128 -129 -137 -138 0
-19 -53 -54 -83 -84 -96 -97 -108 -109 -119 -120 -128 -130 -137 -138 0
-19 -53 -54 -83 -84 -96 -97 -108 -109 -119 -120 -129 -130 -137 -139 0
-19 -53 -54 -83 -84 -96 -97 -108 -109 -119 -120 -129 -130 -138 -139 0
-18 -52 -53 -82 -83 -95 -96 -107 -108 -118 -119 -128 -129 -146 -147 0
-19 -52 -54 -82 -83 -95 -96 -107 -108 -118 -119 -128 -129 -146 -147 0
-19 -53 -54 -82 -84 -95 -96 -107 -108 -118 -119 -128 -129 -146 -147 0
-19 -53 -54 -83 -84 -95 -97 -107 -108 -118 -119 -128 -129 -146 -147 0
-19 -53 -54 -83 -84 -96 -97 -107 -109 -118 -119 -128 -129 -146 -147 0
-19 -53 -54 -83 -84 -96 -97 -108 -109 -118 -120 -128 -129 -146 -147 0
-19 -53 -54 -83 -84 -96 -97 -108 -109 -119 -120 -128 -130 -146 -147 0
-19 -53 -54 -83 -84 -96 -97 -108 -109 -119 -120 -129 -130 -146 -148 0
-19 -53 -54 -83 -84 -96 -97 -108 -109 -119 -120 -129 -130 -147 -148 0
-19 -53 -54 -83 -84 -96 -97 -108 -109 -119 -120 -129 -130 -155 -156 0
-18 -52 -53 -82 -83 -95 -96 -107 -108 -118 -119 -138 -139 -146 -147 0
-19 -52 -54 -82 -83 -95 -96 -107 -108 -118 -119 -138 -139 -146 -147 0
-19 -53 -54 -82 -84 -95 -96 -107 -108 -118 -119 -138 -139 -146 -147 0
-19 -53 -54 -83 -84 -95 -97 -107 -108 -118 -119 -138 -139 -146 -147 0
-19 -53 -54 -83 -84 -96 -97 -107 -109 -118 -119 -138 -139 -146 -147 0
-19 -53 -54 -83 -84 -96 -97 -108 -109 -118 -120 -138 -139 -146 -147 0
-19 -53 -54 -83 -84 -96 -97 -108 -109 -119 -120 -138 -140 -146 -147 0
-19 -53 -54 -83 -84 -96 -97 -108 -109 -119 -120 -139 -140 -146 -148 0
-19 -53 -54 -83 -84 -96 -97 -108 -109 -119 -120 -139 -140 -147 -148 0
-19 -53 -54 -83 -84 -96 -97 -108 -109 -119 -120 -139 -140 -155 -156 0
-19 -53 -54 -83 -84 -96 -97 -108 -109 -119 -120 -148 -149 -155 -156 0
-18 -52 -53 -82 -83 -95 -96 -107 -108 -129 -130 -138 -139 -146 -147 0
-19 -52 -54 -82 -83 -95 -96 -107 -108 -129 -130 -138 -139 -146 -147 0
-19 -53 -54 -82 -84 -95 -96 -107 -108 -129 -130 -138 -139 -146 -147 0
-19 -53 -54 -83 -84 -95 -97 -107 -108 -129 -130 -138 -139 -146 -147 0
-19 -53 -54 -83 -84 -96 -97 -107 -109 -129 -130 -138 -139 -146 -147 0
-19 -53 -54 -83 -84 -96 -97 -108 -109 -129 -131 -138 -139 -146 -147 0
-19 -53 -54 -83 -84 -96 -97 -108 -109 -130 -131 -138 -140 -146 -147 0
-19 -53 -54 -83 -84 -96 -97 -108 -109 -130 -131 -139 -140 -146 -148 0
-19 -53 -54 -83 -84 -96 -97 -108 -109 -130 -131 -139 -140 -147 -148 0
-19 -53 -54 -83 -84 -96 -97 -108 -109 -130 -131 -139 -140 -155 -156 0
-19 -53 -54 -83 -84 -96 -97 -108 -109 -130 -131 -148 -149 -155 -156 0
-19 -53 -54 -83 -84 -96 -97 -108 -109 -140 -141 -148 -149 -155 -156 0
-18 -52 -53 -82 -83 -95 -96 -119 -120 -129 -130 -138 -139 -146 -147 0
-19 -52 -54 -82 -83 -95 -96 -119 -120 -129 -130 -138 -139 -146 -147 0
-19 -53 -54 -82 -84 -95 -96 -119 -120 -129 -130 -138 -139 -146 -147 0
-19 -53 -54 -83 -84 -95 -97 -119 -120 -129 -130 -138 -139 -146 -147 0
-19 -53 -54 -83 -84 -96 -97 -119 -121 -129 -130 -138 -139 -146 -147 0
-19 -53 -54 -83 -84 -96 -97 -120 -121 -129 -131 -138 -139 -146 -147 0
-19 -53 -54 -83 -84 -96 -97 -120 -121 -130 -131 -138 -140 -146 -147 0
-19 -53 -54 -83 -84 -96 -97 -120 -121 -130 -131 -139 -140 -146 -148 0
-19 -53 -54 -83 -84 -96 -97 -120 -121 -130 -131 -139 -140 -147 -148 0
-19 -53 -54 -83 -84 -96 -97 -120 -121 -130 -131 -139 -140 -155 -156 0
-19 -53 -54 -83 -84 -96 -97 -120 -121 -130 -131 -148 -149 -155 -156 0
-19 -53 -54 -83 -84 -96 -97 -120 -121 -140 -141 -148 -149 -155 -156 0
-19 -53 -54 -83 -84 -96 -97 -131 -132 -140 -141 -148 -149 -155 -156 0
-18 -52 -53 -82 -83 -108 -109 -119 -120 -129 -130 -138 -139 -146 -147 0
-19 -52 -54 -82 -83 -108 -109 -119 -120 -129 -130 -138 -139 -146 -147 0
-19 -53 -54 -82 -84 -108 -109 -119 -120 -129 -130 -138 -139 -146 -147 0
-19 -53 -54 -83 -84 -108 -110 -119 -120 -129 -130 -138 -139 -146 -147 0
-19 -53 -54 -83 -84 -109 -110 -119 -121 -129 -130 -138 -139 -146 -147 0
-19 -53 -54 -83 -84 -109 -110 -120 -121 -129 -131 -138 -139 -146 -147 0
-19 -53 -54 -83 -84 -109 -110 -120 -121 -130 -131 -138 -140 -146 -147 0
-19 -53 -54 -83 -84 -109 -110 -120 -121 -130 -131 -139 -140 -146 -148 0
-19 -53 -54 -83 -84 -109 -110 -120 -121 -130 -131 -139 -140 -147 -148 0
-19 -53 -54 -83 -84 -109 -110 -120 -121 -130 -131 -139 -140 -155 -156 0
-19 -53 -54 -83 -84 -109 -110 -120 -121 -130 -131 -148 -149 -155 -156 0
-19 -53 -54 -83 -84 -109 -110 -120 -121 -140 -141 -148 -149 -155 -156 0
-19 -53 -54 -83 -84 -109 -110 -131 -132 -140 -141 -148 -149 -155 -156 0
-19 -53 -54 -83 -84 -121 -122 -131 -132 -140 -141 -148 -149 -155 -156 0
-18 -52 -53 -96 -97 -108 -109 -119 -120 -129 -130 -138 -139 -146 -147 0
-19 -52 -54 -96 -97 -108 -109 -119 -120 -129 -130 -138 -139 -146 -147 0
-19 -53 -54 -96 -98 -108 -109 -119 -120 -129 -130 -138 -139 -146 -147 0
-19 -53 -54 -97 -98 -108 -110 -119 -120 -129 -130 -138 -139 -146 -147 0
-19 -53 -54 -97 -98 -109 -110 -119 -121 -129 -130 -138 -139 -146 -147 0
-19 -53 -54 -97 -98 -109 -110 -120 -121 -129 -131 -138 -139 -146 -147 0
-19 -53 -54 -97 -98 -109 -110 -120 -121 -130 -131 -138 -140 -146 -147 0
-19 -53 -54 -97 -98 -109 -110 -120 -121 -130 -131 -139 -140 -146 -148 0
-19 -53 -54 -97 -98 -109 -110 -120 -121 -130 -131 -139 -140 -147 -148 0
-19 -53 -54 -97 -98 -109 -110 -120 -121 -130 -131 -139 -140 -155 -156 0
-19 -53 -54 -97 -98 -109 -110 -120 -121 -130 -131 -148 -149 -155 -156 0
-19 -53 -54 -97 -98 -109 -110 -120 -121 -140 -141 -148 -149 -155 -156 0
-19 -53 -54 -97 -98 -109 -110 -131 -132 -140 -141 -148 -149 -155 -156 0
-19 -53 -54 -97 -98 -121 -122 -131 -132 -140 -141 -148 -149 -155 -156 0
-19 -53 -54 -110 -111 -121 -122 -131 -132 -140 -141 -148 -149 -155 -156 0
-17 -67 -68 -81 -82 -94 -95 -106 -107 -117 -118 -127 -128 -136 -137 0
-18 -67 -69 -81 -82 -94 -95 -106 -107 -117 -118 -127 -128 -136 -137 0
-19 -67 -70 -81 -82 -94 -95 -106 -107 -117 -118 -127 -128 -136 -137 0
-18 -68 -69 -81 -83 -94 -95 -106 -107 -117 -118 -127 -128 -136 -137 0
-19 -68 -70 -81 -83 -94 -95 -106 -107 -117 -118 -127 -128 -136 -137 0
-19 -69 -70 -81 -84 -94 -95 -106 -107 -117 -118 -127 -128 -136 -137 0
-18 -68 -69 -82 -83 -94 -96 -106 -107 -117 -118 -127 -128 -136 -137 0
-19 -68 -70 -82 -83 -94 -96 -106 -107 -117 -118 -127 -128 -136 -137 0
-19 -69 -70 -82 -84 -94 -96 -106 -107 -117 -118 -127 -128 -136 -137 0
-19 -69 -70 -83 -84 -94 -97 -106 -107 -117 -118 -127 -128 -136 -137 0
-18 -68 -69 -82 -83 -95 -96 -106 -108 -117 -118 -127 -128 -136 -137 0
-19 -68 -70 -82 -83 -95 -96 -106 -108 -117 -118 -127 -128 -136 -137 0
-19 -69 -70 -82 -84 -95 -96 -106 -108 -117 -118 -127 -128 -136 -137 0
-19 -69 -70 -83 -84 -95 -97 -106 -108 -117 -118 -127 -128 -136 -137 0
-19 -69 -70 -83 -84 -96 -97 -106 -109 -117 -118 -127 -128 -136 -137 0
-18 -68 -69 -82 -83 -95 -96 -107 -108 -117 -119 -127 -128 -136 -137 0
-19 -68 -70 -82 -83 -95 -96 -107 -108 -117 -119 -127 -128 -136 -137 0
-19 -69 -70 -82 -84 -95 -96 -107 -108 -117 -119 -127 -128 -136 -137 0
-19 -69 -70 -83 -84 -95 -97 -107 -108 -117 -119 -127 -128 -136 -137 0
-19 -69 -70 -83 -84 -96 -97 -107 -109 -117 -119 -127 -128 -136 -137 0
-19 -69 -70 -83 -84 -96 -97 -108 -109 -117 -120 -127 -128 -136 -137 0
-18 -68 -69 -82 -83 -95 -96 -107 -108 -118 -119 -127 -129 -136 -137 0
-19 -68 -70 -82 -83 -95 -96 -107 -108 -118 -119 -127 -129 -136 -137 0
-19 -69 -70 -82 -84 -95 -96 -107 -108 -118 -119 -127 -129 -136 -137 0
-19 -69 -70 -83 -84 -95 -97 -107 -108 -118 -119 -127 -129 -136 -137 0
-19 -69 -70 -83 -84 -96 -97 -107 -109 -118 -119 -127 -129 -136 -137 0
-19 -69 -70 -83 -84 -96 -97 -108 -109 -118 -120 -127 -129 -136 -137 0
-19 -69 -70 -83 -84 -96 -97 -108 -109 -119 -120 -127 -130 -136 -137 0
-18 -68 -69 -82 -83 -95 -96 -107 -108 -118 -119 -128 -129 -136 -138 0
-19 -68 -70 -82 -83 -95 -96 -107 -108 -118 -119 -128 -129 -136 -138 0
-19 -69 -70 -82 -84 -95 -96 -107 -108 -118 -119 -128 -129 -136 -138 0
-19 -69 -70 -83 -84 -95 -97 -107 -108 -118 -119 -128 -129 -136 -138 0
-19 -69 -70 -83 -84 -96 -97 -107 -109 -118 -119 -128 -129 -136 -138 0
-19 -69 -70 -83 -84 -96 -97 -108 -109 -118 -120 -128 -129 -136 -138 0
-19 -69 -70 -83 -84 -96 -97 -108 -109 -119 -120 -128 -130 -136 -138 0
-19 -69 -70 -83 -84 -96 -97 -108 -109 -119 -120 -129 -130 -136 -139 0
-18 -68 -69 -82 -83 -95 -96 -107 -108 -118 -119 -128 -129 -137 -138 0
-19 -68 -70 -82 -83 -95 -96 -107 -108 -118 -119 -128 -129 -137 -138 0
-19 -69 -70 -82 -84 -95 -96 -107 -108 -118 -119 -128 -129 -137 -138 0
-19 -69 -70 -83 -84 -95 -97 -107 -108 -118 -119 -128 -129 -137 -138 0
-19 -69 -70 -83 -84 -96 -97 -107 -109 -118 -119 -128 -129 -137 -138 0
-19 -69 -70 -83 -84 -96 -97 -108 -109 -118 -120 -128 -129 -137 -138 0
-19 -69 -70 -83 -84 -96 -97 -108 -109 -119 -120 -128 -130 -137 -138 0
-19 -69 -70 -83 -84 -96 -97 -108 -109 -119 -120 -129 -130 -137 -139 0
-19 -69 -70 -83 -84 -96 -97 -108 -109 -119 -120 -129 -130 -138 -139 0
-18 -68 -69 -82 -83 -95 -96 -107 -108 -118 -119 -128 -129 -146 -147 0
-19 -68 -70 -82 -83 -95 -96 -107 -108 -118 -119 -128 -129 -146 -147 0
-19 -69 -70 -82 -84 -95 -96 -107 -108 -118 -119 -128 -129 -146 -147 0
-19 -69 -70 -83 -84 -95 -97 -107 -108 -118 -119 -128 -129 -146 -147 0
-19 -69 -70 -83 -84 -96 -97 -107 -109 -118 -119 -128 -129 -146 -147 0
-19 -69 -70 -83 -84 -96 -97 -108 -109 -118 -120 -128 -129 -146 -147 0
-19 -69 -70 -83 -84 -96 -97 -108 -109 -119 -120 -128 -130 -146 -147 0
-19 -69 -70 -83 -84 -96 -97 -108 -109 -119 -120 -129 -130 -146 -148 0
-19 -69 -70 -83 -84 -96 -97 -108 -109 -119 -120 -129 -130 -147 -148 0
-19 -69 -70 -83 -84 -96 -97 -108 -109 -119 -120 -129 -130 -155 -156 0
-18 -68 -69 -82 -83 -95 -96 -107 -108 -118 -119 -138 -139 -146 -147 0
-19 -68 -70 -82 -83 -95 -96 -107 -108 -118 -119 -138 -139 -146 -147 0
-19 -69 -70 -82 -84 -95 -96 -107 -108 -118 -119 -138 -139 -146 -147 0
-19 -69 -70 -83 -84 -95 -97 -107 -108 -118 -119 -138 -139 -146 -147 0
-19 -69 -70 -83 -84 -96 -97 -107 -109 -118 -119 -138 -139 -146 -147 0
-19 -69 -70 -83 -84 -96 -97 -108 -109 -118 -120 -138 -139 -146 -147 0
-19 -69 -70 -83 -84 -96 -97 -108 -109 -119 -120 -138 -140 -146 -147 0
-19 -69 -70 -83 -84 -96 -97 -108 -109 -119 -120 -139 -140 -146 -148 0
-19 -69 -70 -83 -84 -96 -97 -108 -109 -119 -120 -139 -140 -147 -148 0
-19 -69 -70 -83 -84 -96 -97 -108 -109 -119 -120 -139 -140 -155 -156 0
-19 -69 -70 -83 -84 -96 -97 -108 -109 -119 -120 -148 -149 -155 -156 0
-18 -68 -69 -82 -83 -95 -96 -107 -108 -129 -130 -138 -139 -146 -147 0
-19 -68 -70 -82 -83 -95 -96 -107 -108 -129 -130 -138 -139 -146 -147 0
-19 -69 -70 -82 -84 -95 -96 -107 -108 -129 -130 -138 -139 -146 -147 0
-19 -69 -70 -83 -84 -95 -97 -107 -108 -129 -130 -138 -139 -146 -147 0
-19 -69 -70 -83 -84 -96 -97 -107 -109 -129 -130 -138 -139 -146 -147 0
-19 -69 -70 -83 -84 -96 -97 -108 -109 -129 -131 -138 -139 -146 -147 0
-19 -69 -70 -83 -84 -96 -97 -108 -109 -130 -131 -138 -140 -146 -147 0
-19 -69 -70 -83 -84 -96 -97 -108 -109 -130 -131 -139 -140 -146 -148 0
-19 -69 -70 -83 -84 -96 -97 -108 -109 -130 -131 -139 -140 -147 -148 0
-19 -69 -70 -83 -84 -96 -97 -108 -109 -130 -131 -139 -140 -155 -156 0
-19 -69 -70 -83 -84 -96 -97 -108 -109 -130 -131 -148 -149 -155 -156 0
-19 -69 -70 -83 -84 -96 -97 -108 -109 -140 -141 -148 -149 -155 -156 0
-18 -68 -69 -82 -83 -95 -96 -119 -120 -129 -130 -138 -139 -146 -147 0
-19 -68 -70 -82 -83 -95 -96 -119 -120 -129 -130 -138 -139 -146 -147 0
-19 -69 -70 -82 -84 -95 -96 -119 -120 -129 -130 -138 -139 -146 -147 0
-19 -69 -70 -83 -84 -95 -97 -119 -120 -129 -130 -138 -139 -146 -147 0
-19 -69 -70 -83 -84 -96 -97 -119 -121 -129 -130 -138 -139 -146 -147 0
-19 -69 -70 -83 -84 -96 -97 -120 -121 -129 -131 -138 -139 -146 -147 0
-19 -69 -70 -83 -84 -96 -97 -120 -121 -130 -131 -138 -140 -146 -147 0
-19 -69 -70 -83 -84 -96 -97 -120 -121 -130 -131 -139 -140 -146 -148 0
-19 -69 -70 -83 -84 -96 -97 -120 -121 -130 -131 -139 -140 -147 -148 0
-19 -69 -70 -83 -84 -96 -97 -120 -121 -130 -131 -139 -140 -155 -156 0
-19 -69 -70 -83 -84 -96 -97 -120 -121 -130 -131 -148 -149 -155 -156 0
-19 -69 -70 -83 -84 -96 -97 -120 -121 -140 -141 -148 -149 -155 -156 0
-19 -69 -70 -83 -84 -96 -97 -131 -132 -140 -141 -148 -149 -155 -156 0
-18 -68 -69 -82 -83 -108 -109 -119 -120 -129 -130 -138 -139 -146 -147 0
-19 -68 -70 -82 -83 -108 -109 -119 -120 -129 -130 -138 -139 -146 -147 0
-19 -69 -70 -82 -84 -108 -109 -119 -120 -129 -130 -138 -139 -146 -147 0
-19 -69 -70 -83 -84 -108 -110 -119 -120 -129 -130 -138 -139 -146 -147 0
-19 -69 -70 -83 -84 -109 -110 -119 -121 -129 -130 -138 -139 -146 -147 0
-19 -69 -70 -83 -84 -109 -110 -120 -121 -129 -131 -138 -139 -146 -147 0
-19 -69 -70 -83 -84 -109 -110 -120 -121 -130 -131 -138 -140 -146 -147 0
-19 -69 -70 -83 -84 -109 -110 -120 -121 -130 -131 -139 -140 -146 -148 0
-19 -69 -70 -83 -84 -109 -110 -120 -121 -130 -131 -139 -140 -147 -148 0
-19 -69 -70 -83 -84 -109 -110 -120 -121 -130 -131 -139 -140 -155 -156 0
-19 -69 -70 -83 -84 -109 -110 -120 -121 -130 -131 -148 -149 -155 -156 0
-19 -69 -70 -83 -84 -109 -110 -120 -121 -140 -141 -148 -149 -155 -156 0
-19 -69 -70 -83 -84 -109 -110 -131 -132 -140 -141 -148 -149 -155 -156 0
-19 -69 -70 -83 -84 -121 -122 -131 -132 -140 -141 -148 -149 -155 -156 0
-18 -68 -69 -96 -97 -108 -109 -119 -120 -129 -130 -138 -139 -146 -147 0
-19 -68 -70 -96 -97 -108 -109 -119 -120 -129 -130 -138 -139 -146 -147 0
-19 -69 -70 -96 -98 -108 -109 -119 -120 -129 -130 -138 -139 -146 -147 0
-19 -69 -70 -97 -98 -108 -110 -119 -120 -129 -130 -138 -139 -146 -147 0
-19 -69 -70 -97 -98 -109 -110 -119 -121 -129 -130 -138 -139 -146 -147 0
-19 -69 -70 -97 -98 -109 -110 -120 -121 -129 -131 -138 -139 -146 -147 0
-19 -69 -70 -97 -98 -109 -110 -120 -121 -130 -131 -138 -140 -146 -147 0
-19 -69 -70 -97 -98 -109 -110 -120 -121 -130 -131 -139 -140 -146 -148 0
-19 -69 -70 -97 -98 -109 -110 -120 -121 -130 -131 -139 -140 -147 -148 0
-19 -69 -70 -97 -98 -109 -110 -120 -121 -130 -131 -139 -140 -155 -156 0
-19 -69 -70 -97 -98 -109 -110 -120 -121 -130 -131 -148 -149 -155 -156 0
-19 -69 -70 -97 -98 -109 -110 -120 -121 -140 -141 -148 -149 -155 -156 0
-19 -69 -70 -97 -98 -109 -110 -131 -132 -140 -141 -148 -149 -155 -156 0
-19 -69 -70 -97 -98 -121 -122 -131 -132 -140 -141 -148 -149 -155 -156 0
-19 -69 -70 -110 -111 -121 -122 -131 -132 -140 -141 -148 -149 -155 -156 0
-18 -83 -84 -96 -97 -108 -109 -119 -120 -129 -130 -138 -139 -146 -147 0
-19 -83 -85 -96 -97 -108 -109 -119 -120 -129 -130 -138 -139 -146 -147 0
-19 -84 -85 -96 -98 -108 -109 -119 -120 -129 -130 -138 -139 -146 -147 0
-19 -84 -85 -97 -98 -108 -110 -119 -120 -129 -130 -138 -139 -146 -147 0
-19 -84 -85 -97 -98 -109 -110 -119 -121 -129 -130 -138 -139 -146 -147 0
-19 -84 -85 -97 -98 -109 -110 -120 -121 -129 -131 -138 -139 -146 -147 0
-19 -84 -85 -97 -98 -109 -110 -120 -121 -130 -131 -138 -140 -146 -147 0
-19 -84 -85 -97 -98 -109 -110 -120 -121 -130 -131 -139 -140 -146 -148 0
-19 -84 -85 -97 -98 -109 -110 -120 -121 -130 -131 -139 -140 -147 -148 0
-19 -84 -85 -97 -98 -109 -110 -120 -121 -130 -131 -139 -140 -155 -156 0
-19 -84 -85 -97 -98 -109 -110 -120 -121 -130 -131 -148 -149 -155 -156 0
-19 -84 -85 -97 -98 -109 -110 -120 -121 -140 -141 -148 -149 -155 -156 0
-19 -84 -85 -97 -98 -109 -110 -131 -132 -140 -141 -148 -149 -155 -156 0
-19 -84 -85 -97 -98 -121 -122 -131 -132 -140 -141 -148 -149 -155 -156 0
-19 -84 -85 -110 -111 -121 -122 -131 -132 -140 -141 -148 -149 -155 -156 0
-19 -98 -99 -110 -111 -121 -122 -131 -132 -140 -141 -148 -149 -155 -156 0
-34 -50 -51 -65 -66 -79 -80 -92 -93 -104 -105 -115 -116 -125 -126 0
-35 -50 -52 -65 -66 -79 -80 -92 -93 -104 -105 -115 -116 -125 -126 0
-36 -50 -53 -65 -66 -79 -80 -92 -93 -104 -105 -115 -116 -125 -126 0
-37 -50 -54 -65 -66 -79 -80 -92 -93 -104 -105 -115 -116 -125 -126 0
-35 -51 -52 -65 -67 -79 -80 -92 -93 -104 -105 -115 -116 -125 -126 0
-36 -51 -53 -65 -67 -79 -80 -92 -93 -104 -105 -115 -116 -125 -126 0
-37 -51 -54 -65 -67 -79 -80 -92 -93 -104 -105 -115 -116 -125 -126 0
-36 -52 -53 -65 -68 -79 -80 -92 -93 -104 -105 -115 -116 -125 -126 0
-37 -52 -54 -65 -68 -79 -80 -92 -93 -104 -105 -115 -116 -125 -126 0
-37 -53 -54 -65 -69 -79 -80 -92 -93 -104 -105 -115 -116 -125 -126 0
-35 -51 -52 -66 -67 -79 -81 -92 -93 -104 -105 -115 -116 -125 -126 0
-36 -51 -53 -66 -67 -79 -81 -92 -93 -104 -105 -115 -116 -125 -126 0
-37 -51 -54 -66 -67 -79 -81 -92 -93 -104 -105 -115 -116 -125 -126 0
-36 -52 -53 -66 -68 -79 -81 -92 -93 -104 -105 -115 -116 -125 -126 0
-37 -52 -54 -66 -68 -79 -81 -92 -93 -104 -105 -115 -116 -125 -126 0
-37 -53 -54 -66 -69 -79 -81 -92 -93 -104 -105 -115 -116 -125 -126 0
-36 -52 -53 -67 -68 -79 -82 -92 -93 -104 -105 -115 -116 -125 -126 0
-37 -52 -54 -67 -68 -79 -82 -92 -93 -104 -105 -115 -116 -125 -126 0
-37 -53 -54 -67 -69 -79 -82 -92 -93 -104 -105 -115 -116 -125 -126 0
-37 -53 -54 -68 -69 -79 -83 -92 -93 -104 -105 -115 -116 -125 -126 0
-35 -51 -52 -66 -67 -80 -81 -92 -94 -104 -105 -115 -116 -125 -126 0
-36 -51 -53 -66 -67 -80 -81 -92 -94 -104 -105 -115 -116 -125 -126 0
-37 -51 -54 -66 -67 -80 -81 -92 -94 -104 -105 -115 -116 -125 -126 0
-36 -52 -53 -66 -68 -80 -81 -92 -94 -104 -105 -115 -116 -125 -126 0
-37 -52 -54 -66 -68 -80 -81 -92 -94 -104 -105 -115 -116 -125 -126 0
-37 -53 -54 -66 -69 -80 -81 -92 -94 -104 -105 -115 -116 -125 -126 0
-36 -52 -53 -67 -68 -80 -82 -92 -94 -104 -105 -115 -116 -125 -126 0
-37 -52 -54 -67 -68 -80 -82 -92 -94 -104 -105 -115 -116 -125 -126 0
-37 -53 -54 -67 -69 -80 -82 -92 -94 -104 -105 -115 -116 -125 -126 0
-37 -53 -54 -68 -69 -80 -83 -92 -94 -104 -105 -115 -116 -125 -126 0
-36 -52 -53 -67 -68 -81 -82 -92 -95 -104 -105 -115 -116 -125 -126 0
-37 -52 -54 -67 -68 -81 -82 -92 -95 -104 -105 -115 -116 -125 -126 0
-37 -53 -54 -67 -69 -81 -82 -92 -95 -104 -105 -115 -116 -125 -126 0
-37 -53 -54 -68 -69 -81 -83 -92 -95 -104 -105 -115 -116 -125 -126 0
-37 -53 -54 -68 -69 -82 -83 -92 -96 -104 -105 -115 -116 -125 -126 0
-35 -51 -52 -66 -67 -80 -81 -93 -94 -104 -106 -115 -116 -125 -126 0
-36 -51 -53 -66 -67 -80 -81 -93 -94 -104 -106 -115 -116 -125 -126 0
-37 -51 -54 -66 -67 -80 -81 -93 -94 -104 -106 -115 -116 -125 -126 0
-36 -52 -53 -66 -68 -80 -81 -93 -94 -104 -106 -115 -116 -125 -126 0
-37 -52 -54 -66 -68 -80 -81 -93 -94 -104 -106 -115 -116 -125 -126 0
-37 -53 -54 -66 -69 -80 -81 -93 -94 -104 -106 -115 -116 -125 -126 0
-36 -52 -53 -67 -68 -80 -82 -93 -94 -104 -106 -115 -116 -125 -126 0
-37 -52 -54 -67 -68 -80 -82 -93 -94 -104 -106 -115 -116 -125 -126 0
-37 -53 -54 -67 -69 -80 -82 -93 -94 -104 -106 -115 -116 -125 -126 0
-37 -53 -54 -68 -69 -80 -83 -93 -94 -104 -106 -115 -116 -125 -126 0
-36 -52 -53 -67 -68 -81 -82 -93 -95 -104 -106 -115 -116 -125 -126 0
-37 -52 -54 -67 -68 -81 -82 -93 -95 -104 -106 -115 -116 -125 -126 0
-37 -53 -54 -67 -69 -81 -82 -93 -95 -104 -106 -115 -116 -125 -126 0
-37 -53 -54 -68 -69 -81 -83 -93 -95 -104 -106 -115 -116 -125 -126 0
-37 -53 -54 -68 -69 -82 -83 -93 -96 -104 -106 -115 -116 -125 -126 0
-36 -52 -53 -67 -68 -81 -82 -94 -95 -104 -107 -115 -116 -125 -126 0
-37 -52 -54 -67 -68 -81 -82 -94 -95 -104 -107 -115 -116 -125 -126 0
-37 -53 -54 -67 -69 -81 -82 -94 -95 -104 -107 -115 -116 -125 -126 0
-37 -53 -54 -68 -69 -81 -83 -94 -95 -104 -107 -115 -116 -125 -126 0
-37 -53 -54 -68 -69 -82 -83 -94 -96 -104 -107 -115 -116 -125 -126 0
-37 -53 -54 -68 -69 -82 -83 -95 -96 -104 -108 -115 -116 -125 -126 0
-35 -51 -52 -66 -67 -80 -81 -93 -94 -105 -106 -115 -117 -125 -126 0
-36 -51 -53 -66 -67 -80 -81 -93 -94 -105 -106 -115 -117 -125 -126 0
-37 -51 -54 -66 -67 -80 -81 -93 -94 -105 -106 -115 -117 -125 -126 0
-36 -52 -53 -66 -68 -80 -81 -93 -94 -105 -106 -115 -117 -125 -126 0
-37 -52 -54 -66 -68 -80 -81 -93 -94 -105 -106 -115 -117 -125 -126 0
-37 -53 -54 -66 -69 -80 -81 -93 -94 -105 -106 -115 -117 -125 -126 0
-36 -52 -53 -67 -68 -80 -82 -93 -94 -105 -106 -115 -117 -125 -126 0
-37 -52 -54 -67 -68 -80 -82 -93 -94 -105 -106 -115 -117 -125 -126 0
-37 -53 -54 -67 -69 -80 -82 -93 -94 -105 -106 -115 -117 -125 -126 0
-37 -53 -54 -68 -69 -80 -83 -93 -94 -105 -106 -115 -117 -125 -126 0
-36 -52 -53 -67 -68 -81 -82 -93 -95 -105 -106 -115 -117 -125 -126 0
-37 -52 -54 -67 -68 -81 -82 -93 -95 -105 -106 -115 -117 -125 -126 0
-37 -53 -54 -67 -69 -81 -82 -93 -95 -105 -106 -115 -117 -125 -126 0
-37 -53 -54 -68 -69 -81 -83 -93 -95 -105 -106 -115 -117 -125 -126 0
-37 -53 -54 -68 -69 -82 -83 -93 -96 -105 -106 -115 -117 -125 -126 0
-36 -52 -53 -67 -68 -81 -82 -94 -95 -105 -107 -115 -117 -125 -126 0
-37 -52 -54 -67 -68 -81 -82 -94 -95 -105 -107 -115 -117 -125 -126 0
-37 -53 -54 -67 -69 -81 -82 -94 -95 -105 -107 -115 -117 -125 -126 0
-37 -53 -54 -68 -69 -81 -83 -94 -95 -105 -107 -115 -117 -125 -126 0
-37 -53 -54 -68 -69 -82 -83 -94 -96 -105 -107 -115 -117 -125 -126 0
-37 -53 -54 -68 -69 -82 -83 -95 -96 -105 -108 -115 -117 -125 -126 0
-36 -52 -53 -67 -68 -81 -82 -94 -95 -106 -107 -115 -118 -125 -126 0
-37 -52 -54 -67 -68 -81 -82 -94 -95 -106 -107 -115 -118 -125 -126 0
-37 -53 -54 -67 -69 -81 -82 -94 -95 -106 -107 -115 -118 -125 -126 0
-37 -53 -54 -68 -69 -81 -83 -94 -95 -106 -107 -115 -118 -125 -126 0
-37 -53 -54 -68 -69 -82 -83 -94 -96 -106 -107 -115 -118 -125 -126 0
-37 -53 -54 -68 -69 -82 -83 -95 -96 -106 -108 -115 -118 -125 -126 0
-37 -53 -54 -68 -69 -82 -83 -95 -96 -107 -108 -115 -119 -125 -126 0
-35 -51 -52 -66 -67 -80 -81 -93 -94 -105 -106 -116 -117 -125 -127 0
-36 -51 -53 -66 -67 -80 -81 -93 -94 -105 -106 -116 -117 -125 -127 0
-37 -51 -54 -66 -67 -80 -81 -93 -94 -105 -106 -116 -117 -125 -127 0
-36 -52 -53 -66 -68 -80 -81 -93 -94 -105 -106 -116 -117 -125 -127 0
-37 -52 -54 -66 -68 -80 -81 -93 -94 -105 -106 -116 -117 -125 -127 0
-37 -53 -54 -66 -69 -80 -81 -93 -94 -105 -106 -116 -117 -125 -127 0
-36 -52 -53 -67 -68 -80 -82 -93 -94 -105 -106 -116 -117 -125 -127 0
-37 -52 -54 -67 -68 -80 -82 -93 -94 -105 -106 -116 -117 -125 -127 0
-37 -53 -54 -67 -69 -80 -82 -93 -94 -105 -106 -116 -117 -125 -127 0
-37 -53 -54 -68 -69 -80 -83 -93 -94 -105 -106 -116 -117 -125 -127 0
-36 -52 -53 -67 -68 -81 -82 -93 -95 -105 -106 -116 -117 -125 -127 0
-37 -52 -54 -67 -68 -81 -82 -93 -95 -105 -106 -116 -117 -125 -127 0
-37 -53 -54 -67 -69 -81 -82 -93 -95 -105 -106 -116 -117 -125 -127 0
-37 -53 -54 -68 -69 -81 -83 -93 -95 -105 -106 -116 -117 -125 -127 0
-37 -53 -54 -68 -69 -82 -83 -93 -96 -105 -106 -116 -117 -125 -127 0
-36 -52 -53 -67 -68 -81 -82 -94 -95 -105 -107 -116 -117 -125 -127 0
-37 -52 -54 -67 -68 -81 -82 -94 -95 -105 -107 -116 -117 -125 -127 0
-37 -53 -54 -67 -69 -81 -82 -94 -95 -105 -107 -116 -117 -125 -127 0
-37 -53 -54 -68 -69 -81 -83 -94 -95 -105 -107 -116 -117 -125 -127 0
-37 -53 -54 -68 -69 -82 -83 -94 -96 -105 -107 -116 -117 -125 -127 0
-37 -53 -54 -68 -69 -82 -83 -95 -96 -105 -108 -116 -117 -125 -127 0
-36 -52 -53 -67 -68 -81 -82 -94 -95 -106 -107 -116 -118 -125 -127 0
-37 -52 -54 -67 -68 -81 -82 -94 -95 -106 -107 -116 -118 -125 -127 0
-37 -53 -54 -67 -69 -81 -82 -94 -95 -106 -107 -116 -118 -125 -127 0
-37 -53 -54 -68 -69 -81 -83 -94 -95 -106 -107 -116 -118 -125 -127 0
-37 -53 -54 -68 -69 -82 -83 -94 -96 -106 -107 -116 -118 -125 -127 0
-37 -53 -54 -68 -69 -82 -83 -95 -96 -106 -108 -116 -118 -125 -127 0
-37 -53 -54 -68 -69 -82 -83 -95 -96 -107 -108 -116 -119 -125 -127 0
-36 -52 -53 -67 -68 -81 -82 -94 -95 -106 -107 -117 -118 -125 -128 0
-37 -52 -54 -67 -68 -81 -82 -94 -95 -106 -107 -117 -118 -125 -128 0
-37 -53 -54 -67 -69 -81 -82 -94 -95 -106 -107 -117 -118 -125 -128 0
-37 -53 -54 -68 -69 -81 -83 -94 -95 -106 -107 -117 -118 -125 -128 0
-37 -53 -54 -68 -69 -82 -83 -94 -96 -106 -107 -117 -118 -125 -128 0
-37 -53 -54 -68 -69 -82 -83 -95 -96 -106 -108 -117 -118 -125 -128 0
-37 -53 -54 -68 -69 -82 -83 -95 -96 -107 -108 -117 -119 -125 -128 0
-37 -53 -54 -68 -69 -82 -83 -95 -96 -107 -108 -118 -119 -125 -129 0
-35 -51 -52 -66 -67 -80 -81 -93 -94 -105 -106 -116 -117 -126 -127 0
-36 -51 -53 -66 -67 -80 -81 -93 -94 -105 -106 -116 -117 -126 -127 0
-37 -51 -54 -66 -67 -80 -81 -93 -94 -105 -106 -116 -117 -126 -127 0
-36 -52 -53 -66 -68 -80 -81 -93 -94 -105 -106 -116 -117 -126 -127 0
-37 -52 -54 -66 -68 -80 -81 -93 -94 -105 -106 -116 -117 -126 -127 0
-37 -53 -54 -66 -69 -80 -81 -93 -94 -105 -106 -116 -117 -126 -127 0
-36 -52 -53 -67 -68 -80 -82 -93 -94 -105 -106 -116 -117 -126 -127 0
-37 -52 -54 -67 -68 -80 -82 -93 -94 -105 -106 -116 -117 -126 -127 0
-37 -53 -54 -67 -69 -80 -82 -93 -94 -105 -106 -116 -117 -126 -127 0
-37 -53 -54 -68 -69 -80 -83 -93 -94 -105 -106 -116 -117 -126 -127 0
-36 -52 -53 -67 -68 -81 -82 -93 -95 -105 -106 -116 -117 -126 -127 0
-37 -52 -54 -67 -68 -81 -82 -93 -95 -105 -106 -116 -117 -126 -127 0
-37 -53 -54 -67 -69 -81 -82 -93 -95 -105 -106 -116 -117 -126 -127 0
-37 -53 -54 -68 -69 -81 -83 -93 -95 -105 -106 -116 -117 -126 -127 0
-37 -53 -54 -68 -69 -82 -83 -93 -96 -105 -106 -116 -117 -126 -127 0
-36 -52 -53 -67 -68 -81 -82 -94 -95 -105 -107 -116 -117 -126 -127 0
-37 -52 -54 -67 -68 -81 -82 -94 -95 -105 -107 -116 -117 -126 -127 0
-37 -53 -54 -67 -69 -81 -82 -94 -95 -105 -107 -116 -117 -126 -127 0
-37 -53 -54 -68 -69 -81 -83 -94 -95 -105 -107 -116 -117 -126 -127 0
-37 -53 -54 -68 -69 -82 -83 -94 -96 -105 -107 -116 -117 -126 -127 0
-37 -53 -54 -68 -69 -82 -83 -95 -96 -105 -108 -116 -117 -126 -127 0
-36 -52 -53 -67 -68 -81 -82 -94 -95 -106 -107 -116 -118 -126 -127 0
-37 -52 -54 -67 -68 -81 -82 -94 -95 -106 -107 -116 -118 -126 -127 0
-37 -53 -54 -67 -69 -81 -82 -94 -95 -106 -107 -116 -118 -126 -127 0
-37 -53 -54 -68 -69 -81 -83 -94 -95 -106 -107 -116 -118 -126 -127 0
-37 -53 -54 -68 -69 -82 -83 -94 -96 -106 -107 -116 -118 -126 -127 0
-37 -53 -54 -68 -69 -82 -83 -95 -96 -106 -108 -116 -118 -126 -127 0
-37 -53 -54 -68 -69 -82 -83 -95 -96 -107 -108 -116 -119 -126 -127 0
-36 -52 -53 -67 -68 -81 -82 -94 -95 -106 -107 -117 -118 -126 -128 0
-37 -52 -54 -67 -68 -81 -82 -94 -95 -106 -107 -117 -118 -126 -128 0
-37 -53 -54 -67 -69 -81 -82 -94 -95 -106 -107 -117 -118 -126 -128 0
-37 -53 -54 -68 -69 -81 -83 -94 -95 -106 -107 -117 -118 -126 -128 0
-37 -53 -54 -68 -69 -82 -83 -94 -96 -106 -107 -117 -118 -126 -128 0
-37 -53 -54 -68 -69 -82 -83 -95 -96 -106 -108 -117 -118 -126 -128 0
-37 -53 -54 -68 -69 -82 -83 -95 -96 -107 -108 -117 -119 -126 -128 0
-37 -53 -54 -68 -69 -82 -83 -95 -96 -107 -108 -118 -119 -126 -129 0
-36 -52 -53 -67 -68 -81 -82 -94 -95 -106 -107 -117 -118 -127 -128 0
-37 -52 -54 -67 -68 -81 -82 -94 -95 -106 -107 -117 -118 -127 -128 0
-37 -53 -54 -67 -69 -81 -82 -94 -95 -106 -107 -117 -118 -127 -128 0
-37 -53 -54 -68 -69 -81 -83 -94 -95 -106 -107 -117 -118 -127 -128 0
-37 -53 -54 -68 -69 -82 -83 -94 -96 -106 -107 -117 -118 -127 -128 0
-37 -53 -54 -68 -69 -82 -83 -95 -96 -106 -108 -117 -118 -127 -128 0
-37 -53 -54 -68 -69 -82 -83 -95 -96 -107 -108 -117 -119 -127 -128 0
-37 -53 -54 -68 -69 -82 -83 -95 -96 -107 -108 -118 -119 -127 -129 0
-37 -53 -54 -68 -69 -82 -83 -95 -96 -107 -108 -118 -119 -128 -129 0
-35 -51 -52 -66 -67 -80 -81 -93 -94 -105 -106 -116 -117 -136 -137 0
-36 -51 -53 -66 -67 -80 -81 -93 -94 -105 -106 -116 -117 -136 -137 0
-37 -51 -54 -66 -67 -80 -81 -93 -94 -105 -106 -116 -117 -136 -137 0
-36 -52 -53 -66 -68 -80 -81 -93 -94 -105 -106 -116 -117 -136 -137 0
-37 -52 -54 -66 -68 -80 -81 -93 -94 -105 -106 -116 -117 -136 -137 0
-37 -53 -54 -66 -69 -80 -81 -93 -94 -105 -106 -116 -117 -136 -137 0
-36 -52 -53 -67 -68 -80 -82 -93 -94 -105 -106 -116 -117 -136 -137 0
-37 -52 -54 -67 -68 -80 -82 -93 -94 -105 -106 -116 -117 -136 -137 0
-37 -53 -54 -67 -69 -80 -82 -93 -94 -105 -106 -116 -117 -136 -137 0
-37 -53 -54 -68 -69 -80 -83 -93 -94 -105 -106 -116 -117 -136 -137 0
-36 -52 -53 -67 -68 -81 -82 -93 -95 -105 -106 -116 -117 -136 -137 0
-37 -52 -54 -67 -68 -81 -82 -93 -95 -105 -106 -116 -117 -136 -137 0
-37 -53 -54 -67 -69 -81 -82 -93 -95 -105 -106 -116 -117 -136 -137 0
-37 -53 -54 -68 -69 -81 -83 -93 -95 -105 -106 -116 -117 -136 -137 0
-37 -53 -54 -68 -69 -82 -83 -93 -96 -105 -106 -116 -117 -136 -137 0
-36 -52 -53 -67 -68 -81 -82 -94 -95 -105 -107 -116 -117 -136 -137 0
-37 -52 -54 -67 -68 -81 -82 -94 -95 -105 -107 -116 -117 -136 -137 0
-37 -53 -54 -67 -69 -81 -82 -94 -95 -105 -107 -116 -117 -136 -137 0
-37 -53 -54 -68 -69 -81 -83 -94 -95 -105 -107 -116 -117 -136 -137 0
-37 -53 -54 -68 -69 -82 -83 -94 -96 -105 -107 -116 -117 -136 -137 0
-37 -53 -54 -68 -69 -82 -83 -95 -96 -105 -108 -116 -117 -136 -137 0
-36 -52 -53 -67 -68 -81 -82 -94 -95 -106 -107 -116 -118 -136 -137 0
-37 -52 -54 -67 -68 -81 -82 -94 -95 -106 -107 -116 -118 -136 -137 0
-37 -53 -54 -67 -69 -81 -82 -94 -95 -106 -107 -116 -118 -136 -137 0
-37 -53 -54 -68 -69 -81 -83 -94 -95 -106 -107 -116 -118 -136 -137 0
-37 -53 -54 -68 -69 -82 -83 -94 -96 -106 -107 -116 -118 -136 -137 0
-37 -53 -54 -68 -69 -82 -83 -95 -96 -106 -108 -116 -118 -136 -137 0
-37 -53 -54 -68 -69 -82 -83 -95 -96 -107 -108 -116 -119 -136 -137 0
-36 -52 -53 -67 -68 -81 -82 -94 -95 -106 -107 -117 -118 -136 -138 0
-37 -52 -54 -67 -68 -81 -82 -94 -95 -106 -107 -117 -118 -136 -138 0
-37 -53 -54 -67 -69 -81 -82 -94 -95 -106 -107 -117 -118 -136 -138 0
-37 -53 -54 -68 -69 -81 -83 -94 -95 -106 -107 -117 -118 -136 -138 0
-37 -53 -54 -68 -69 -82 -83 -94 -96 -106 -107 -117 -118 -136 -138 0
-37 -53 -54 -68 -69 -82 -83 -95 -96 -106 -108 -117 -118 -136 -138 0
-37 -53 -54 -68 -69 -82 -83 -95 -96 -107 -108 -117 -119 -136 -138 0
-37 -53 -54 -68 -69 -82 -83 -95 -96 -107 -108 -118 -119 -136 -139 0
-36 -52 -53 -67 -68 -81 -82 -94 -95 -106 -107 -117 -118 -137 -138 0
-37 -52 -54 -67 -68 -81 -82 -94 -95 -106 -107 -117 -118 -137 -138 0
-37 -53 -54 -67 -69 -81 -82 -94 -95 -106 -107 -117 -118 -137 -138 0
-37 -53 -54 -68 -69 -81 -83 -94 -95 -106 -107 -117 -118 -137 -138 0
-37 -53 -54 -68 -69 -82 -83 -94 -96 -106 -107 -117 -118 -137 -138 0
-37 -53 -54 -68 -69 -82 -83 -95 -96 -106 -108 -117 -118 -137 -138 0
-37 -53 -54 -68 -69 -82 -83 -95 -96 -107 -108 -117 -119 -137 -138 0
-37 -53 -54 -68 -69 -82 -83 -95 -96 -107 -108 -118 -119 -137 -139 0
-37 -53 -54 -68 -69 -82 -83 -95 -96 -107 -108 -118 -119 -138 -139 0
-36 -52 -53 -67 -68 -81 -82 -94 -95 -106 -107 -117 -118 -146 -147 0
-37 -52 -54 -67 -68 -81 -82 -94 -95 -106 -107 -117 -118 -146 -147 0
-37 -53 -54 -67 -69 -81 -82 -94 -95 -106 -107 -117 -118 -146 -147 0
-37 -53 -54 -68 -69 -81 -83 -94 -95 -106 -107 -117 -118 -146 -147 0
-37 -53 -54 -68 -69 -82 -83 -94 -96 -106 -107 -117 -118 -146 -147 0
-37 -53 -54 -68 -69 -82 -83 -95 -96 -106 -108 -117 -118 -146 -147 0
-37 -53 -54 -68 -69 -82 -83 -95 -96 -107 -108 -117 -119 -146 -147 0
-37 -53 -54 -68 -69 -82 -83 -95 -96 -107 -108 -118 -119 -146 -148 0
-37 -53 -54 -68 -69 -82 -83 -95 -96 -107 -108 -118 -119 -147 -148 0
-37 -53 -54 -68 -69 -82 -83 -95 -96 -107 -108 -118 -119 -155 -156 0
-35 -51 -52 -66 -67 -80 -81 -93 -94 -105 -106 -127 -128 -136 -137 0
-36 -51 -53 -66 -67 -80 -81 -93 -94 -105 -106 -127 -128 -136 -137 0
-37 -51 -54 -66 -67 -80 -81 -93 -94 -105 -106 -127 -128 -136 -137 0
-36 -52 -53 -66 -68 -80 -81 -93 -94 -105 -106 -127 -128 -136 -137 0
-37 -52 -54 -66 -68 -80 -81 -93 -94 -105 -106 -127 -128 -136 -137 0
-37 -53 -54 -66 -69 -80 -81 -93 -94 -105 -106 -127 -128 -136 -137 0
-36 -52 -53 -67 -68 -80 -82 -93 -94 -105 -106 -127 -128 -136 -137 0
-37 -52 -54 -67 -68 -80 -82 -93 -94 -105 -106 -127 -128 -136 -137 0
-37 -53 -54 -67 -69 -80 -82 -93 -94 -105 -106 -127 -128 -136 -137 0
-37 -53 -54 -68 -69 -80 -83 -93 -94 -105 -106 -127 -128 -136 -137 0
-36 -52 -53 -67 -68 -81 -82 -93 -95 -105 -106 -127 -128 -136 -137 0
-37 -52 -54 -67 -68 -81 -82 -93 -95 -105 -106 -127 -128 -136 -137 0
-37 -53 -54 -67 -69 -81 -82 -93 -95 -105 -106 -127 -128 -136 -137 0
-37 -53 -54 -68 -69 -81 -83 -93 -95 -105 -106 -127 -128 -136 -137 0
-37 -53 -54 -68 -69 -82 -83 -93 -96 -105 -106 -127 -128 -136 -137 0
-36 -52 -53 -67 -68 -81 -82 -94 -95 -105 -107 -127 -128 -136 -137 0
-37 -52 -54 -67 -68 -81 -82 -94 -95 -105 -107 -127 -128 -136 -137 0
-37 -53 -54 -67 -69 -81 -82 -94 -95 -105 -107 -127 -128 -136 -137 0
-37 -53 -54 -68 -69 -81 -83 -94 -95 -105 -107 -127 -128 -136 -137 0
-37 -53 -54 -68 -69 -82 -83 -94 -96 -105 -107 -127 -128 -136 -137 0
-37 -53 -54 -68 -69 -82 -83 -95 -96 -105 -108 -127 -128 -136 -137 0
-36 -52 -53 -67 -68 -81 -82 -94 -95 -106 -107 -127 -129 -136 -137 0
-37 -52 -54 -67 -68 -81 -82 -94 -95 -106 -107 -127 -129 -136 -137 0
-37 -53 -54 -67 -69 -81 -82 -94 -95 -106 -107 -127 -129 -136 -137 0
-37 -53 -54 -68 -69 -81 -83 -94 -95 -106 -107 -127 -129 -136 -137 0
-37 -53 -54 -68 -69 -82 -83 -94 -96 -106 -107 -127 -129 -136 -137 0
-37 -53 -54 -68 -69 -82 -83 -95 -96 -106 -108 -127 -129 -136 -137 0
-37 -53 -54 -68 -69 -82 -83 -95 -96 -107 -108 -127 -130 -136 -137 0
-36 -52 -53 -67 -68 -81 -82 -94 -95 -106 -107 -128 -129 -136 -138 0
-37 -52 -54 -67 -68 -81 -82 -94 -95 -106 -107 -128 -129 -136 -138 0
-37 -53 -54 -67 -69 -81 -82 -94 -95 -106 -107 -128 -129 -136 -138 0
-37 -53 -54 -68 -69 -81 -83 -94 -95 -106 -107 -128 -129 -136 -138 0
-37 -53 -54 -68 -69 -82 -83 -94 -96 -106 -107 -128 -129 -136 -138 0
-37 -53 -54 -68 -69 -82 -83 -95 -96 -106 -108 -128 -129 -136 -138 0
-37 -53 -54 -68 -69 -82 -83 -95 -96 -107 -108 -128 -130 -136 -138 0
-37 -53 -54 -68 -69 -82 -83 -95 -96 -107 -108 -129 -130 -136 -139 0
-36 -52 -53 -67 -68 -81 -82 -94 -95 -106 -107 -128 -129 -137 -138 0
-37 -52 -54 -67 -68 -81 -82 -94 -95 -106 -107 -128 -129 -137 -138 0
-37 -53 -54 -67 -69 -81 -82 -94 -95 -106 -107 -128 -129 -137 -138 0
-37 -53 -54 -68 -69 -81 -83 -94 -95 -106 -107 -128 -129 -137 -138 0
-37 -53 -54 -68 -69 -82 -83 -94 -96 -106 -107 -128 -129 -137 -138 0
-37 -53 -54 -68 -69 -82 -83 -95 -96 -106 -108 -128 -129 -137 -138 0
-37 -53 -54 -68 -69 -82 -83 -95 -96 -107 -108 -128 -130 -137 -138 0
-37 -53 -54 -68 -69 -82 -83 -95 -96 -107 -108 -129 -130 -137 -139 0
-37 -53 -54 -68 -69 -82 -83 -95 -96 -107 -108 -129 -130 -138 -139 0
-36 -52 -53 -67 -68 -81 -82 -94 -95 -106 -107 -128 -129 -146 -147 0
-37 -52 -54 -67 -68 -81 -82 -94 -95 -106 -107 -128 -129 -146 -147 0
-37 -53 -54 -67 -69 -81 -82 -94 -95 -106 -107 -128 -129 -146 -147 0
-37 -53 -54 -68 -69 -81 -83 -94 -95 -106 -107 -128 -129 -146 -147 0
-37 -53 -54 -68 -69 -82 -83 -94 -96 -106 -107 -128 -129 -146 -147 0
-37 -53 -54 -68 -69 -82 -83 -95 -96 -106 -108 -128 -129 -146 -147 0
-37 -53 -54 -68 -69 -82 -83 -95 -96 -107 -108 -128 -130 -146 -147 0
-37 -53 -54 -68 -69 -82 -83 -95 -96 -107 -108 -129 -130 -146 -148 0
-37 -53 -54 -68 -69 -82 -83 -95 -96 -107 -108 -129 -130 -147 -148 0
-37 -53 -54 -68 -69 -82 -83 -95 -96 -107 -108 -129 -130 -155 -156 0
-36 -52 -53 -67 -68 -81 -82 -94 -95 -106 -107 -138 -139 -146 -147 0
-37 -52 -54 -67 -68 -81 -82 -94 -95 -106 -107 -138 -139 -146 -147 0
-37 -53 -54 -67 -69 -81 -82 -94 -95 -106 -107 -138 -139 -146 -147 0
-37 -53 -54 -68 -69 -81 -83 -94 -95 -106 -107 -138 -139 -146 -147 0
-37 -53 -54 -68 -69 -82 -83 -94 -96 -106 -107 -138 -139 -146 -147 0
-37 -53 -54 -68 -69 -82 -83 -95 -96 -106 -108 -138 -139 -146 -147 0
-37 -53 -54 -68 -69 -82 -83 -95 -96 -107 -108 -138 -140 -146 -147 0
-37 -53 -54 -68 -69 -82 -83 -95 -96 -107 -108 -139 -140 -146 -148 0
-37 -53 -54 -68 -69 -82 -83 -95 -96 -107 -108 -139 -140 -147 -148 0
-37 -53 -54 -68 -69 -82 -83 -95 -96 -107 -108 -139 -140 -155 -156 0
-37 -53 -54 -68 -69 -82 -83 -95 -96 -107 -108 -148 -149 -155 -156 0
-35 -51 -52 -66 -67 -80 -81 -93 -94 -117 -118 -127 -128 -136 -137 0
-36 -51 -53 -66 -67 -80 -81 -93 -94 -117 -118 -127 -128 -136 -137 0
-37 -51 -54 -66 -67 -80 -81 -93 -94 -117 -118 -127 -128 -136 -137 0
-36 -52 -53 -66 -68 -80 -81 -93 -94 -117 -118 -127 -128 -136 -137 0
-37 -52 -54 -66 -68 -80 -81 -93 -94 -117 -118 -127 -128 -136 -137 0
-37 -53 -54 -66 -69 -80 -81 -93 -94 -117 -118 -127 -128 -136 -137 0
-36 -52 -53 -67 -68 -80 -82 -93 -94 -117 -118 -127 -128 -136 -137 0
-37 -52 -54 -67 -68 -80 -82 -93 -94 -117 -118 -127 -128 -136 -137 0
-37 -53 -54 -67 -69 -80 -82 -93 -94 -117 -118 -127 -128 -136 -137 0
-37 -53 -54 -68 -69 -80 -83 -93 -94 -117 -118 -127 -128 -136 -137 0
-36 -52 -53 -67 -68 -81 -82 -93 -95 -117 -118 -127 -128 -136 -137 0
-37 -52 -54 -67 -68 -81 -82 -93 -95 -117 -118 -127 -128 -136 -137 0
-37 -53 -54 -67 -69 -81 -82 -93 -95 -117 -118 -127 -128 -136 -137 0
-37 -53 -54 -68 -69 -81 -83 -93 -95 -117 -118 -127 -128 -136 -137 0
-37 -53 -54 -68 -69 -82 -83 -93 -96 -117 -118 -127 -128 -136 -137 0
-36 -52 -53 -67 -68 -81 -82 -94 -95 -117 -119 -127 -128 -136 -137 0
-37 -52 -54 -67 -68 -81 -82 -94 -95 -117 -119 -127 -128 -136 -137 0
-37 -53 -54 -67 -69 -81 -82 -94 -95 -117 -119 -127 -128 -136 -137 0
-37 -53 -54 -68 -69 -81 -83 -94 -95 -117 -119 -127 -128 -136 -137 0
-37 -53 -54 -68 -69 -82 -83 -94 -96 -117 -119 -127 -128 -136 -137 0
-37 -53 -54 -68 -69 -82 -83 -95 -96 -117 -120 -127 -128 -136 -137 0
-36 -52 -53 -67 -68 -81 -82 -94 -95 -118 -119 -127 -129 -136 -137 0
-37 -52 -54 -67 -68 -81 -82 -94 -95 -118 -119 -127 -129 -136 -137 0
-37 -53 -54 -67 -69 -81 -82 -94 -95 -118 -119 -127 -129 -136 -137 0
-37 -53 -54 -68 -69 -81 -83 -94 -95 -118 -119 -127 -129 -136 -137 0
-37 -53 -54 -68 -69 -82 -83 -94 -96 -118 -119 -127 -129 -136 -137 0
-37 -53 -54 -68 -69 -82 -83 -95 -96 -118 -120 -127 -129 -136 -137 0
-37 -53 -54 -68 -69 -82 -83 -95 -96 -119 -120 -127 -130 -136 -137 0
-36 -52 -53 -67 -68 -81 -82 -94 -95 -118 -119 -128 -129 -136 -138 0
-37 -52 -54 -67 -68 -81 -82 -94 -95 -118 -119 -128 -129 -136 -138 0
-37 -53 -54 -67 -69 -81 -82 -94 -95 -118 -119 -128 -129 -136 -138 0
-37 -53 -54 -68 -69 -81 -83 -94 -95 -118 -119 -128 -129 -136 -138 0
-37 -53 -54 -68 -69 -82 -83 -94 -96 -118 -119 -128 -129 -136 -138 0
-37 -53 -54 -68 -69 -82 -83 -95 -96 -118 -120 -128 -129 -136 -138 0
-37 -53 -54 -68 -69 -82 -83 -95 -96 -119 -120 -128 -130 -136 -138 0
-37 -53 -54 -68 -69 -82 -83 -95 -96 -119 -120 -129 -130 -136 -139 0
-36 -52 -53 -67 -68 -81 -82 -94 -95 -118 -119 -128 -129 -137 -138 0
-37 -52 -54 -67 -68 -81 -82 -94 -95 -118 -119 -128 -129 -137 -138 0
-37 -53 -54 -67 -69 -81 -82 -94 -95 -118 -119 -128 -129 -137 -138 0
-37 -53 -54 -68 -69 -81 -83 -94 -95 -118 -119 -128 -129 -137 -138 0
-37 -53 -54 -68 -69 -82 -83 -94 -96 -118 -119 -128 -129 -137 -138 0
-37 -53 -54 -68 -69 -82 -83 -95 -96 -118 -120 -128 -129 -137 -138 0
-37 -53 -54 -68 -69 -82 -83 -95 -96 -119 -120 -128 -130 -137 -138 0
-37 -53 -54 -68 -69 -82 -83 -95 -96 -119 -120 -129 -130 -137 -139 0
-37 -53 -54 -68 -69 -82 -83 -95 -96 -119 -120 -129 -130 -138 -139 0
-36 -52 -53 -67 -68 -81 -82 -94 -95 -118 -119 -128 -129 -146 -147 0
-37 -52 -54 -67 -68 -81 -82 -94 -95 -118 -119 -128 -129 -146 -147 0
-37 -53 -54 -67 -69 -81 -82 -94 -95 -118 -119 -128 -129 -146 -147 0
-37 -53 -54 -68 -69 -81 -83 -94 -95 -118 -119 -128 -129 -146 -147 0
-37 -53 -54 -68 -69 -82 -83 -94 -96 -118 -119 -128 -129 -146 -147 0
-37 -53 -54 -68 -69 -82 -83 -95 -96 -118 -120 -128 -129 -146 -147 0
-37 -53 -54 -68 -69 -82 -83 -95 -96 -119 -120 -128 -130 -146 -147 0
-37 -53 -54 -68 -69 -82 -83 -95 -96 -119 -120 -129 -130 -146 -148 0
-37 -53 -54 -68 -69 -82 -83 -95 -96 -119 -120 -129 -130 -147 -148 0
-37 -53 -54 -68 -69 -82 -83 -95 -96 -119 -120 -129 -130 -155 -156 0
-36 -52 -53 -67 -68 -81 -82 -94 -95 -118 -119 -138 -139 -146 -147 0
-37 -52 -54 -67 -68 -81 -82 -94 -95 -118 -119 -138 -139 -146 -147 0
-37 -53 -54 -67 -69 -81 -82 -94 -95 -118 -119 -138 -139 -146 -147 0
-37 -53 -54 -68 -69 -81 -83 -94 -95 -118 -119 -138 -139 -146 -147 0
-37 -53 -54 -68 -69 -82 -83 -94 -96 -118 -119 -138 -139 -146 -147 0
-37 -53 -54 -68 -69 -82 -83 -95 -96 -118 -120 -138 -139 -146 -147 0
-37 -53 -54 -68 -69 -82 -83 -95 -96 -119 -120 -138 -140 -146 -147 0
-37 -53 -54 -68 -69 -82 -83 -95 -96 -119 -120 -139 -140 -146 -148 0
-37 -53 -54 -68 -69 -82 -83 -95 -96 -119 -120 -139 -140 -147 -148 0
-37 -53 -54 -68 -69 -82 -83 -95 -96 -119 -120 -139 -140 -155 -156 0
-37 -53 -54 -68 -69 -82 -83 -95 -96 -119 -120 -148 -149 -155 -156 0
-36 -52 -53 -67 -68 -81 -82 -94 -95 -129 -130 -138 -139 -146 -147 0
-37 -52 -54 -67 -68 -81 -82 -94 -95 -129 -130 -138 -139 -146 -147 0
-37 -53 -54 -67 -69 -81 -82 -94 -95 -129 -130 -138 -139 -146 -147 0
-37 -53 -54 -68 -69 -81 -83 -94 -95 -129 -130 -138 -139 -146 -147 0
-37 -53 -54 -68 -69 -82 -83 -94 -96 -129 -130 -138 -139 -146 -147 0
-37 -53 -54 -68 -69 -82 -83 -95 -96 -129 -131 -138 -139 -146 -147 0
-37 -53 -54 -68 -69 -82 -83 -95 -96 -130 -131 -138 -140 -146 -147 0
-37 -53 -54 -68 -69 -82 -83 -95 -96 -130 -131 -139 -140 -146 -148 0
-37 -53 -54 -68 -69 -82 -83 -95 -96 -130 -131 -139 -140 -147 -148 0
-37 -53 -54 -68 -69 -82 -83 -95 -96 -130 -131 -139 -140 -155 -156 0
-37 -53 -54 -68 -69 -82 -83 -95 -96 -130 -131 -148 -149 -155 -156 0
-37 -53 -54 -68 -69 -82 -83 -95 -96 -140 -141 -148 -149 -155 -156 0
-35 -51 -52 -66 -67 -80 -81 -106 -107 -117 -118 -127 -128 -136 -137 0
-36 -51 -53 -66 -67 -80 -81 -106 -107 -117 -118 -127 -128 -136 -137 0
-37 -51 -54 -66 -67 -80 -81 -106 -107 -117 -118 -127 -128 -136 -137 0
-36 -52 -53 -66 -68 -80 -81 -106 -107 -117 -118 -127 -128 -136 -137 0
-37 -52 -54 -66 -68 -80 -81 -106 -107 -117 -118 -127 -128 -136 -137 0
-37 -53 -54 -66 -69 -80 -81 -106 -107 -117 -118 -127 -128 -136 -137 0
-36 -52 -53 -67 -68 -80 -82 -106 -107 -117 -118 -127 -128 -136 -137 0
-37 -52 -54 -67 -68 -80 -82 -106 -107 -117 -118 -127 -128 -136 -137 0
-37 -53 -54 -67 -69 -80 -82 -106 -107 -117 -118 -127 -128 -136 -137 0
-37 -53 -54 -68 -69 -80 -83 -106 -107 -117 -118 -127 -128 -136 -137 0
-36 -52 -53 -67 -68 -81 -82 -106 -108 -117 -118 -127 -128 -136 -137 0
-37 -52 -54 -67 -68 -81 -82 -106 -108 -117 -118 -127 -128 -136 -137 0
-37 -53 -54 -67 -69 -81 -82 -106 -108 -117 -118 -127 -128 -136 -137 0
-37 -53 -54 -68 -69 -81 -83 -106 -108 -117 -118 -127 -128 -136 -137 0
-37 -53 -54 -68 -69 -82 -83 -106 -109 -117 -118 -127 -128 -136 -137 0
-36 -52 -53 -67 -68 -81 -82 -107 -108 -117 -119 -127 -128 -136 -137 0
-37 -52 -54 -67 -68 -81 -82 -107 -108 -117 -119 -127 -128 -136 -137 0
-37 -53 -54 -67 -69 -81 -82 -107 -108 -117 -119 -127 -128 -136 -137 0
-37 -53 -54 -68 -69 -81 -83 -107 -108 -117 -119 -127 -128 -136 -137 0
-37 -53 -54 -68 -69 -82 -83 -107 -109 -117 -119 -127 -128 -136 -137 0
-37 -53 -54 -68 -69 -82 -83 -108 -109 -117 -120 -127 -128 -136 -137 0
-36 -52 -53 -67 -68 -81 -82 -107 -108 -118 -119 -127 -129 -136 -137 0
-37 -52 -54 -67 -68 -81 -82 -107 -108 -118 -119 -127 -129 -136 -137 0
-37 -53 -54 -67 -69 -81 -82 -107 -108 -118 -119 -127 -129 -136 -137 0
-37 -53 -54 -68 -69 -81 -83 -107 -108 -118 -119 -127 -129 -136 -137 0
-37 -53 -54 -68 -69 -82 -83 -107 -109 -118 -119 -127 -129 -136 -137 0
-37 -53 -54 -68 -69 -82 -83 -108 -109 -118 -120 -127 -129 -136 -137 0
-37 -53 -54 -68 -69 -82 -83 -108 -109 -119 -120 -127 -130 -136 -137 0
-36 -52 -53 -67 -68 -81 -82 -107 -108 -118 -119 -128 -129 -136 -138 0
-37 -52 -54 -67 -68 -81 -82 -107 -108 -118 -119 -128 -129 -136 -138 0
-37 -53 -54 -67 -69 -81 -82 -107 -108 -118 -119 -128 -129 -136 -138 0
-37 -53 -54 -68 -69 -81 -83 -107 -108 -118 -119 -128 -129 -136 -138 0
-37 -53 -54 -68 -69 -82 -83 -107 -109 -118 -119 -128 -129 -136 -138 0
-37 -53 -54 -68 -69 -82 -83 -108 -109 -118 -120 -128 -129 -136 -138 0
-37 -53 -54 -68 -69 -82 -83 -108 -109 -119 -120 -128 -130 -136 -138 0
-37 -53 -54 -68 -69 -82 -83 -108 -109 -119 -120 -129 -130 -136 -139 0
-36 -52 -53 -67 -68 -81 -82 -107 -108 -118 -119 -128 -129 -137 -138 0
-37 -52 -54 -67 -68 -81 -82 -107 -108 -118 -119 -128 -129 -137 -138 0
-37 -53 -54 -67 -69 -81 -82 -107 -108 -118 -119 -128 -129 -137 -138 0
-37 -53 -54 -68 -69 -81 -83 -107 -108 -118 -119 -128 -129 -137 -138 0
-37 -53 -54 -68 -69 -82 -83 -107 -109 -118 -119 -128 -129 -137 -138 0
-37 -53 -54 -68 -69 -82 -83 -108 -109 -118 -120 -128 -129 -137 -138 0
-37 -53 -54 -68 -69 -82 -83 -108 -109 -119 -120 -128 -130 -137 -138 0
-37 -53 -54 -68 -69 -82 -83 -108 -109 -119 -120 -129 -130 -137 -139 0
-37 -53 -54 -68 -69 -82 -83 -108 -109 -119 -120 -129 -130 -138 -139 0
-36 -52 -53 -67 -68 -81 -82 -107 -108 -118 -119 -128 -129 -146 -147 0
-37 -52 -54 -67 -68 -81 -82 -107 -108 -118 -119 -128 -129 -146 -147 0
-37 -53 -54 -67 -69 -81 -82 -107 -108 -118 -119 -128 -129 -146 -147 0
-37 -53 -54 -68 -69 -81 -83 -107 -108 -118 -119 -128 -129 -146 -147 0
-37 -53 -54 -68 -69 -82 -83 -107 -109 -118 -119 -128 -129 -146 -147 0
-37 -53 -54 -68 -69 -82 -83 -108 -109 -118 -120 -128 -129 -146 -147 0
-37 -53 -54 -68 -69 -82 -83 -108 -109 -119 -120 -128 -130 -146 -147 0
-37 -53 -54 -68 -69 -82 -83 -108 -109 -119 -120 -129 -130 -146 -148 0
-37 -53 -54 -68 -69 -82 -83 -108 -109 -119 -120 -129 -130 -147 -148 0
-37 -53 -54 -68 -69 -82 -83 -108 -109 -119 -120 -129 -130 -155 -156 0
-36 -52 -53 -67 -68 -81 -82 -107 -108 -118 -119 -138 -139 -146 -147 0
-37 -52 -54 -67 -68 -81 -82 -107 -108 -118 -119 -138 -139 -146 -147 0
-37 -53 -54 -67 -69 -81 -82 -107 -108 -118 -119 -138 -139 -146 -147 0
-37 -53 -54 -68 -69 -81 -83 -107 -108 -118 -119 -138 -139 -146 -147 0
-37 -53 -54 -68 -69 -82 -83 -107 -109 -118 -119 -138 -139 -146 -147 0
-37 -53 -54 -68 -69 -82 -83 -108 -109 -118 -120 -138 -139 -146 -147 0
-37 -53 -54 -68 -69 -82 -83 -108 -109 -119 -120 -138 -140 -146 -147 0
-37 -53 -54 -68 -69 -82 -83 -108 -109 -119 -120 -139 -140 -146 -148 0
-37 -53 -54 -68 -69 -82 -83 -108 -109 -119 -120 -139 -140 -147 -148 0
-37 -53 -54 -68 -69 -82 -83 -108 -109 -119 -120 -139 -140 -155 -156 0
-37 -53 -54 -68 -69 -82 -83 -108 -109 -119 -120 -148 -149 -155 -156 0
-36 -52 -53 -67 -68 -81 -82 -107 -108 -129 -130 -138 -139 -146 -147 0
-37 -52 -54 -67 -68 -81 -82 -107 -108 -129 -130 -138 -139 -146 -147 0
-37 -53 -54 -67 -69 -81 -82 -107 -108 -129 -130 -138 -139 -146 -147 0
-37 -53 -54 -68 -69 -81 -83 -107 -108 -129 -130 -138 -139 -146 -147 0
-37 -53 -54 -68 -69 -82 -83 -107 -109 -129 -130 -138 -139 -146 -147 0
-37 -53 -54 -68 -69 -82 -83 -108 -109 -129 -131 -138 -139 -146 -147 0
-37 -53 -54 -68 -69 -82 -83 -108 -109 -130 -131 -138 -140 -146 -147 0
-37 -53 -54 -68 -69 -82 -83 -108 -109 -130 -131 -139 -140 -146 -148 0
-37 -53 -54 -68 -69 -82 -83 -108 -109 -130 -131 -139 -140 -147 -148 0
-37 -53 -54 -68 -69 -82 -83 -108 -109 -130 -131 -139 -140 -155 -156 0
-37 -53 -54 -68 -69 -82 -83 -108 -109 -130 -131 -148 -149 -155 -156 0
-37 -53 -54 -68 -69 -82 -83 -108 -109 -140 -141 -148 -149 -155 -156 0
-36 -52 -53 -67 -68 -81 -82 -119 -120 -129 -130 -138 -139 -146 -147 0
-37 -52 -54 -67 -68 -81 -82 -119 -120 -129 -130 -138 -139 -146 -147 0
-37 -53 -54 -67 -69 -81 -82 -119 -120 -129 -130 -138 -139 -146 -147 0
-37 -53 -54 -68 -69 -81 -83 -119 -120 -129 -130 -138 -139 -146 -147 0
-37 -53 -54 -68 -69 -82 -83 -119 -121 -129 -130 -138 -139 -146 -147 0
-37 -53 -54 -68 -69 -82 -83 -120 -121 -129 -131 -138 -139 -146 -147 0
-37 -53 -54 -68 -69 -82 -83 -120 -121 -130 -131 -138 -140 -146 -147 0
-37 -53 -54 -68 -69 -82 -83 -120 -121 -130 -131 -139 -140 -146 -148 0
-37 -53 -54 -68 -69 -82 -83 -120 -121 -130 -131 -139 -140 -147 -148 0
-37 -53 -54 -68 -69 -82 -83 -120 -121 -130 -131 -139 -140 -155 -156 0
-37 -53 -54 -68 -69 -82 -83 -120 -121 -130 -131 -148 -149 -155 -156 0
-37 -53 -54 -68 -69 -82 -83 -120 -121 -140 -141 -148 -149 -155 -156 0
-37 -53 -54 -68 -69 -82 -83 -131 -132 -140 -141 -148 -149 -155 -156 0
-35 -51 -52 -66 -67 -94 -95 -106 -107 -117 -118 -127 -128 -136 -137 0
-36 -51 -53 -66 -67 -94 -95 -106 -107 -117 -118 -127 -128 -136 -137 0
-37 -51 -54 -66 -67 -94 -95 -106 -107 -117 -118 -127 -128 -136 -137 0
-36 -52 -53 -66 -68 -94 -95 -106 -107 -117 -118 -127 -128 -136 -137 0
-37 -52 -54 -66 -68 -94 -95 -106 -107 -117 -118 -127 -128 -136 -137 0
-37 -53 -54 -66 -69 -94 -95 -106 -107 -117 -118 -127 -128 -136 -137 0
-36 -52 -53 -67 -68 -94 -96 -106 -107 -117 -118 -127 -128 -136 -137 0
-37 -52 -54 -67 -68 -94 -96 -106 -107 -117 -118 -127 -128 -136 -137 0
-37 -53 -54 -67 -69 -94 -96 -106 -107 -117 -118 -127 -128 -136 -137 0
-37 -53 -54 -68 -69 -94 -97 -106 -107 -117 -118 -127 -128 -136 -137 0
-36 -52 -53 -67 -68 -95 -96 -106 -108 -117 -118 -127 -128 -136 -137 0
-37 -52 -54 -67 -68 -95 -96 -106 -108 -117 -118 -127 -128 -136 -137 0
-37 -53 -54 -67 -69 -95 -96 -106 -108 -117 -118 -127 -128 -136 -137 0
-37 -53 -54 -68 -69 -95 -97 -106 -108 -117 -118 -127 -128 -136 -137 0
-37 -53 -54 -68 -69 -96 -97 -106 -109 -117 -118 -127 -128 -136 -137 0
-36 -52 -53 -67 -68 -95 -96 -107 -108 -117 -119 -127 -128 -136 -137 0
-37 -52 -54 -67 -68 -95 -96 -107 -108 -117 -119 -127 -128 -136 -137 0
-37 -53 -54 -67 -69 -95 -96 -107 -108 -117 -119 -127 -128 -136 -137 0
-37 -53 -54 -68 -69 -95 -97 -107 -108 -117 -119 -127 -128 -136 -137 0
-37 -53 -54 -68 -69 -96 -97 -107 -109 -117 -119 -127 -128 -136 -137 0
-37 -53 -54 -68 -69 -96 -97 -108 -109 -117 -120 -127 -128 -136 -137 0
-36 -52 -53 -67 -68 -95 -96 -107 -108 -118 -119 -127 -129 -136 -137 0
-37 -52 -54 -67 -68 -95 -96 -107 -108 -118 -119 -127 -129 -136 -137 0
-37 -53 -54 -67 -69 -95 -96 -107 -108 -118 -119 -127 -129 -136 -137 0
-37 -53 -54 -68 -69 -95 -97 -107 -108 -118 -119 -127 -129 -136 -137 0
-37 -53 -54 -68 -69 -96 -97 -107 -109 -118 -119 -127 -129 -136 -137 0
-37 -53 -54 -68 -69 -96 -97 -108 -109 -118 -120 -127 -129 -136 -137 0
-37 -53 -54 -68 -69 -96 -97 -108 -109 -119 -120 -127 -130 -136 -137 0
-36 -52 -53 -67 -68 -95 -96 -107 -108 -118 -119 -128 -129 -136 -138 0
-37 -52 -54 -67 -68 -95 -96 -107 -108 -118 -119 -128 -129 -136 -138 0
-37 -53 -54 -67 -69 -95 -96 -107 -108 -118 -119 -128 -129 -136 -138 0
-37 -53 -54 -68 -69 -95 -97 -107 -108 -118 -119 -128 -129 -136 -138 0
-37 -53 -54 -68 -69 -96 -97 -107 -109 -118 -119 -128 -129 -136 -138 0
-37 -53 -54 -68 -69 -96 -97 -108 -109 -118 -120 -128 -129 -136 -138 0
-37 -53 -54 -68 -69 -96 -97 -108 -109 -119 -120 -128 -130 -136 -138 0
-37 -53 -54 -68 -69 -96 -97 -108 -109 -119 -120 -129 -130 -136 -139 0
-36 -52 -53 -67 -68 -95 -96 -107 -108 -118 -119 -128 -129 -137 -138 0
-37 -52 -54 -67 -68 -95 -96 -107 -108 -118 -119 -128 -129 -137 -138 0
-37 -53 -54 -67 -69 -95 -96 -107 -108 -118 -119 -128 -129 -137 -138 0
-37 -53 -54 -68 -69 -95 -97 -107 -108 -118 -119 -128 -129 -137 -138 0
-37 -53 -54 -68 -69 -96 -97 -107 -109 -118 -119 -128 -129 -137 -138 0
-37 -53 -54 -68 -69 -96 -97 -108 -109 -118 -120 -128 -129 -137 -138 0
-37 -53 -54 -68 -69 -96 -97 -108 -109 -119 -120 -128 -130 -137 -138 0
-37 -53 -54 -68 -69 -96 -97 -108 -109 -119 -120 -129 -130 -137 -139 0
-37 -53 -54 -68 -69 -96 -97 -108 -109 -119 -120 -129 -130 -138 -139 0
-36 -52 -53 -67 -68 -95 -96 -107 -108 -118 -119 -128 -129 -146 -147 0
-37 -52 -54 -67 -68 -95 -96 -107 -108 -118 -119 -128 -129 -146 -147 0
-37 -53 -54 -67 -69 -95 -96 -107 -108 -118 -119 -128 -129 -146 -147 0
-37 -53 -54 -68 -69 -95 -97 -107 -108 -118 -119 -128 -129 -146 -147 0
-37 -53 -54 -68 -69 -96 -97 -107 -109 -118 -119 -128 -129 -146 -147 0
-37 -53 -54 -68 -69 -96 -97 -108 -109 -118 -120 -128 -129 -146 -147 0
-37 -53 -54 -68 -69 -96 -97 -108 -109 -119 -120 -128 -130 -146 -147 0
-37 -53 -54 -68 -69 -96 -97 -108 -109 -119 -120 -129 -130 -146 -148 0
-37 -53 -54 -68 -69 -96 -97 -108 -109 -119 -120 -129 -130 -147 -148 0
-37 -53 -54 -68 -69 -96 -97 -108 -109 -119 -120 -129 -130 -155 -156 0
-36 -52 -53 -67 -68 -95 -96 -107 -108 -118 -119 -138 -139 -146 -147 0
-37 -52 -54 -67 -68 -95 -96 -107 -108 -118 -119 -138 -139 -146 -147 0
-37 -53 -54 -67 -69 -95 -96 -107 -108 -118 -119 -138 -139 -146 -147 0
-37 -53 -54 -68 -69 -95 -97 -107 -108 -118 -119 -138 -139 -146 -147 0
-37 -53 -54 -68 -69 -96 -97 -107 -109 -118 -119 -138 -139 -146 -147 0
-37 -53 -54 -68 -69 -96 -97 -108 -109 -118 -120 -138 -139 -146 -147 0
-37 -53 -54 -68 -69 -96 -97 -108 -109 -119 -120 -138 -140 -146 -147 0
-37 -53 -54 -68 -69 -96 -97 -108 -109 -119 -120 -139 -140 -146 -148 0
-37 -53 -54 -68 -69 -96 -97 -108 -109 -119 -120 -139 -140 -147 -148 0
-37 -53 -54 -68 -69 -96 -97 -108 -109 -119 -120 -139 -140 -155 -156 0
-37 -53 -54 -68 -69 -96 -97 -108 -109 -119 -120 -148 -149 -155 -156 0
-36 -52 -53 -67 -68 -95 -96 -107 -108 -129 -130 -138 -139 -146 -147 0
-37 -52 -54 -67 -68 -95 -96 -107 -108 -129 -130 -138 -139 -146 -147 0
-37 -53 -54 -67 -69 -95 -96 -107 -108 -129 -130 -138 -139 -146 -147 0
-37 -53 -54 -68 -69 -95 -97 -107 -108 -129 -130 -138 -139 -146 -147 0
-37 -53 -54 -68 -69 -96 -97 -107 -109 -129 -130 -138 -139 -146 -147 0
-37 -53 -54 -68 -69 -96 -97 -108 -109 -129 -131 -138 -139 -146 -147 0
-37 -53 -54 -68 -69 -96 -97 -108 -109 -130 -131 -138 -140 -146 -147 0
-37 -53 -54 -68 -69 -96 -97 -108 -109 -130 -131 -139 -140 -146 -148 0
-37 -53 -54 -68 -69 -96 -97 -108 -109 -130 -131 -139 -140 -147 -148 0
-37 -53 -54 -68 -69 -96 -97 -108 -109 -130 -131 -139 -140 -155 -156 0
-37 -53 -54 -68 -69 -96 -97 -108 -109 -130 -131 -148 -149 -155 -156 0
-37 -53 -54 -68 -69 -96 -97 -108 -109 -140 -141 -148 -149 -155 -156 0
-36 -52 -53 -67 -68 -95 -96 -119 -120 -129 -130 -138 -139 -146 -147 0
-37 -52 -54 -67 -68 -95 -96 -119 -120 -129 -130 -138 -139 -146 -147 0
-37 -53 -54 -67 -69 -95 -96 -119 -120 -129 -130 -138 -139 -146 -147 0
-37 -53 -54 -68 -69 -95 -97 -119 -120 -129 -130 -138 -139 -146 -147 0
-37 -53 -54 -68 -69 -96 -97 -119 -121 -129 -130 -138 -139 -146 -147 0
-37 -53 -54 -68 -69 -96 -97 -120 -121 -129 -131 -138 -139 -146 -147 0
-37 -53 -54 -68 -69 -96 -97 -120 -121 -130 -131 -138 -140 -146 -147 0
-37 -53 -54 -68 -69 -96 -97 -120 -121 -130 -131 -139 -140 -146 -148 0
-37 -53 -54 -68 -69 -96 -97 -120 -121 -130 -131 -139 -140 -147 -148 0
-37 -53 -54 -68 -69 -96 -97 -120 -121 -130 -131 -139 -140 -155 -156 0
-37 -53 -54 -68 -69 -96 -97 -120 -121 -130 -131 -148 -149 -155 -156 0
-37 -53 -54 -68 -69 -96 -97 -120 -121 -140 -141 -148 -149 -155 -156 0
-37 -53 -54 -68 -69 -96 -97 -131 -132 -140 -141 -148 -149 -155 -156 0
-36 -52 -53 -67 -68 -108 -109 -119 -120 -129 -130 -138 -139 -146 -147 0
-37 -52 -54 -67 -68 -108 -109 -119 -120 -129 -130 -138 -139 -146 -147 0
-37 -53 -54 -67 -69 -108 -109 -119 -120 -129 -130 -138 -139 -146 -147 0
-37 -53 -54 -68 -69 -108 -110 -119 -120 -129 -130 -138 -139 -146 -147 0
-37 -53 -54 -68 -69 -109 -110 -119 -121 -129 -130 -138 -139 -146 -147 0
-37 -53 -54 -68 -69 -109 -110 -120 -121 -129 -131 -138 -139 -146 -147 0
-37 -53 -54 -68 -69 -109 -110 -120 -121 -130 -131 -138 -140 -146 -147 0
-37 -53 -54 -68 -69 -109 -110 -120 -121 -130 -131 -139 -140 -146 -148 0
-37 -53 -54 -68 -69 -109 -110 -120 -121 -130 -131 -139 -140 -147 -148 0
-37 -53 -54 -68 -69 -109 -110 -120 -121 -130 -131 -139 -140 -155 -156 0
-37 -53 -54 -68 -69 -109 -110 -120 -121 -130 -131 -148 -149 -155 -156 0
-37 -53 -54 -68 -69 -109 -110 -120 -121 -140 -141 -148 -149 -155 -156 0
-37 -53 -54 -68 -69 -109 -110 -131 -132 -140 -141 -148 -149 -155 -156 0
-37 -53 -54 -68 -69 -121 -122 -131 -132 -140 -141 -148 -149 -155 -156 0
-35 -51 -52 -81 -82 -94 -95 -106 -107 -117 -118 -127 -128 -136 -137 0
-36 -51 -53 -81 -82 -94 -95 -106 -107 -117 -118 -127 -128 -136 -137 0
-37 -51 -54 -81 -82 -94 -95 -106 -107 -117 -118 -127 -128 -136 -137 0
-36 -52 -53 -81 -83 -94 -95 -106 -107 -117 -118 -127 -128 -136 -137 0
-37 -52 -54 -81 -83 -94 -95 -106 -107 -117 -118 -127 -128 -136 -137 0
-37 -53 -54 -81 -84 -94 -95 -106 -107 -117 -118 -127 -128 -136 -137 0
-36 -52 -53 -82 -83 -94 -96 -106 -107 -117 -118 -127 -128 -136 -137 0
-37 -52 -54 -82 -83 -94 -96 -106 -107 -117 -118 -127 -128 -136 -137 0
-37 -53 -54 -82 -84 -94 -96 -106 -107 -117 -118 -127 -128 -136 -137 0
-37 -53 -54 -83 -84 -94 -97 -106 -107 -117 -118 -127 -128 -136 -137 0
-36 -52 -53 -82 -83 -95 -96 -106 -108 -117 -118 -127 -128 -136 -137 0
-37 -52 -54 -82 -83 -95 -96 -106 -108 -117 -118 -127 -128 -136 -137 0
-37 -53 -54 -82 -84 -95 -96 -106 -108 -117 -118 -127 -128 -136 -137 0
-37 -53 -54 -83 -84 -95 -97 -106 -108 -117 -118 -127 -128 -136 -137 0
-37 -53 -54 -83 -84 -96 -97 -106 -109 -117 -118 -127 -128 -136 -137 0
-36 -52 -53 -82 -83 -95 -96 -107 -108 -117 -119 -127 -128 -136 -137 0
-37 -52 -54 -82 -83 -95 -96 -107 -108 -117 -119 -127 -128 -136 -137 0
-37 -53 -54 -82 -84 -95 -96 -107 -108 -117 -119 -127 -128 -136 -137 0
-37 -53 -54 -83 -84 -95 -97 -107 -108 -117 -119 -127 -128 -136 -137 0
-37 -53 -54 -83 -84 -96 -97 -107 -109 -117 -119 -127 -128 -136 -137 0
-37 -53 -54 -83 -84 -96 -97 -108 -109 -117 -120 -127 -128 -136 -137 0
-36 -52 -53 -82 -83 -95 -96 -107 -108 -118 -119 -127 -129 -136 -137 0
-37 -52 -54 -82 -83 -95 -96 -107 -108 -118 -119 -127 -129 -136 -137 0
-37 -53 -54 -82 -84 -95 -96 -107 -108 -118 -119 -127 -129 -136 -137 0
-37 -53 -54 -83 -84 -95 -97 -107 -108 -118 -119 -127 -129 -136 -137 0
-37 -53 -54 -83 -84 -96 -97 -107 -109 -118 -119 -127 -129 -136 -137 0
-37 -53 -54 -83 -84 -96 -97 -108 -109 -118 -120 -127 -129 -136 -137 0
-37 -53 -54 -83 -84 -96 -97 -108 -109 -119 -120 -127 -130 -136 -137 0
-36 -52 -53 -82 -83 -95 -96 -107 -108 -118 -119 -128 -129 -136 -138 0
-37 -52 -54 -82 -83 -95 -96 -107 -108 -118 -119 -128 -129 -136 -138 0
-37 -53 -54 -82 -84 -95 -96 -107 -108 -118 -119 -128 -129 -136 -138 0
-37 -53 -54 -83 -84 -95 -97 -107 -108 -118 -119 -128 -129 -136 -138 0
-37 -53 -54 -83 -84 -96 -97 -107 -109 -118 -119 -128 -129 -136 -138 0
-37 -53 -54 -83 -84 -96 -97 -108 -109 -118 -120 -128 -129 -136 -138 0
-37 -53 -54 -83 -84 -96 -97 -108 -109 -119 -120 -128 -130 -136 -138 0
-37 -53 -54 -83 -84 -96 -97 -108 -109 -119 -120 -129 -130 -136 -139 0
-36 -52 -53 -82 -83 -95 -96 -107 -108 -118 -119 -128 -129 -137 -138 0
-37 -52 -54 -82 -83 -95 -96 -107 -108 -118 -119 -128 -129 -137 -138 0
-37 -53 -54 -82 -84 -95 -96 -107 -108 -118 -119 -128 -129 -137 -138 0
-37 -53 -54 -83 -84 -95 -97 -107 -108 -118 -119 -128 -129 -137 -138 0
-37 -53 -54 -83 -84 -96 -97 -107 -109 -118 -119 -128 -129 -137 -138 0
-37 -53 -54 -83 -84 -96 -97 -108 -109 -118 -120 -128 -129 -137 -138 0
-37 -53 -54 -83 -84 -96 -97 -108 -109 -119 -120 -128 -130 -137 -138 0
-37 -53 -54 -83 -84 -96 -97 -108 -109 -119 -120 -129 -130 -137 -139 0
-37 -53 -54 -83 -84 -96 -97 -108 -109 -119 -120 -129 -130 -138 -139 0
-36 -52 -53 -82 -83 -95 -96 -107 -108 -118 -119 -128 -129 -146 -147 0
-37 -52 -54 -82 -83 -95 -96 -107 -108 -118 -119 -128 -129 -146 -147 0
-37 -53 -54 -82 -84 -95 -96 -107 -108 -118 -119 -128 -129 -146 -147 0
-37 -53 -54 -83 -84 -95 -97 -107 -108 -118 -119 -128 -129 -146 -147 0
-37 -53 -54 -83 -84 -96 -97 -107 -109 -118 -119 -128 -129 -146 -147 0
-37 -53 -54 -83 -84 -96 -97 -108 -109 -118 -120 -128 -129 -146 -147 0
-37 -53 -54 -83 -84 -96 -97 -108 -109 -119 -120 -128 -130 -146 -147 0
-37 -53 -54 -83 -84 -96 -97 -108 -109 -119 -120 -129 -130 -146 -148 0
-37 -53 -54 -83 -84 -96 -97 -108 -109 -119 -120 -129 -130 -147 -148 0
-37 -53 -54 -83 -84 -96 -97 -108 -109 -119 -120 -129 -130 -155 -156 0
-36 -52 -53 -82 -83 -95 -96 -107 -108 -118 -119 -138 -139 -146 -147 0
-37 -52 -54 -82 -83 -95 -96 -107 -108 -118 -119 -138 -139 -146 -147 0
-37 -53 -54 -82 -84 -95 -96 -107 -108 -118 -119 -138 -139 -146 -147 0
-37 -53 -54 -83 -84 -95 -97 -107 -108 -118 -119 -138 -139 -146 -147 0
-37 -53 -54 -83 -84 -96 -97 -107 -109 -118 -119 -138 -139 -146 -147 0
-37 -53 -54 -83 -84 -96 -97 -108 -109 -118 -120 -138 -139 -146 -147 0
-37 -53 -54 -83 -84 -96 -97 -108 -109 -119 -120 -138 -140 -146 -147 0
-37 -53 -54 -83 -84 -96 -97 -108 -109 -119 -120 -139 -140 -146 -148 0
-37 -53 -54 -83 -84 -96 -97 -108 -109 -119 -120 -139 -140 -147 -148 0
-37 -53 -54 -83 -84 -96 -97 -108 -109 -119 -120 -139 -140 -155 -156 0
-37 -53 -54 -83 -84 -96 -97 -108 -109 -119 -120 -148 -149 -155 -156 0
-36 -52 -53 -82 -83 -95 -96 -107 -108 -129 -130 -138 -139 -146 -147 0
-37 -52 -54 -82 -83 -95 -96 -107 -108 -129 -130 -138 -139 -146 -147 0
-37 -53 -54 -82 -84 -95 -96 -107 -108 -129 -130 -138 -139 -146 -147 0
-37 -53 -54 -83 -84 -95 -97 -107 -108 -129 -130 -138 -139 -146 -147 0
-37 -53 -54 -83 -84 -96 -97 -107 -109 -129 -130 -138 -139 -146 -147 0
-37 -53 -54 -83 -84 -96 -97 -108 -109 -129 -131 -138 -139 -146 -147 0
-37 -53 -54 -83 -84 -96 -97 -108 -109 -130 -131 -138 -140 -146 -147 0
-37 -53 -54 -83 -84 -96 -97 -108 -109 -130 -131 -139 -140 -146 -148 0
-37 -53 -54 -83 -84 -96 -97 -108 -109 -130 -131 -139 -140 -147 -148 0
-37 -53 -54 -83 -84 -96 -97 -108 -109 -130 -131 -139 -140 -155 -156 0
-37 -53 -54 -83 -84 -96 -97 -108 -109 -130 -131 -148 -149 -155 -156 0
-37 -53 -54 -83 -84 -96 -97 -108 -109 -140 -141 -148 -149 -155 -156 0
-36 -52 -53 -82 -83 -95 -96 -119 -120 -129 -130 -138 -139 -146 -147 0
-37 -52 -54 -82 -83 -95 -96 -119 -120 -129 -130 -138 -139 -146 -147 0
-37 -53 -54 -82 -84 -95 -96 -119 -120 -129 -130 -138 -139 -146 -147 0
-37 -53 -54 -83 -84 -95 -97 -119 -120 -129 -130 -138 -139 -146 -147 0
-37 -53 -54 -83 -84 -96 -97 -119 -121 -129 -130 -138 -139 -146 -147 0
-37 -53 -54 -83 -84 -96 -97 -120 -121 -129 -131 -138 -139 -146 -147 0
-37 -53 -54 -83 -84 -96 -97 -120 -121 -130 -131 -138 -140 -146 -147 0
-37 -53 -54 -83 -84 -96 -97 -120 -121 -130 -131 -139 -140 -146 -148 0
-37 -53 -54 -83 -84 -96 -97 -120 -121 -130 -131 -139 -140 -147 -148 0
-37 -53 -54 -83 -84 -96 -97 -120 -121 -130 -131 -139 -140 -155 -156 0
-37 -53 -54 -83 -84 -96 -97 -120 -121 -130 -131 -148 -149 -155 -156 0
-37 -53 -54 -83 -84 -96 -97 -120 -121 -140 -141 -148 -149 -155 -156 0
-37 -53 -54 -83 -84 -96 -97 -131 -132 -140 -141 -148 -149 -155 -156 0
-36 -52 -53 -82 -83 -108 -109 -119 -120 -129 -130 -138 -139 -146 -147 0
-37 -52 -54 -82 -83 -108 -109 -119 -120 -129 -130 -138 -139 -146 -147 0
-37 -53 -54 -82 -84 -108 -109 -119 -120 -129 -130 -138 -139 -146 -147 0
-37 -53 -54 -83 -84 -108 -110 -119 -120 -129 -130 -138 -139 -146 -147 0
-37 -53 -54 -83 -84 -109 -110 -119 -121 -129 -130 -138 -139 -146 -147 0
-37 -53 -54 -83 -84 -109 -110 -120 -121 -129 -131 -138 -139 -146 -147 0
-37 -53 -54 -83 -84 -109 -110 -120 -121 -130 -131 -138 -140 -146 -147 0
-37 -53 -54 -83 -84 -109 -110 -120 -121 -130 -131 -139 -140 -146 -148 0
-37 -53 -54 -83 -84 -109 -110 -120 -121 -130 -131 -139 -140 -147 -148 0
-37 -53 -54 -83 -84 -109 -110 -120 -121 -130 -131 -139 -140 -155 -156 0
-37 -53 -54 -83 -84 -109 -110 -120 -121 -130 -131 -148 -149 -155 -156 0
-37 -53 -54 -83 -84 -109 -110 -120 -121 -140 -141 -148 -149 -155 -156 0
-37 -53 -54 -83 -84 -109 -110 -131 -132 -140 -141 -148 -149 -155 -156 0
-37 -53 -54 -83 -84 -121 -122 -131 -132 -140 -141 -148 -149 -155 -156 0
-36 -52 -53 -96 -97 -108 -109 -119 -120 -129 -130 -138 -139 -146 -147 0
-37 -52 -54 -96 -97 -108 -109 -119 -120 -129 -130 -138 -139 -146 -147 0
-37 -53 -54 -96 -98 -108 -109 -119 -120 -129 -130 -138 -139 -146 -147 0
-37 -53 -54 -97 -98 -108 -110 -119 -120 -129 -130 -138 -139 -146 -147 0
-37 -53 -54 -97 -98 -109 -110 -119 -121 -129 -130 -138 -139 -146 -147 0
-37 -53 -54 -97 -98 -109 -110 -120 -121 -129 -131 -138 -139 -146 -147 0
-37 -53 -54 -97 -98 -109 -110 -120 -121 -130 -131 -138 -140 -146 -147 0
-37 -53 -54 -97 -98 -109 -110 -120 -121 -130 -131 -139 -140 -146 -148 0
-37 -53 -54 -97 -98 -109 -110 -120 -121 -130 -131 -139 -140 -147 -148 0
-37 -53 -54 -97 -98 -109 -110 -120 -121 -130 -131 -139 -140 -155 -156 0
-37 -53 -54 -97 -98 -109 -110 -120 -121 -130 -131 -148 -149 -155 -156 0
-37 -53 -54 -97 -98 -109 -110 -120 -121 -140 -141 -148 -149 -155 -156 0
-37 -53 -54 -97 -98 -109 -110 -131 -132 -140 -141 -148 -149 -155 -156 0
-37 -53 -54 -97 -98 -121 -122 -131 -132 -140 -141 -148 -149 -155 -156 0
-37 -53 -54 -110 -111 -121 -122 -131 -132 -140 -141 -148 -149 -155 -156 0
-35 -67 -68 -81 -82 -94 -95 -106 -107 -117 -118 -127 -128 -136 -137 0
-36 -67 -69 -81 -82 -94 -95 -106 -107 -117 -118 -127 -128 -136 -137 0
-37 -67 -70 -81 -82 -94 -95 -106 -107 -117 -118 -127 -128 -136 -137 0
-36 -68 -69 -81 -83 -94 -95 -106 -107 -117 -118 -127 -128 -136 -137 0
-37 -68 -70 -81 -83 -94 -95 -106 -107 -117 -118 -127 -128 -136 -137 0
-37 -69 -70 -81 -84 -94 -95 -106 -107 -117 -118 -127 -128 -136 -137 0
-36 -68 -69 -82 -83 -94 -96 -106 -107 -117 -118 -127 -128 -136 -137 0
-37 -68 -70 -82 -83 -94 -96 -106 -107 -117 -118 -127 -128 -136 -137 0
-37 -69 -70 -82 -84 -94 -96 -106 -107 -117 -118 -127 -128 -136 -137 0
-37 -69 -70 -83 -84 -94 -97 -106 -107 -117 -118 -127 -128 -136 -137 0
-36 -68 -69 -82 -83 -95 -96 -106 -108 -117 -118 -127 -128 -136 -137 0
-37 -68 -70 -82 -83 -95 -96 -106 -108 -117 -118 -127 -128 -136 -137 0
-37 -69 -70 -82 -84 -95 -96 -106 -108 -117 -118 -127 -128 -136 -137 0
-37 -69 -70 -83 -84 -95 -97 -106 -108 -117 -118 -127 -128 -136 -137 0
-37 -69 -70 -83 -84 -96 -97 -106 -109 -117 -118 -127 -128 -136 -137 0
-36 -68 -69 -82 -83 -95 -96 -107 -108 -117 -119 -127 -128 -136 -137 0
-37 -68 -70 -82 -83 -95 -96 -107 -108 -117 -119 -127 -128 -136 -137 0
-37 -69 -70 -82 -84 -95 -96 -107 -108 -117 -119 -127 -128 -136 -137 0
-37 -69 -70 -83 -84 -95 -97 -107 -108 -117 -119 -127 -128 -136 -137 0
-37 -69 -70 -83 -84 -96 -97 -107 -109 -117 -119 -127 -128 -136 -137 0
-37 -69 -70 -83 -84 -96 -97 -108 -109 -117 -120 -127 -128 -136 -137 0
-36 -68 -69 -82 -83 -95 -96 -107 -108 -118 -119 -127 -129 -136 -137 0
-37 -68 -70 -82 -83 -95 -96 -107 -108 -118 -119 -127 -129 -136 -137 0
-37 -69 -70 -82 -84 -95 -96 -107 -108 -118 -119 -127 -129 -136 -137 0
-37 -69 -70 -83 -84 -95 -97 -107 -108 -118 -119 -127 -129 -136 -137 0
-37 -69 -70 -83 -84 -96 -97 -107 -109 -118 -119 -127 -129 -136 -137 0
-37 -69 -70 -83 -84 -96 -97 -108 -109 -118 -120 -127 -129 -136 -137 0
-37 -69 -70 -83 -84 -96 -97 -108 -109 -119 -120 -127 -130 -136 -137 0
-36 -68 -69 -82 -83 -95 -96 -107 -108 -118 -119 -128 -129 -136 -138 0
-37 -68 -70 -82 -83 -95 -96 -107 -108 -118 -119 -128 -129 -136 -138 0
-37 -69 -70 -82 -84 -95 -96 -107 -108 -118 -119 -128 -129 -136 -138 0
-37 -69 -70 -83 -84 -95 -97 -107 -108 -118 -119 -128 -129 -136 -138 0
-37 -69 -70 -83 -84 -96 -97 -107 -109 -118 -119 -128 -129 -136 -138 0
-37 -69 -70 -83 -84 -96 -97 -108 -109 -118 -120 -128 -129 -136 -138 0
-37 -69 -70 -83 -84 -96 -97 -108 -109 -119 -120 -128 -130 -136 -138 0
-37 -69 -70 -83 -84 -96 -97 -108 -109 -119 -120 -129 -130 -136 -139 0
-36 -68 -69 -82 -83 -95 -96 -107 -108 -118 -119 -128 -129 -137 -138 0
-37 -68 -70 -82 -83 -95 -96 -107 -108 -118 -119 -128 -129 -137 -138 0
-37 -69 -70 -82 -84 -95 -96 -107 -108 -118 -119 -128 -129 -137 -138 0
-37 -69 -70 -83 -84 -95 -97 -107 -108 -118 -119 -128 -129 -137 -138 0
-37 -69 -70 -83 -84 -96 -97 -107 -109 -118 -119 -128 -129 -137 -138 0
-37 -69 -70 -83 -84 -96 -97 -108 -109 -118 -120 -128 -129 -137 -138 0
-37 -69 -70 -83 -84 -96 -97 -108 -109 -119 -120 -128 -130 -137 -138 0
-37 -69 -70 -83 -84 -96 -97 -108 -109 -119 -120 -129 -130 -137 -139 0
-37 -69 -70 -83 -84 -96 -97 -108 -109 -119 -120 -129 -130 -138 -139 0
-36 -68 -69 -82 -83 -95 -96 -107 -108 -118 -119 -128 -129 -146 -147 0
-37 -68 -70 -82 -83 -95 -96 -107 -108 -118 -119 -128 -129 -146 -147 0
-37 -69 -70 -82 -84 -95 -96 -107 -108 -118 -119 -128 -129 -146 -147 0
-37 -69 -70 -83 -84 -95 -97 -107 -108 -118 -119 -128 -129 -146 -147 0
-37 -69 -70 -83 -84 -96 -97 -107 -109 -118 -119 -128 -129 -146 -147 0
-37 -69 -70 -83 -84 -96 -97 -108 -109 -118 -120 -128 -129 -146 -147 0
-37 -69 -70 -83 -84 -96 -97 -108 -109 -119 -120 -128 -130 -146 -147 0
-37 -69 -70 -83 -84 -96 -97 -108 -109 -119 -120 -129 -130 -146 -148 0
-37 -69 -70 -83 -84 -96 -97 -108 -109 -119 -120 -129 -130 -147 -148 0
-37 -69 -70 -83 -84 -96 -97 -108 -109 -119 -120 -129 -130 -155 -156 0
-36 -68 -69 -82 -83 -95 -96 -107 -108 -118 -119 -138 -139 -146 -147 0
-37 -68 -70 -82 -83 -95 -96 -107 -108 -118 -119 -138 -139 -146 -147 0
-37 -69 -70 -82 -84 -95 -96 -107 -108 -118 -119 -138 -139 -146 -147 0
-37 -69 -70 -83 -84 -95 -97 -107 -108 -118 -119 -138 -139 -146 -147 0
-37 -69 -70 -83 -84 -96 -97 -107 -109 -118 -119 -138 -139 -146 -147 0
-37 -69 -70 -83 -84 -96 -97 -108 -109 -118 -120 -138 -139 -146 -147 0
-37 -69 -70 -83 -84 -96 -97 -108 -109 -119 -120 -138 -140 -146 -147 0
-37 -69 -70 -83 -84 -96 -97 -108 -109 -119 -120 -139 -140 -146 -148 0
-37 -69 -70 -83 -84 -96 -97 -108 -109 -119 -120 -139 -140 -147 -148 0
-37 -69 -70 -83 -84 -96 -97 -108 -109 -119 -120 -139 -140 -155 -156 0
-37 -69 -70 -83 -84 -96 -97 -108 -109 -119 -120 -148 -149 -155 -156 0
-36 -68 -69 -82 -83 -95 -96 -107 -108 -129 -130 -138 -139 -146 -147 0
-37 -68 -70 -82 -83 -95 -96 -107 -108 -129 -130 -138 -139 -146 -147 0
-37 -69 -70 -82 -84 -95 -96 -107 -108 -129 -130 -138 -139 -146 -147 0
-37 -69 -70 -83 -84 -95 -97 -107 -108 -129 -130 -138 -139 -146 -147 0
-37 -69 -70 -83 -84 -96 -97 -107 -109 -129 -130 -138 -139 -146 -147 0
-37 -69 -70 -83 -84 -96 -97 -108 -109 -129 -131 -138 -139 -146 -147 0
-37 -69 -70 -83 -84 -96 -97 -108 -109 -130 -131 -138 -140 -146 -147 0
-37 -69 -70 -83 -84 -96 -97 -108 -109 -130 -131 -139 -140 -146 -148 0
-37 -69 -70 -83 -84 -96 -97 -108 -109 -130 -131 -139 -140 -147 -148 0
-37 -69 -70 -83 -84 -96 -97 -108 -109 -130 -131 -139 -140 -155 -156 0
-37 -69 -70 -83 -84 -96 -97 -108 -109 -130 -131 -148 -149 -155 -156 0
-37 -69 -70 -83 -84 -96 -97 -108 -109 -140 -141 -148 -149 -155 -156 0
-36 -68 -69 -82 -83 -95 -96 -119 -120 -129 -130 -138 -139 -146 -147 0
-37 -68 -70 -82 -83 -95 -96 -119 -120 -129 -130 -138 -139 -146 -147 0
-37 -69 -70 -82 -84 -95 -96 -119 -120 -129 -130 -138 -139 -146 -147 0
-37 -69 -70 -83 -84 -95 -97 -119 -120 -129 -130 -138 -139 -146 -147 0
-37 -69 -70 -83 -84 -96 -97 -119 -121 -129 -130 -138 -139 -146 -147 0
-37 -69 -70 -83 -84 -96 -97 -120 -121 -129 -131 -138 -139 -146 -147 0
-37 -69 -70 -83 -84 -96 -97 -120 -121 -130 -131 -138 -140 -146 -147 0
-37 -69 -70 -83 -84 -96 -97 -120 -121 -130 -131 -139 -140 -146 -148 0
-37 -69 -70 -83 -84 -96 -97 -120 -121 -130 -131 -139 -140 -147 -148 0
-37 -69 -70 -83 -84 -96 -97 -120 -121 -130 -131 -139 -140 -155 -156 0
-37 -69 -70 -83 -84 -96 -97 -120 -121 -130 -131 -148 -149 -155 -156 0
-37 -69 -70 -83 -84 -96 -97 -120 -121 -140 -141 -148 -149 -155 -156 0
-37 -69 -70 -83 -84 -96 -97 -131 -132 -140 -141 -148 -149 -155 -156 0
-36 -68 -69 -82 -83 -108 -109 -119 -120 -129 -130 -138 -139 -146 -147 0
-37 -68 -70 -82 -83 -108 -109 -119 -120 -129 -130 -138 -139 -146 -147 0
-37 -69 -70 -82 -84 -108 -109 -119 -120 -129 -130 -138 -139 -146 -147 0
-37 -69 -70 -83 -84 -108 -110 -119 -120 -129 -130 -138 -139 -146 -147 0
-37 -69 -70 -83 -84 -109 -110 -119 -121 -129 -130 -138 -139 -146 -147 0
-37 -69 -70 -83 -84 -109 -110 -120 -121 -129 -131 -138 -139 -146 -147 0
-37 -69 -70 -83 -84 -109 -110 -120 -121 -130 -131 -138 -140 -146 -147 0
-37 -69 -70 -83 -84 -109 -110 -120 -121 -130 -131 -139 -140 -146 -148 0
-37 -69 -70 -83 -84 -109 -110 -120 -121 -130 -131 -139 -140 -147 -148 0
-37 -69 -70 -83 -84 -109 -110 -120 -121 -130 -131 -139 -140 -155 -156 0
-37 -69 -70 -83 -84 -109 -110 -120 -121 -130 -131 -148 -149 -155 -156 0
-37 -69 -70 -83 -84 -109 -110 -120 -121 -140 -141 -148 -149 -155 -156 0
-37 -69 -70 -83 -84 -109 -110 -131 -132 -140 -141 -148 -149 -155 -156 0
-37 -69 -70 -83 -84 -121 -122 -131 -132 -140 -141 -148 -149 -155 -156 0
-36 -68 -69 -96 -97 -108 -109 -119 -120 -129 -130 -138 -139 -146 -147 0
-37 -68 -70 -96 -97 -108 -109 -119 -120 -129 -130 -138 -139 -146 -147 0
-37 -69 -70 -96 -98 -108 -109 -119 -120 -129 -130 -138 -139 -146 -147 0
-37 -69 -70 -97 -98 -108 -110 -119 -120 -129 -130 -138 -139 -146 -147 0
-37 -69 -70 -97 -98 -109 -110 -119 -121 -129 -130 -138 -139 -146 -147 0
-37 -69 -70 -97 -98 -109 -110 -120 -121 -129 -131 -138 -139 -146 -147 0
-37 -69 -70 -97 -98 -109 -110 -120 -121 -130 -131 -138 -140 -146 -147 0
-37 -69 -70 -97 -98 -109 -110 -120 -121 -130 -131 -139 -140 -146 -148 0
-37 -69 -70 -97 -98 -109 -110 -120 -121 -130 -131 -139 -140 -147 -148 0
-37 -69 -70 -97 -98 -109 -110 -120 -121 -130 -131 -139 -140 -155 -156 0
-37 -69 -70 -97 -98 -109 -110 -120 -121 -130 -131 -148 -149 -155 -156 0
-37 -69 -70 -97 -98 -109 -110 -120 -121 -140 -141 -148 -149 -155 -156 0
-37 -69 -70 -97 -98 -109 -110 -131 -132 -140 -141 -148 -149 -155 -156 0
-37 -69 -70 -97 -98 -121 -122 -131 -132 -140 -141 -148 -149 -155 -156 0
-37 -69 -70 -110 -111 -121 -122 -131 -132 -140 -141 -148 -149 -155 -156 0
-36 -83 -84 -96 -97 -108 -109 -119 -120 -129 -130 -138 -139 -146 -147 0
-37 -83 -85 -96 -97 -108 -109 -119 -120 -129 -130 -138 -139 -146 -147 0
-37 -84 -85 -96 -98 -108 -109 -119 -120 -129 -130 -138 -139 -146 -147 0
-37 -84 -85 -97 -98 -108 -110 -119 -120 -129 -130 -138 -139 -146 -147 0
-37 -84 -85 -97 -98 -109 -110 -119 -121 -129 -130 -138 -139 -146 -147 0
-37 -84 -85 -97 -98 -109 -110 -120 -121 -129 -131 -138 -139 -146 -147 0
-37 -84 -85 -97 -98 -109 -110 -120 -121 -130 -131 -138 -140 -146 -147 0
-37 -84 -85 -97 -98 -109 -110 -120 -121 -130 -131 -139 -140 -146 -148 0
-37 -84 -85 -97 -98 -109 -110 -120 -121 -130 -131 -139 -140 -147 -148 0
-37 -84 -85 -97 -98 -109 -110 -120 -121 -130 -131 -139 -140 -155 -156 0
-37 -84 -85 -97 -98 -109 -110 -120 -121 -130 -131 -148 -149 -155 -156 0
-37 -84 -85 -97 -98 -109 -110 -120 -121 -140 -141 -148 -149 -155 -156 0
-37 -84 -85 -97 -98 -109 -110 -131 -132 -140 -141 -148 -149 -155 -156 0
-37 -84 -85 -97 -98 -121 -122 -131 -132 -140 -141 -148 -149 -155 -156 0
-37 -84 -85 -110 -111 -121 -122 -131 -132 -140 -141 -148 -149 -155 -156 0
-37 -98 -99 -110 -111 -121 -122 -131 -132 -140 -141 -148 -149 -155 -156 0
-52 -67 -68 -81 -82 -94 -95 -106 -107 -117 -118 -127 -128 -136 -137 0
-53 -67 -69 -81 -82 -94 -95 -106 -107 -117 -118 -127 -128 -136 -137 0
-54 -67 -70 -81 -82 -94 -95 -106 -107 -117 -118 -127 -128 -136 -137 0
-53 -68 -69 -81 -83 -94 -95 -106 -107 -117 -118 -127 -128 -136 -137 0
-54 -68 -70 -81 -83 -94 -95 -106 -107 -117 -118 -127 -128 -136 -137 0
-54 -69 -70 -81 -84 -94 -95 -106 -107 -117 -118 -127 -128 -136 -137 0
-53 -68 -69 -82 -83 -94 -96 -106 -107 -117 -118 -127 -128 -136 -137 0
-54 -68 -70 -82 -83 -94 -96 -106 -107 -117 -118 -127 -128 -136 -137 0
-54 -69 -70 -82 -84 -94 -96 -106 -107 -117 -118 -127 -128 -136 -137 0
-54 -69 -70 -83 -84 -94 -97 -106 -107 -117 -118 -127 -128 -136 -137 0
-53 -68 -69 -82 -83 -95 -96 -106 -108 -117 -118 -127 -128 -136 -137 0
-54 -68 -70 -82 -83 -95 -96 -106 -108 -117 -118 -127 -128 -136 -137 0
-54 -69 -70 -82 -84 -95 -96 -106 -108 -117 -118 -127 -128 -136 -137 0
-54 -69 -70 -83 -84 -95 -97 -106 -108 -117 -118 -127 -128 -136 -137 0
-54 -69 -70 -83 -84 -96 -97 -106 -109 -117 -118 -127 -128 -136 -137 0
-53 -68 -69 -82 -83 -95 -96 -107 -108 -117 -119 -127 -128 -136 -137 0
-54 -68 -70 -82 -83 -95 -96 -107 -108 -117 -119 -127 -128 -136 -137 0
-54 -69 -70 -82 -84 -95 -96 -107 -108 -117 -119 -127 -128 -136 -137 0
-54 -69 -70 -83 -84 -95 -97 -107 -108 -117 -119 -127 -128 -136 -137 0
-54 -69 -70 -83 -84 -96 -97 -107 -109 -117 -119 -127 -128 -136 -137 0
-54 -69 -70 -83 -84 -96 -97 -108 -109 -117 -120 -127 -128 -136 -137 0
-53 -68 -69 -82 -83 -95 -96 -107 -108 -118 -119 -127 -129 -136 -137 0
-54 -68 -70 -82 -83 -95 -96 -107 -108 -118 -119 -127 -129 -136 -137 0
-54 -69 -70 -82 -84 -95 -96 -107 -108 -118 -119 -127 -129 -136 -137 0
-54 -69 -70 -83 -84 -95 -97 -107 -108 -118 -119 -127 -129 -136 -137 0
-54 -69 -70 -83 -84 -96 -97 -107 -109 -118 -119 -127 -129 -136 -137 0
-54 -69 -70 -83 -84 -96 -97 -108 -109 -118 -120 -127 -129 -136 -137 0
-54 -69 -70 -83 -84 -96 -97 -108 -109 -119 -120 -127 -130 -136 -137 0
-53 -68 -69 -82 -83 -95 -96 -107 -108 -118 -119 -128 -129 -136 -138 0
-54 -68 -70 -82 -83 -95 -96 -107 -108 -118 -119 -128 -129 -136 -138 0
-54 -69 -70 -82 -84 -95 -96 -107 -108 -118 -119 -128 -129 -136 -138 0
-54 -69 -70 -83 -84 -95 -97 -107 -108 -118 -119 -128 -129 -136 -138 0
-54 -69 -70 -83 -84 -96 -97 -107 -109 -118 -119 -128 -129 -136 -138 0
-54 -69 -70 -83 -84 -96 -97 -108 -109 -118 -120 -128 -129 -136 -138 0
-54 -69 -70 -83 -84 -96 -97 -108 -109 -119 -120 -128 -130 -136 -138 0
-54 -69 -70 -83 -84 -96 -97 -108 -109 -119 -120 -129 -130 -136 -139 0
-53 -68 -69 -82 -83 -95 -96 -107 -108 -118 -119 -128 -129 -137 -138 0
-54 -68 -70 -82 -83 -95 -96 -107 -108 -118 -119 -128 -129 -137 -138 0
-54 -69 -70 -82 -84 -95 -96 -107 -108 -118 -119 -128 -129 -137 -138 0
-54 -69 -70 -83 -84 -95 -97 -107 -108 -118 -119 -128 -129 -137 -138 0
-54 -69 -70 -83 -84 -96 -97 -107 -109 -118 -119 -128 -129 -137 -138 0
-54 -69 -70 -83 -84 -96 -97 -108 -109 -118 -120 -128 -129 -137 -138 0
-54 -69 -70 -83 -84 -96 -97 -108 -109 -119 -120 -128 -130 -137 -138 0
-54 -69 -70 -83 -84 -96 -97 -108 -109 -119 -120 -129 -130 -137 -139 0
-54 -69 -70 -83 -84 -96 -97 -108 -109 -119 -120 -129 -130 -138 -139 0
-53 -68 -69 -82 -83 -95 -96 -107 -108 -118 -119 -128 -129 -146 -147 0
-54 -68 -70 -82 -83 -95 -96 -107 -108 -118 -119 -128 -129 -146 -147 0
-54 -69 -70 -82 -84 -95 -96 -107 -108 -118 -119 -128 -129 -146 -147 0
-54 -69 -70 -83 -84 -95 -97 -107 -108 -118 -119 -128 -129 -146 -147 0
-54 -69 -70 -83 -84 -96 -97 -107 -109 -118 -119 -128 -129 -146 -147 0
-54 -69 -70 -83 -84 -96 -97 -108 -109 -118 -120 -128 -129 -146 -147 0
-54 -69 -70 -83 -84 -96 -97 -108 -109 -119 -120 -128 -130 -146 -147 0
-54 -69 -70 -83 -84 -96 -97 -108 -109 -119 -120 -129 -130 -146 -148 0
-54 -69 -70 -83 -84 -96 -97 -108 -109 -119 -120 -129 -130 -147 -148 0
-54 -69 -70 -83 -84 -96 -97 -108 -109 -119 -120 -129 -130 -155 -156 0
-53 -68 -69 -82 -83 -95 -96 -107 -108 -118 -119 -138 -139 -146 -147 0
-54 -68 -70 -82 -83 -95 -96 -107 -108 -118 -119 -138 -139 -146 -147 0
-54 -69 -70 -82 -84 -95 -96 -107 -108 -118 -119 -138 -139 -146 -147 0
-54 -69 -70 -83 -84 -95 -97 -107 -108 -118 -119 -138 -139 -146 -147 0
-54 -69 -70 -83 -84 -96 -97 -107 -109 -118 -119 -138 -139 -146 -147 0
-54 -69 -70 -83 -84 -96 -97 -108 -109 -118 -120 -138 -139 -146 -147 0
-54 -69 -70 -83 -84 -96 -97 -108 -109 -119 -120 -138 -140 -146 -147 0
-54 -69 -70 -83 -84 -96 -97 -108 -109 -119 -120 -139 -140 -146 -148 0
-54 -69 -70 -83 -84 -96 -97 -108 -109 -119 -120 -139 -140 -147 -148 0
-54 -69 -70 -83 -84 -96 -97 -108 -109 -119 -120 -139 -140 -155 -156 0
-54 -69 -70 -83 -84 -96 -97 -108 -109 -119 -120 -148 -149 -155 -156 0
-53 -68 -69 -82 -83 -95 -96 -107 -108 -129 -130 -138 -139 -146 -147 0
-54 -68 -70 -82 -83 -95 -96 -107 -108 -129 -130 -138 -139 -146 -147 0
-54 -69 -70 -82 -84 -95 -96 -107 -108 -129 -130 -138 -139 -146 -147 0
-54 -69 -70 -83 -84 -95 -97 -107 -108 -129 -130 -138 -139 -146 -147 0
-54 -69 -70 -83 -84 -96 -97 -107 -109 -129 -130 -138 -139 -146 -147 0
-54 -69 -70 -83 -84 -96 -97 -108 -109 -129 -131 -138 -139 -146 -147 0
-54 -69 -70 -83 -84 -96 -97 -108 -109 -130 -131 -138 -140 -146 -147 0
-54 -69 -70 -83 -84 -96 -97 -108 -109 -130 -131 -139 -140 -146 -148 0
-54 -69 -70 -83 -84 -96 -97 -108 -109 -130 -131 -139 -140 -147 -148 0
-54 -69 -70 -83 -84 -96 -97 -108 -109 -130 -131 -139 -140 -155 -156 0
-54 -69 -70 -83 -84 -96 -97 -108 -109 -130 -131 -148 -149 -155 -156 0
-54 -69 -70 -83 -84 -96 -97 -108 -109 -140 -141 -148 -149 -155 -156 0
-53 -68 -69 -82 -83 -95 -96 -119 -120 -129 -130 -138 -139 -146 -147 0
-54 -68 -70 -82 -83 -95 -96 -119 -120 -129 -130 -138 -139 -146 -147 0
-54 -69 -70 -82 -84 -95 -96 -119 -120 -129 -130 -138 -139 -146 -147 0
-54 -69 -70 -83 -84 -95 -97 -119 -120 -129 -130 -138 -139 -146 -147 0
-54 -69 -70 -83 -84 -96 -97 -119 -121 -129 -130 -138 -139 -146 -147 0
-54 -69 -70 -83 -84 -96 -97 -120 -121 -129 -131 -138 -139 -146 -147 0
-54 -69 -70 -83 -84 -96 -97 -120 -121 -130 -131 -138 -140 -146 -147 0
-54 -69 -70 -83 -84 -96 -97 -120 -121 -130 -131 -139 -140 -146 -148 0
-54 -69 -70 -83 -84 -96 -97 -120 -121 -130 -131 -139 -140 -147 -148 0
-54 -69 -70 -83 -84 -96 -97 -120 -121 -130 -131 -139 -140 -155 -156 0
-54 -69 -70 -83 -84 -96 -97 -120 -121 -130 -131 -148 -149 -155 -156 0
-54 -69 -70 -83 -84 -96 -97 -120 -121 -140 -141 -148 -149 -155 -156 0
-54 -69 -70 -83 -84 -96 -97 -131 -132 -140 -141 -148 -149 -155 -156 0
-53 -68 -69 -82 -83 -108 -109 -119 -120 -129 -130 -138 -139 -146 -147 0
-54 -68 -70 -82 -83 -108 -109 -119 -120 -129 -130 -138 -139 -146 -147 0
-54 -69 -70 -82 -84 -108 -109 -119 -120 -129 -130 -138 -139 -146 -147 0
-54 -69 -70 -83 -84 -108 -110 -119 -120 -129 -130 -138 -139 -146 -147 0
-54 -69 -70 -83 -84 -109 -110 -119 -121 -129 -130 -138 -139 -146 -147 0
-54 -69 -70 -83 -84 -109 -110 -120 -121 -129 -131 -138 -139 -146 -147 0
-54 -69 -70 -83 -84 -109 -110 -120 -121 -130 -131 -138 -140 -146 -147 0
-54 -69 -70 -83 -84 -109 -110 -120 -121 -130 -131 -139 -140 -146 -148 0
-54 -69 -70 -83 -84 -109 -110 -120 -121 -130 -131 -139 -140 -147 -148 0
-54 -69 -70 -83 -84 -109 -110 -120 -121 -130 -131 -139 -140 -155 -156 0
-54 -69 -70 -83 -84 -109 -110 -120 -121 -130 -131 -148 -149 -155 -156 0
-54 -69 -70 -83 -84 -109 -110 -120 -121 -140 -141 -148 -149 -155 -156 0
-54 -69 -70 -83 -84 -109 -110 -131 -132 -140 -141 -148 -149 -155 -156 0
-54 -69 -70 -83 -84 -121 -122 -131 -132 -140 -141 -148 -149 -155 -156 0
-53 -68 -69 -96 -97 -108 -109 -119 -120 -129 -130 -138 -139 -146 -147 0
-54 -68 -70 -96 -97 -108 -109 -119 -120 -129 -130 -138 -139 -146 -147 0
-54 -69 -70 -96 -98 -108 -109 -119 -120 -129 -130 -138 -139 -146 -147 0
-54 -69 -70 -97 -98 -108 -110 -119 -120 -129 -130 -138 -139 -146 -147 0
-54 -69 -70 -97 -98 -109 -110 -119 -121 -129 -130 -138 -139 -146 -147 0
-54 -69 -70 -97 -98 -109 -110 -120 -121 -129 -131 -138 -139 -146 -147 0
-54 -69 -70 -97 -98 -109 -110 -120 -121 -130 -131 -138 -140 -146 -147 0
-54 -69 -70 -97 -98 -109 -110 -120 -121 -130 -131 -139 -140 -146 -148 0
-54 -69 -70 -97 -98 -109 -110 -120 -121 -130 -131 -139 -140 -147 -148 0
-54 -69 -70 -97 -98 -109 -110 -120 -121 -130 -131 -139 -140 -155 -156 0
-54 -69 -70 -97 -98 -109 -110 -120 -121 -130 -131 -148 -149 -155 -156 0
-54 -69 -70 -97 -98 -109 -110 -120 -121 -140 -141 -148 -149 -155 -156 0
-54 -69 -70 -97 -98 -109 -110 -131 -132 -140 -141 -148 -149 -155 -156 0
-54 -69 -70 -97 -98 -121 -122 -131 -132 -140 -141 -148 -149 -155 -156 0
-54 -69 -70 -110 -111 -121 -122 -131 -132 -140 -141 -148 -149 -155 -156 0
-53 -83 -84 -96 -97 -108 -109 -119 -120 -129 -130 -138 -139 -146 -147 0
-54 -83 -85 -96 -97 -108 -109 -119 -120 -129 -130 -138 -139 -146 -147 0
-54 -84 -85 -96 -98 -108 -109 -119 -120 -129 -130 -138 -139 -146 -147 0
-54 -84 -85 -97 -98 -108 -110 -119 -120 -129 -130 -138 -139 -146 -147 0
-54 -84 -85 -97 -98 -109 -110 -119 -121 -129 -130 -138 -139 -146 -147 0
-54 -84 -85 -97 -98 -109 -110 -120 -121 -129 -131 -138 -139 -146 -147 0
-54 -84 -85 -97 -98 -109 -110 -120 -121 -130 -131 -138 -140 -146 -147 0
-54 -84 -85 -97 -98 -109 -110 -120 -121 -130 -131 -139 -140 -146 -148 0
-54 -84 -85 -97 -98 -109 -110 -120 -121 -130 -131 -139 -140 -147 -148 0
-54 -84 -85 -97 -98 -109 -110 -120 -121 -130 -131 -139 -140 -155 -156 0
-54 -84 -85 -97 -98 -109 -110 -120 -121 -130 -131 -148 -149 -155 -156 0
-54 -84 -85 -97 -98 -109 -110 -120 -121 -140 -141 -148 -149 -155 -156 0
-54 -84 -85 -97 -98 -109 -110 -131 -132 -140 -141 -148 -149 -155 -156 0
-54 -84 -85 -97 -98 -121 -122 -131 -132 -140 -141 -148 -149 -155 -156 0
-54 -84 -85 -110 -111 -121 -122 -131 -132 -140 -141 -148 -149 -155 -156 0
-54 -98 -99 -110 -111 -121 -122 -131 -132 -140 -141 -148 -149 -155 -156 0
-69 -83 -84 -96 -97 -108 -109 -119 -120 -129 -130 -138 -139 -146 -147 0
-70 -83 -85 -96 -97 -108 -109 -119 -120 -129 -130 -138 -139 -146 -147 0
-70 -84 -85 -96 -98 -108 -109 -119 -120 -129 -130 -138 -139 -146 -147 0
-70 -84 -85 -97 -98 -108 -110 -119 -120 -129 -130 -138 -139 -146 -147 0
-70 -84 -85 -97 -98 -109 -110 -119 -121 -129 -130 -138 -139 -146 -147 0
-70 -84 -85 -97 -98 -109 -110 -120 -121 -129 -131 -138 -139 -146 -147 0
-70 -84 -85 -97 -98 -109 -110 -120 -121 -130 -131 -138 -140 -146 -147 0
-70 -84 -85 -97 -98 -109 -110 -120 -121 -130 -131 -139 -140 -146 -148 0
-70 -84 -85 -97 -98 -109 -110 -120 -121 -130 -131 -139 -140 -147 -148 0
-70 -84 -85 -97 -98 -109 -110 -120 -121 -130 -131 -139 -140 -155 -156 0
-70 -84 -85 -97 -98 -109 -110 -120 -121 -130 -131 -148 -149 -155 -156 0
-70 -84 -85 -97 -98 -109 -110 -120 -121 -140 -141 -148 -149 -155 -156 0
-70 -84 -85 -97 -98 -109 -110 -131 -132 -140 -141 -148 -149 -155 -156 0
-70 -84 -85 -97 -98 -121 -122 -131 -132 -140 -141 -148 -149 -155 -156 0
-70 -84 -85 -110 -111 -121 -122 -131 -132 -140 -141 -148 -149 -155 -156 0
-70 -98 -99 -110 -111 -121 -122 -131 -132 -140 -141 -148 -149 -155 -156 0
-85 -98 -99 -110 -111 -121 -122 -131 -132 -140 -141 -148 -149 -155 -156 0
