c Ordered Ramsey CNF instance
c n = 17, N = 21
c Positive literal = blue edge
c Negative literal = red edge
p cnf 210 7315
1 2 0
1 3 0
1 4 0
1 5 0
1 6 0
1 7 0
1 8 0
1 9 0
1 10 0
1 11 0
1 12 0
1 13 0
1 14 0
1 15 0
1 16 0
1 17 0
1 18 0
1 19 0
1 20 0
2 3 0
2 4 0
2 5 0
2 6 0
2 7 0
2 8 0
2 9 0
2 10 0
2 11 0
2 12 0
2 13 0
2 14 0
2 15 0
2 16 0
2 17 0
2 18 0
2 19 0
2 20 0
3 4 0
3 5 0
3 6 0
3 7 0
3 8 0
3 9 0
3 10 0
3 11 0
3 12 0
3 13 0
3 14 0
3 15 0
3 16 0
3 17 0
3 18 0
3 19 0
3 20 0
4 5 0
4 6 0
4 7 0
4 8 0
4 9 0
4 10 0
4 11 0
4 12 0
4 13 0
4 14 0
4 15 0
4 16 0
4 17 0
4 18 0
4 19 0
4 20 0
5 6 0
5 7 0
5 8 0
5 9 0
5 10 0
5 11 0
5 12 0
5 13 0
5 14 0
5 15 0
5 16 0
5 17 0
5 18 0
5 19 0
5 20 0
6 7 0
6 8 0
6 9 0
6 10 0
6 11 0
6 12 0
6 13 0
6 14 0
6 15 0
6 16 0
6 17 0
6 18 0
6 19 0
6 20 0
7 8 0
7 9 0
7 10 0
7 11 0
7 12 0
7 13 0
7 14 0
7 15 0
7 16 0
7 17 0
7 18 0
7 19 0
7 20 0
8 9 0
8 10 0
8 11 0
8 12 0
8 13 0
8 14 0
8 15 0
8 16 0
8 17 0
8 18 0
8 19 0
8 20 0
9 10 0
9 11 0
9 12 0
9 13 0
9 14 0
9 15 0
9 16 0
9 17 0
9 18 0
9 19 0
9 20 0
10 11 0
10 12 0
10 13 0
10 14 0
10 15 0
10 16 0
10 17 0
10 18 0
10 19 0
10 20 0
11 12 0
11 13 0
11 14 0
11 15 0
11 16 0
11 17 0
11 18 0
11 19 0
11 20 0
12 13 0
12 14 0
12 15 0
12 16 0
12 17 0
12 18 0
12 19 0
12 20 0
13 14 0
13 15 0
13 16 0
13 17 0
13 18 0
13 19 0
13 20 0
14 15 0
14 16 0
14 17 0
14 18 0
14 19 0
14 20 0
15 16 0
15 17 0
15 18 0
15 19 0
15 20 0
16 17 0
16 18 0
16 19 0
16 20 0
17 18 0
17 19 0
17 20 0
18 19 0
18 20 0
19 20 0
21 22 0
21 23 0
21 24 0
21 25 0
21 26 0
21 27 0
21 28 0
21 29 0
21 30 0
21 31 0
21 32 0
21 33 0
21 34 0
21 35 0
21 36 0
21 37 0
21 38 0
21 39 0
22 23 0
22 24 0
22 25 0
22 26 0
22 27 0
22 28 0
22 29 0
22 30 0
22 31 0
22 32 0
22 33 0
22 34 0
22 35 0
22 36 0
22 37 0
22 38 0
22 39 0
23 24 0
23 25 0
23 26 0
23 27 0
23 28 0
23 29 0
23 30 0
23 31 0
23 32 0
23 33 0
23 34 0
23 35 0
23 36 0
23 37 0
23 38 0
23 39 0
24 25 0
24 26 0
24 27 0
24 28 0
24 29 0
24 30 0
24 31 0
24 32 0
24 33 0
24 34 0
24 35 0
24 36 0
24 37 0
24 38 0
24 39 0
25 26 0
25 27 0
25 28 0
25 29 0
25 30 0
25 31 0
25 32 0
25 33 0
25 34 0
25 35 0
25 36 0
25 37 0
25 38 0
25 39 0
26 27 0
26 28 0
26 29 0
26 30 0
26 31 0
26 32 0
26 33 0
26 34 0
26 35 0
26 36 0
26 37 0
26 38 0
26 39 0
27 28 0
27 29 0
27 30 0
27 31 0
27 32 0
27 33 0
27 34 0
27 35 0
27 36 0
27 37 0
27 38 0
27 39 0
28 29 0
28 30 0
28 31 0
28 32 0
28 33 0
28 34 0
28 35 0
28 36 0
28 37 0
28 38 0
28 39 0
29 30 0
29 31 0
29 32 0
29 33 0
29 34 0
29 35 0
29 36 0
29 37 0
29 38 0
29 39 0
30 31 0
30 32 0
30 33 0
30 34 0
30 35 0
30 36 0
30 37 0
30 38 0
30 39 0
31 32 0
31 33 0
31 34 0
31 35 0
31 36 0
31 37 0
31 38 0
31 39 0
32 33 0
32 34 0
32 35 0
32 36 0
32 37 0
32 38 0
32 39 0
33 34 0
33 35 0
33 36 0
33 37 0
33 38 0
33 39 0
34 35 0
34 36 0
34 37 0
34 38 0
34 39 0
35 36 0
35 37 0
35 38 0
35 39 0
36 37 0
36 38 0
36 39 0
37 38 0
37 39 0
38 39 0
40 41 0
40 42 0
40 43 0
40 44 0
40 45 0
40 46 0
40 47 0
40 48 0
40 49 0
40 50 0
40 51 0
40 52 0
40 53 0
40 54 0
40 55 0
40 56 0
40 57 0
41 42 0
41 43 0
41 44 0
41 45 0
41 46 0
41 47 0
41 48 0
41 49 0
41 50 0
41 51 0
41 52 0
41 53 0
41 54 0
41 55 0
41 56 0
41 57 0
42 43 0
42 44 0
42 45 0
42 46 0
42 47 0
42 48 0
42 49 0
42 50 0
42 51 0
42 52 0
42 53 0
42 54 0
42 55 0
42 56 0
42 57 0
43 44 0
43 45 0
43 46 0
43 47 0
43 48 0
43 49 0
43 50 0
43 51 0
43 52 0
43 53 0
43 54 0
43 55 0
43 56 0
43 57 0
44 45 0
44 46 0
44 47 0
44 48 0
44 49 0
44 50 0
44 51 0
44 52 0
44 53 0
44 54 0
44 55 0
44 56 0
44 57 0
45 46 0
45 47 0
45 48 0
45 49 0
45 50 0
45 51 0
45 52 0
45 53 0
45 54 0
45 55 0
45 56 0
45 57 0
46 47 0
46 48 0
46 49 0
46 50 0
46 51 0
46 52 0
46 53 0
46 54 0
46 55 0
46 56 0
46 57 0
47 48 0
47 49 0
47 50 0
47 51 0
47 52 0
47 53 0
47 54 0
47 55 0
47 56 0
47 57 0
48 49 0
48 50 0
48 51 0
48 52 0
48 53 0
48 54 0
48 55 0
48 56 0
48 57 0
49 50 0
49 51 0
49 52 0
49 53 0
49 54 0
49 55 0
49 56 0
49 57 0
50 51 0
50 52 0
50 53 0
50 54 0
50 55 0
50 56 0
50 57 0
51 52 0
51 53 0
51 54 0
51 55 0
51 56 0
51 57 0
52 53 0
52 54 0
52 55 0
52 56 0
52 57 0
53 54 0
53 55 0
53 56 0
53 57 0
54 55 0
54 56 0
54 57 0
55 56 0
55 57 0
56 57 0
58 59 0
58 60 0
58 61 0
58 62 0
58 63 0
58 64 0
58 65 0
58 66 0
58 67 0
58 68 0
58 69 0
58 70 0
58 71 0
58 72 0
58 73 0
58 74 0
59 60 0
59 61 0
59 62 0
59 63 0
59 64 0
59 65 0
59 66 0
59 67 0
59 68 0
59 69 0
59 70 0
59 71 0
59 72 0
59 73 0
59 74 0
60 61 0
60 62 0
60 63 0
60 64 0
60 65 0
60 66 0
60 67 0
60 68 0
60 69 0
60 70 0
60 71 0
60 72 0
60 73 0
60 74 0
61 62 0
61 63 0
61 64 0
61 65 0
61 66 0
61 67 0
61 68 0
61 69 0
61 70 0
61 71 0
61 72 0
61 73 0
61 74 0
62 63 0
62 64 0
62 65 0
62 66 0
62 67 0
62 68 0
62 69 0
62 70 0
62 71 0
62 72 0
62 73 0
62 74 0
63 64 0
63 65 0
63 66 0
63 67 0
63 68 0
63 69 0
63 70 0
63 71 0
63 72 0
63 73 0
63 74 0
64 65 0
64 66 0
64 67 0
64 68 0
64 69 0
64 70 0
64 71 0
64 72 0
64 73 0
64 74 0
65 66 0
65 67 0
65 68 0
65 69 0
65 70 0
65 71 0
65 72 0
65 73 0
65 74 0
66 67 0
66 68 0
66 69 0
66 70 0
66 71 0
66 72 0
66 73 0
66 74 0
67 68 0
67 69 0
67 70 0
67 71 0
67 72 0
67 73 0
67 74 0
68 69 0
68 70 0
68 71 0
68 72 0
68 73 0
68 74 0
69 70 0
69 71 0
69 72 0
69 73 0
69 74 0
70 71 0
70 72 0
70 73 0
70 74 0
71 72 0
71 73 0
71 74 0
72 73 0
72 74 0
73 74 0
75 76 0
75 77 0
75 78 0
75 79 0
75 80 0
75 81 0
75 82 0
75 83 0
75 84 0
75 85 0
75 86 0
75 87 0
75 88 0
75 89 0
75 90 0
76 77 0
76 78 0
76 79 0
76 80 0
76 81 0
76 82 0
76 83 0
76 84 0
76 85 0
76 86 0
76 87 0
76 88 0
76 89 0
76 90 0
77 78 0
77 79 0
77 80 0
77 81 0
77 82 0
77 83 0
77 84 0
77 85 0
77 86 0
77 87 0
77 88 0
77 89 0
77 90 0
78 79 0
78 80 0
78 81 0
78 82 0
78 83 0
78 84 0
78 85 0
78 86 0
78 87 0
78 88 0
78 89 0
78 90 0
79 80 0
79 81 0
79 82 0
79 83 0
79 84 0
79 85 0
79 86 0
79 87 0
79 88 0
79 89 0
79 90 0
80 81 0
80 82 0
80 83 0
80 84 0
80 85 0
80 86 0
80 87 0
80 88 0
80 89 0
80 90 0
81 82 0
81 83 0
81 84 0
81 85 0
81 86 0
81 87 0
81 88 0
81 89 0
81 90 0
82 83 0
82 84 0
82 85 0
82 86 0
82 87 0
82 88 0
82 89 0
82 90 0
83 84 0
83 85 0
83 86 0
83 87 0
83 88 0
83 89 0
83 90 0
84 85 0
84 86 0
84 87 0
84 88 0
84 89 0
84 90 0
85 86 0
85 87 0
85 88 0
85 89 0
85 90 0
86 87 0
86 88 0
86 89 0
86 90 0
87 88 0
87 89 0
87 90 0
88 89 0
88 90 0
89 90 0
91 92 0
91 93 0
91 94 0
91 95 0
91 96 0
91 97 0
91 98 0
91 99 0
91 100 0
91 101 0
91 102 0
91 103 0
91 104 0
91 105 0
92 93 0
92 94 0
92 95 0
92 96 0
92 97 0
92 98 0
92 99 0
92 100 0
92 101 0
92 102 0
92 103 0
92 104 0
92 105 0
93 94 0
93 95 0
93 96 0
93 97 0
93 98 0
93 99 0
93 100 0
93 101 0
93 102 0
93 103 0
93 104 0
93 105 0
94 95 0
94 96 0
94 97 0
94 98 0
94 99 0
94 100 0
94 101 0
94 102 0
94 103 0
94 104 0
94 105 0
95 96 0
95 97 0
95 98 0
95 99 0
95 100 0
95 101 0
95 102 0
95 103 0
95 104 0
95 105 0
96 97 0
96 98 0
96 99 0
96 100 0
96 101 0
96 102 0
96 103 0
96 104 0
96 105 0
97 98 0
97 99 0
97 100 0
97 101 0
97 102 0
97 103 0
97 104 0
97 105 0
98 99 0
98 100 0
98 101 0
98 102 0
98 103 0
98 104 0
98 105 0
99 100 0
99 101 0
99 102 0
99 103 0
99 104 0
99 105 0
100 101 0
100 102 0
100 103 0
100 104 0
100 105 0
101 102 0
101 103 0
101 104 0
101 105 0
102 103 0
102 104 0
102 105 0
103 104 0
103 105 0
104 105 0
106 107 0
106 108 0
106 109 0
106 110 0
106 111 0
106 112 0
106 113 0
106 114 0
106 115 0
106 116 0
106 117 0
106 118 0
106 119 0
107 108 0
107 109 0
107 110 0
107 111 0
107 112 0
107 113 0
107 114 0
107 115 0
107 116 0
107 117 0
107 118 0
107 119 0
108 109 0
108 110 0
108 111 0
108 112 0
108 113 0
108 114 0
108 115 0
108 116 0
108 117 0
108 118 0
108 119 0
109 110 0
109 111 0
109 112 0
109 113 0
109 114 0
109 115 0
109 116 0
109 117 0
109 118 0
109 119 0
110 111 0
110 112 0
110 113 0
110 114 0
110 115 0
110 116 0
110 117 0
110 118 0
110 119 0
111 112 0
111 113 0
111 114 0
111 115 0
111 116 0
111 117 0
111 118 0
111 119 0
112 113 0
112 114 0
112 115 0
112 116 0
112 117 0
112 118 0
112 119 0
113 114 0
113 115 0
113 116 0
113 117 0
113 118 0
113 119 0
114 115 0
114 116 0
114 117 0
114 118 0
114 119 0
115 116 0
115 117 0
115 118 0
115 119 0
116 117 0
116 118 0
116 119 0
117 118 0
117 119 0
118 119 0
120 121 0
120 122 0
120 123 0
120 124 0
120 125 0
120 126 0
120 127 0
120 128 0
120 129 0
120 130 0
120 131 0
120 132 0
121 122 0
121 123 0
121 124 0
121 125 0
121 126 0
121 127 0
121 128 0
121 129 0
121 130 0
121 131 0
121 132 0
122 123 0
122 124 0
122 125 0
122 126 0
122 127 0
122 128 0
122 129 0
122 130 0
122 131 0
122 132 0
123 124 0
123 125 0
123 126 0
123 127 0
123 128 0
123 129 0
123 130 0
123 131 0
123 132 0
124 125 0
124 126 0
124 127 0
124 128 0
124 129 0
124 130 0
124 131 0
124 132 0
125 126 0
125 127 0
125 128 0
125 129 0
125 130 0
125 131 0
125 132 0
126 127 0
126 128 0
126 129 0
126 130 0
126 131 0
126 132 0
127 128 0
127 129 0
127 130 0
127 131 0
127 132 0
128 129 0
128 130 0
128 131 0
128 132 0
129 130 0
129 131 0
129 132 0
130 131 0
130 132 0
131 132 0
133 134 0
133 135 0
133 136 0
133 137 0
133 138 0
133 139 0
133 140 0
133 141 0
133 142 0
133 143 0
133 144 0
134 135 0
134 136 0
134 137 0
134 138 0
134 139 0
134 140 0
134 141 0
134 142 0
134 143 0
134 144 0
135 136 0
135 137 0
135 138 0
135 139 0
135 140 0
135 141 0
135 142 0
135 143 0
135 144 0
136 137 0
136 138 0
136 139 0
136 140 0
136 141 0
136 142 0
136 143 0
136 144 0
137 138 0
137 139 0
137 140 0
137 141 0
137 142 0
137 143 0
137 144 0
138 139 0
138 140 0
138 141 0
138 142 0
138 143 0
138 144 0
139 140 0
139 141 0
139 142 0
139 143 0
139 144 0
140 141 0
140 142 0
140 143 0
140 144 0
141 142 0
141 143 0
141 144 0
142 143 0
142 144 0
143 144 0
145 146 0
145 147 0
145 148 0
145 149 0
145 150 0
145 151 0
145 152 0
145 153 0
145 154 0
145 155 0
146 147 0
146 148 0
146 149 0
146 150 0
146 151 0
146 152 0
146 153 0
146 154 0
146 155 0
147 148 0
147 149 0
147 150 0
147 151 0
147 152 0
147 153 0
147 154 0
147 155 0
148 149 0
148 150 0
148 151 0
148 152 0
148 153 0
148 154 0
148 155 0
149 150 0
149 151 0
149 152 0
149 153 0
149 154 0
149 155 0
150 151 0
150 152 0
150 153 0
150 154 0
150 155 0
151 152 0
151 153 0
151 154 0
151 155 0
152 153 0
152 154 0
152 155 0
153 154 0
153 155 0
154 155 0
156 157 0
156 158 0
156 159 0
156 160 0
156 161 0
156 162 0
156 163 0
156 164 0
156 165 0
157 158 0
157 159 0
157 160 0
157 161 0
157 162 0
157 163 0
157 164 0
157 165 0
158 159 0
158 160 0
158 161 0
158 162 0
158 163 0
158 164 0
158 165 0
159 160 0
159 161 0
159 162 0
159 163 0
159 164 0
159 165 0
160 161 0
160 162 0
160 163 0
160 164 0
160 165 0
161 162 0
161 163 0
161 164 0
161 165 0
162 163 0
162 164 0
162 165 0
163 164 0
163 165 0
164 165 0
166 167 0
166 168 0
166 169 0
166 170 0
166 171 0
166 172 0
166 173 0
166 174 0
167 168 0
167 169 0
167 170 0
167 171 0
167 172 0
167 173 0
167 174 0
168 169 0
168 170 0
168 171 0
168 172 0
168 173 0
168 174 0
169 170 0
169 171 0
169 172 0
169 173 0
169 174 0
170 171 0
170 172 0
170 173 0
170 174 0
171 172 0
171 173 0
171 174 0
172 173 0
172 174 0
173 174 0
175 176 0
175 177 0
175 178 0
175 179 0
175 180 0
175 181 0
175 182 0
176 177 0
176 178 0
176 179 0
176 180 0
176 181 0
176 182 0
177 178 0
177 179 0
177 180 0
177 181 0
177 182 0
178 179 0
178 180 0
178 181 0
178 182 0
179 180 0
179 181 0
179 182 0
180 181 0
180 182 0
181 182 0
183 184 0
183 185 0
183 186 0
183 187 0
183 188 0
183 189 0
184 185 0
184 186 0
184 187 0
184 188 0
184 189 0
185 186 0
185 187 0
185 188 0
185 189 0
186 187 0
186 188 0
186 189 0
187 188 0
187 189 0
188 189 0
190 191 0
190 192 0
190 193 0
190 194 0
190 195 0
191 192 0
191 193 0
191 194 0
191 195 0
192 193 0
192 194 0
192 195 0
193 194 0
193 195 0
194 195 0
196 197 0
196 198 0
196 199 0
196 200 0
197 198 0
197 199 0
197 200 0
198 199 0
198 200 0
199 200 0
201 202 0
201 203 0
201 204 0
202 203 0
202 204 0
203 204 0
205 206 0
205 207 0
206 207 0
208 209 0
-16 -34 -35 -51 -52 -67 -68 -82 -83 -96 -97 -109 -110 -121 -122 -133 0
-17 -34 -36 -51 -52 -67 -68 -82 -83 -96 -97 -109 -110 -121 -122 -133 0
-18 -34 -37 -51 -52 -67 -68 -82 -83 -96 -97 -109 -110 -121 -122 -133 0
-19 -34 -38 -51 -52 -67 -68 -82 -83 -96 -97 -109 -110 -121 -122 -133 0
-20 -34 -39 -51 -52 -67 -68 -82 -83 -96 -97 -109 -110 -121 -122 -133 0
-17 -35 -36 -51 -53 -67 -68 -82 -83 -96 -97 -109 -110 -121 -122 -133 0
-18 -35 -37 -51 -53 -67 -68 -82 -83 -96 -97 -109 -110 -121 -122 -133 0
-19 -35 -38 -51 -53 -67 -68 -82 -83 -96 -97 -109 -110 -121 -122 -133 0
-20 -35 -39 -51 -53 -67 -68 -82 -83 -96 -97 -109 -110 -121 -122 -133 0
-18 -36 -37 -51 -54 -67 -68 -82 -83 -96 -97 -109 -110 -121 -122 -133 0
-19 -36 -38 -51 -54 -67 -68 -82 -83 -96 -97 -109 -110 -121 -122 -133 0
-20 -36 -39 -51 -54 -67 -68 -82 -83 -96 -97 -109 -110 -121 -122 -133 0
-19 -37 -38 -51 -55 -67 -68 -82 -83 -96 -97 -109 -110 -121 -122 -133 0
-20 -37 -39 -51 -55 -67 -68 -82 -83 -96 -97 -109 -110 -121 -122 -133 0
-20 -38 -39 -51 -56 -67 -68 -82 -83 -96 -97 -109 -110 -121 -122 -133 0
-17 -35 -36 -52 -53 -67 -69 -82 -83 -96 -97 -109 -110 -121 -122 -133 0
-18 -35 -37 -52 -53 -67 -69 -82 -83 -96 -97 -109 -110 -121 -122 -133 0
-19 -35 -38 -52 -53 -67 -69 -82 -83 -96 -97 -109 -110 -121 -122 -133 0
-20 -35 -39 -52 -53 -67 -69 -82 -83 -96 -97 -109 -110 -121 -122 -133 0
-18 -36 -37 -52 -54 -67 -69 -82 -83 -96 -97 -109 -110 -121 -122 -133 0
-19 -36 -38 -52 -54 -67 -69 -82 -83 -96 -97 -109 -110 -121 -122 -133 0
-20 -36 -39 -52 -54 -67 -69 -82 -83 -96 -97 -109 -110 -121 -122 -133 0
-19 -37 -38 -52 -55 -67 -69 -82 -83 -96 -97 -109 -110 -121 -122 -133 0
-20 -37 -39 -52 -55 -67 -69 -82 -83 -96 -97 -109 -110 -121 -122 -133 0
-20 -38 -39 -52 -56 -67 -69 -82 -83 -96 -97 -109 -110 -121 -122 -133 0
-18 -36 -37 -53 -54 -67 -70 -82 -83 -96 -97 -109 -110 -121 -122 -133 0
-19 -36 -38 -53 -54 -67 -70 -82 -83 -96 -97 -109 -110 -121 -122 -133 0
-20 -36 -39 -53 -54 -67 -70 -82 -83 -96 -97 -109 -110 -121 -122 -133 0
-19 -37 -38 -53 -55 -67 -70 -82 -83 -96 -97 -109 -110 -121 -122 -133 0
-20 -37 -39 -53 -55 -67 -70 -82 -83 -96 -97 -109 -110 -121 -122 -133 0
-20 -38 -39 -53 -56 -67 -70 -82 -83 -96 -97 -109 -110 -121 -122 -133 0
-19 -37 -38 -54 -55 -67 -71 -82 -83 -96 -97 -109 -110 -121 -122 -133 0
-20 -37 -39 -54 -55 -67 -71 -82 -83 -96 -97 -109 -110 -121 -122 -133 0
-20 -38 -39 -54 -56 -67 -71 -82 -83 -96 -97 -109 -110 -121 -122 -133 0
-20 -38 -39 -55 -56 -67 -72 -82 -83 -96 -97 -109 -110 -121 -122 -133 0
-17 -35 -36 -52 -53 -68 -69 -82 -84 -96 -97 -109 -110 -121 -122 -133 0
-18 -35 -37 -52 -53 -68 -69 -82 -84 -96 -97 -109 -110 -121 -122 -133 0
-19 -35 -38 -52 -53 -68 -69 -82 -84 -96 -97 -109 -110 -121 -122 -133 0
-20 -35 -39 -52 -53 -68 -69 -82 -84 -96 -97 -109 -110 -121 -122 -133 0
-18 -36 -37 -52 -54 -68 -69 -82 -84 -96 -97 -109 -110 -121 -122 -133 0
-19 -36 -38 -52 -54 -68 -69 -82 -84 -96 -97 -109 -110 -121 -122 -133 0
-20 -36 -39 -52 -54 -68 -69 -82 -84 -96 -97 -109 -110 -121 -122 -133 0
-19 -37 -38 -52 -55 -68 -69 -82 -84 -96 -97 -109 -110 -121 -122 -133 0
-20 -37 -39 -52 -55 -68 -69 -82 -84 -96 -97 -109 -110 -121 -122 -133 0
-20 -38 -39 -52 -56 -68 -69 -82 -84 -96 -97 -109 -110 -121 -122 -133 0
-18 -36 -37 -53 -54 -68 -70 -82 -84 -96 -97 -109 -110 -121 -122 -133 0
-19 -36 -38 -53 -54 -68 -70 -82 -84 -96 -97 -109 -110 -121 -122 -133 0
-20 -36 -39 -53 -54 -68 -70 -82 -84 -96 -97 -109 -110 -121 -122 -133 0
-19 -37 -38 -53 -55 -68 -70 -82 -84 -96 -97 -109 -110 -121 -122 -133 0
-20 -37 -39 -53 -55 -68 -70 -82 -84 -96 -97 -109 -110 -121 -122 -133 0
-20 -38 -39 -53 -56 -68 -70 -82 -84 -96 -97 -109 -110 -121 -122 -133 0
-19 -37 -38 -54 -55 -68 -71 -82 -84 -96 -97 -109 -110 -121 -122 -133 0
-20 -37 -39 -54 -55 -68 -71 -82 -84 -96 -97 -109 -110 -121 -122 -133 0
-20 -38 -39 -54 -56 -68 -71 -82 -84 -96 -97 -109 -110 -121 -122 -133 0
-20 -38 -39 -55 -56 -68 -72 -82 -84 -96 -97 -109 -110 -121 -122 -133 0
-18 -36 -37 -53 -54 -69 -70 -82 -85 -96 -97 -109 -110 -121 -122 -133 0
-19 -36 -38 -53 -54 -69 -70 -82 -85 -96 -97 -109 -110 -121 -122 -133 0
-20 -36 -39 -53 -54 -69 -70 -82 -85 -96 -97 -109 -110 -121 -122 -133 0
-19 -37 -38 -53 -55 -69 -70 -82 -85 -96 -97 -109 -110 -121 -122 -133 0
-20 -37 -39 -53 -55 -69 -70 -82 -85 -96 -97 -109 -110 -121 -122 -133 0
-20 -38 -39 -53 -56 -69 -70 -82 -85 -96 -97 -109 -110 -121 -122 -133 0
-19 -37 -38 -54 -55 -69 -71 -82 -85 -96 -97 -109 -110 -121 -122 -133 0
-20 -37 -39 -54 -55 -69 -71 -82 -85 -96 -97 -109 -110 -121 -122 -133 0
-20 -38 -39 -54 -56 -69 -71 -82 -85 -96 -97 -109 -110 -121 -122 -133 0
-20 -38 -39 -55 -56 -69 -72 -82 -85 -96 -97 -109 -110 -121 -122 -133 0
-19 -37 -38 -54 -55 -70 -71 -82 -86 -96 -97 -109 -110 -121 -122 -133 0
-20 -37 -39 -54 -55 -70 -71 -82 -86 -96 -97 -109 -110 -121 -122 -133 0
-20 -38 -39 -54 -56 -70 -71 -82 -86 -96 -97 -109 -110 -121 -122 -133 0
-20 -38 -39 -55 -56 -70 -72 -82 -86 -96 -97 -109 -110 -121 -122 -133 0
-20 -38 -39 -55 -56 -71 -72 -82 -87 -96 -97 -109 -110 -121 -122 -133 0
-17 -35 -36 -52 -53 -68 -69 -83 -84 -96 -98 -109 -110 -121 -122 -133 0
-18 -35 -37 -52 -53 -68 -69 -83 -84 -96 -98 -109 -110 -121 -122 -133 0
-19 -35 -38 -52 -53 -68 -69 -83 -84 -96 -98 -109 -110 -121 -122 -133 0
-20 -35 -39 -52 -53 -68 -69 -83 -84 -96 -98 -109 -110 -121 -122 -133 0
-18 -36 -37 -52 -54 -68 -69 -83 -84 -96 -98 -109 -110 -121 -122 -133 0
-19 -36 -38 -52 -54 -68 -69 -83 -84 -96 -98 -109 -110 -121 -122 -133 0
-20 -36 -39 -52 -54 -68 -69 -83 -84 -96 -98 -109 -110 -121 -122 -133 0
-19 -37 -38 -52 -55 -68 -69 -83 -84 -96 -98 -109 -110 -121 -122 -133 0
-20 -37 -39 -52 -55 -68 -69 -83 -84 -96 -98 -109 -110 -121 -122 -133 0
-20 -38 -39 -52 -56 -68 -69 -83 -84 -96 -98 -109 -110 -121 -122 -133 0
-18 -36 -37 -53 -54 -68 -70 -83 -84 -96 -98 -109 -110 -121 -122 -133 0
-19 -36 -38 -53 -54 -68 -70 -83 -84 -96 -98 -109 -110 -121 -122 -133 0
-20 -36 -39 -53 -54 -68 -70 -83 -84 -96 -98 -109 -110 -121 -122 -133 0
-19 -37 -38 -53 -55 -68 -70 -83 -84 -96 -98 -109 -110 -121 -122 -133 0
-20 -37 -39 -53 -55 -68 -70 -83 -84 -96 -98 -109 -110 -121 -122 -133 0
-20 -38 -39 -53 -56 -68 -70 -83 -84 -96 -98 -109 -110 -121 -122 -133 0
-19 -37 -38 -54 -55 -68 -71 -83 -84 -96 -98 -109 -110 -121 -122 -133 0
-20 -37 -39 -54 -55 -68 -71 -83 -84 -96 -98 -109 -110 -121 -122 -133 0
-20 -38 -39 -54 -56 -68 -71 -83 -84 -96 -98 -109 -110 -121 -122 -133 0
-20 -38 -39 -55 -56 -68 -72 -83 -84 -96 -98 -109 -110 -121 -122 -133 0
-18 -36 -37 -53 -54 -69 -70 -83 -85 -96 -98 -109 -110 -121 -122 -133 0
-19 -36 -38 -53 -54 -69 -70 -83 -85 -96 -98 -109 -110 -121 -122 -133 0
-20 -36 -39 -53 -54 -69 -70 -83 -85 -96 -98 -109 -110 -121 -122 -133 0
-19 -37 -38 -53 -55 -69 -70 -83 -85 -96 -98 -109 -110 -121 -122 -133 0
-20 -37 -39 -53 -55 -69 -70 -83 -85 -96 -98 -109 -110 -121 -122 -133 0
-20 -38 -39 -53 -56 -69 -70 -83 -85 -96 -98 -109 -110 -121 -122 -133 0
-19 -37 -38 -54 -55 -69 -71 -83 -85 -96 -98 -109 -110 -121 -122 -133 0
-20 -37 -39 -54 -55 -69 -71 -83 -85 -96 -98 -109 -110 -121 -122 -133 0
-20 -38 -39 -54 -56 -69 -71 -83 -85 -96 -98 -109 -110 -121 -122 -133 0
-20 -38 -39 -55 -56 -69 -72 -83 -85 -96 -98 -109 -110 -121 -122 -133 0
-19 -37 -38 -54 -55 -70 -71 -83 -86 -96 -98 -109 -110 -121 -122 -133 0
-20 -37 -39 -54 -55 -70 -71 -83 -86 -96 -98 -109 -110 -121 -122 -133 0
-20 -38 -39 -54 -56 -70 -71 -83 -86 -96 -98 -109 -110 -121 -122 -133 0
-20 -38 -39 -55 -56 -70 -72 -83 -86 -96 -98 -109 -110 -121 -122 -133 0
-20 -38 -39 -55 -56 -71 -72 -83 -87 -96 -98 -109 -110 -121 -122 -133 0
-18 -36 -37 -53 -54 -69 -70 -84 -85 -96 -99 -109 -110 -121 -122 -133 0
-19 -36 -38 -53 -54 -69 -70 -84 -85 -96 -99 -109 -110 -121 -122 -133 0
-20 -36 -39 -53 -54 -69 -70 -84 -85 -96 -99 -109 -110 -121 -122 -133 0
-19 -37 -38 -53 -55 -69 -70 -84 -85 -96 -99 -109 -110 -121 -122 -133 0
-20 -37 -39 -53 -55 -69 -70 -84 -85 -96 -99 -109 -110 -121 -122 -133 0
-20 -38 -39 -53 -56 -69 -70 -84 -85 -96 -99 -109 -110 -121 -122 -133 0
-19 -37 -38 -54 -55 -69 -71 -84 -85 -96 -99 -109 -110 -121 -122 -133 0
-20 -37 -39 -54 -55 -69 -71 -84 -85 -96 -99 -109 -110 -121 -122 -133 0
-20 -38 -39 -54 -56 -69 -71 -84 -85 -96 -99 -109 -110 -121 -122 -133 0
-20 -38 -39 -55 -56 -69 -72 -84 -85 -96 -99 -109 -110 -121 -122 -133 0
-19 -37 -38 -54 -55 -70 -71 -84 -86 -96 -99 -109 -110 -121 -122 -133 0
-20 -37 -39 -54 -55 -70 -71 -84 -86 -96 -99 -109 -110 -121 -122 -133 0
-20 -38 -39 -54 -56 -70 -71 -84 -86 -96 -99 -109 -110 -121 -122 -133 0
-20 -38 -39 -55 -56 -70 -72 -84 -86 -96 -99 -109 -110 -121 -122 -133 0
-20 -38 -39 -55 -56 -71 -72 -84 -87 -96 -99 -109 -110 -121 -122 -133 0
-19 -37 -38 -54 -55 -70 -71 -85 -86 -96 -100 -109 -110 -121 -122 -133 0
-20 -37 -39 -54 -55 -70 -71 -85 -86 -96 -100 -109 -110 -121 -122 -133 0
-20 -38 -39 -54 -56 -70 -71 -85 -86 -96 -100 -109 -110 -121 -122 -133 0
-20 -38 -39 -55 -56 -70 -72 -85 -86 -96 -100 -109 -110 -121 -122 -133 0
-20 -38 -39 -55 -56 -71 -72 -85 -87 -96 -100 -109 -110 -121 -122 -133 0
-20 -38 -39 -55 -56 -71 -72 -86 -87 -96 -101 -109 -110 -121 -122 -133 0
-17 -35 -36 -52 -53 -68 -69 -83 -84 -97 -98 -109 -111 -121 -122 -133 0
-18 -35 -37 -52 -53 -68 -69 -83 -84 -97 -98 -109 -111 -121 -122 -133 0
-19 -35 -38 -52 -53 -68 -69 -83 -84 -97 -98 -109 -111 -121 -122 -133 0
-20 -35 -39 -52 -53 -68 -69 -83 -84 -97 -98 -109 -111 -121 -122 -133 0
-18 -36 -37 -52 -54 -68 -69 -83 -84 -97 -98 -109 -111 -121 -122 -133 0
-19 -36 -38 -52 -54 -68 -69 -83 -84 -97 -98 -109 -111 -121 -122 -133 0
-20 -36 -39 -52 -54 -68 -69 -83 -84 -97 -98 -109 -111 -121 -122 -133 0
-19 -37 -38 -52 -55 -68 -69 -83 -84 -97 -98 -109 -111 -121 -122 -133 0
-20 -37 -39 -52 -55 -68 -69 -83 -84 -97 -98 -109 -111 -121 -122 -133 0
-20 -38 -39 -52 -56 -68 -69 -83 -84 -97 -98 -109 -111 -121 -122 -133 0
-18 -36 -37 -53 -54 -68 -70 -83 -84 -97 -98 -109 -111 -121 -122 -133 0
-19 -36 -38 -53 -54 -68 -70 -83 -84 -97 -98 -109 -111 -121 -122 -133 0
-20 -36 -39 -53 -54 -68 -70 -83 -84 -97 -98 -109 -111 -121 -122 -133 0
-19 -37 -38 -53 -55 -68 -70 -83 -84 -97 -98 -109 -111 -121 -122 -133 0
-20 -37 -39 -53 -55 -68 -70 -83 -84 -97 -98 -109 -111 -121 -122 -133 0
-20 -38 -39 -53 -56 -68 -70 -83 -84 -97 -98 -109 -111 -121 -122 -133 0
-19 -37 -38 -54 -55 -68 -71 -83 -84 -97 -98 -109 -111 -121 -122 -133 0
-20 -37 -39 -54 -55 -68 -71 -83 -84 -97 -98 -109 -111 -121 -122 -133 0
-20 -38 -39 -54 -56 -68 -71 -83 -84 -97 -98 -109 -111 -121 -122 -133 0
-20 -38 -39 -55 -56 -68 -72 -83 -84 -97 -98 -109 -111 -121 -122 -133 0
-18 -36 -37 -53 -54 -69 -70 -83 -85 -97 -98 -109 -111 -121 -122 -133 0
-19 -36 -38 -53 -54 -69 -70 -83 -85 -97 -98 -109 -111 -121 -122 -133 0
-20 -36 -39 -53 -54 -69 -70 -83 -85 -97 -98 -109 -111 -121 -122 -133 0
-19 -37 -38 -53 -55 -69 -70 -83 -85 -97 -98 -109 -111 -121 -122 -133 0
-20 -37 -39 -53 -55 -69 -70 -83 -85 -97 -98 -109 -111 -121 -122 -133 0
-20 -38 -39 -53 -56 -69 -70 -83 -85 -97 -98 -109 -111 -121 -122 -133 0
-19 -37 -38 -54 -55 -69 -71 -83 -85 -97 -98 -109 -111 -121 -122 -133 0
-20 -37 -39 -54 -55 -69 -71 -83 -85 -97 -98 -109 -111 -121 -122 -133 0
-20 -38 -39 -54 -56 -69 -71 -83 -85 -97 -98 -109 -111 -121 -122 -133 0
-20 -38 -39 -55 -56 -69 -72 -83 -85 -97 -98 -109 -111 -121 -122 -133 0
-19 -37 -38 -54 -55 -70 -71 -83 -86 -97 -98 -109 -111 -121 -122 -133 0
-20 -37 -39 -54 -55 -70 -71 -83 -86 -97 -98 -109 -111 -121 -122 -133 0
-20 -38 -39 -54 -56 -70 -71 -83 -86 -97 -98 -109 -111 -121 -122 -133 0
-20 -38 -39 -55 -56 -70 -72 -83 -86 -97 -98 -109 -111 -121 -122 -133 0
-20 -38 -39 -55 -56 -71 -72 -83 -87 -97 -98 -109 -111 -121 -122 -133 0
-18 -36 -37 -53 -54 -69 -70 -84 -85 -97 -99 -109 -111 -121 -122 -133 0
-19 -36 -38 -53 -54 -69 -70 -84 -85 -97 -99 -109 -111 -121 -122 -133 0
-20 -36 -39 -53 -54 -69 -70 -84 -85 -97 -99 -109 -111 -121 -122 -133 0
-19 -37 -38 -53 -55 -69 -70 -84 -85 -97 -99 -109 -111 -121 -122 -133 0
-20 -37 -39 -53 -55 -69 -70 -84 -85 -97 -99 -109 -111 -121 -122 -133 0
-20 -38 -39 -53 -56 -69 -70 -84 -85 -97 -99 -109 -111 -121 -122 -133 0
-19 -37 -38 -54 -55 -69 -71 -84 -85 -97 -99 -109 -111 -121 -122 -133 0
-20 -37 -39 -54 -55 -69 -71 -84 -85 -97 -99 -109 -111 -121 -122 -133 0
-20 -38 -39 -54 -56 -69 -71 -84 -85 -97 -99 -109 -111 -121 -122 -133 0
-20 -38 -39 -55 -56 -69 -72 -84 -85 -97 -99 -109 -111 -121 -122 -133 0
-19 -37 -38 -54 -55 -70 -71 -84 -86 -97 -99 -109 -111 -121 -122 -133 0
-20 -37 -39 -54 -55 -70 -71 -84 -86 -97 -99 -109 -111 -121 -122 -133 0
-20 -38 -39 -54 -56 -70 -71 -84 -86 -97 -99 -109 -111 -121 -122 -133 0
-20 -38 -39 -55 -56 -70 -72 -84 -86 -97 -99 -109 -111 -121 -122 -133 0
-20 -38 -39 -55 -56 -71 -72 -84 -87 -97 -99 -109 -111 -121 -122 -133 0
-19 -37 -38 -54 -55 -70 -71 -85 -86 -97 -100 -109 -111 -121 -122 -133 0
-20 -37 -39 -54 -55 -70 -71 -85 -86 -97 -100 -109 -111 -121 -122 -133 0
-20 -38 -39 -54 -56 -70 -71 -85 -86 -97 -100 -109 -111 -121 -122 -133 0
-20 -38 -39 -55 -56 -70 -72 -85 -86 -97 -100 -109 -111 -121 -122 -133 0
-20 -38 -39 -55 -56 -71 -72 -85 -87 -97 -100 -109 -111 -121 -122 -133 0
-20 -38 -39 -55 -56 -71 -72 -86 -87 -97 -101 -109 -111 -121 -122 -133 0
-18 -36 -37 -53 -54 -69 -70 -84 -85 -98 -99 -109 -112 -121 -122 -133 0
-19 -36 -38 -53 -54 -69 -70 -84 -85 -98 -99 -109 -112 -121 -122 -133 0
-20 -36 -39 -53 -54 -69 -70 -84 -85 -98 -99 -109 -112 -121 -122 -133 0
-19 -37 -38 -53 -55 -69 -70 -84 -85 -98 -99 -109 -112 -121 -122 -133 0
-20 -37 -39 -53 -55 -69 -70 -84 -85 -98 -99 -109 -112 -121 -122 -133 0
-20 -38 -39 -53 -56 -69 -70 -84 -85 -98 -99 -109 -112 -121 -122 -133 0
-19 -37 -38 -54 -55 -69 -71 -84 -85 -98 -99 -109 -112 -121 -122 -133 0
-20 -37 -39 -54 -55 -69 -71 -84 -85 -98 -99 -109 -112 -121 -122 -133 0
-20 -38 -39 -54 -56 -69 -71 -84 -85 -98 -99 -109 -112 -121 -122 -133 0
-20 -38 -39 -55 -56 -69 -72 -84 -85 -98 -99 -109 -112 -121 -122 -133 0
-19 -37 -38 -54 -55 -70 -71 -84 -86 -98 -99 -109 -112 -121 -122 -133 0
-20 -37 -39 -54 -55 -70 -71 -84 -86 -98 -99 -109 -112 -121 -122 -133 0
-20 -38 -39 -54 -56 -70 -71 -84 -86 -98 -99 -109 -112 -121 -122 -133 0
-20 -38 -39 -55 -56 -70 -72 -84 -86 -98 -99 -109 -112 -121 -122 -133 0
-20 -38 -39 -55 -56 -71 -72 -84 -87 -98 -99 -109 -112 -121 -122 -133 0
-19 -37 -38 -54 -55 -70 -71 -85 -86 -98 -100 -109 -112 -121 -122 -133 0
-20 -37 -39 -54 -55 -70 -71 -85 -86 -98 -100 -109 -112 -121 -122 -133 0
-20 -38 -39 -54 -56 -70 -71 -85 -86 -98 -100 -109 -112 -121 -122 -133 0
-20 -38 -39 -55 -56 -70 -72 -85 -86 -98 -100 -109 -112 -121 -122 -133 0
-20 -38 -39 -55 -56 -71 -72 -85 -87 -98 -100 -109 -112 -121 -122 -133 0
-20 -38 -39 -55 -56 -71 -72 -86 -87 -98 -101 -109 -112 -121 -122 -133 0
-19 -37 -38 -54 -55 -70 -71 -85 -86 -99 -100 -109 -113 -121 -122 -133 0
-20 -37 -39 -54 -55 -70 -71 -85 -86 -99 -100 -109 -113 -121 -122 -133 0
-20 -38 -39 -54 -56 -70 -71 -85 -86 -99 -100 -109 -113 -121 -122 -133 0
-20 -38 -39 -55 -56 -70 -72 -85 -86 -99 -100 -109 -113 -121 -122 -133 0
-20 -38 -39 -55 -56 -71 -72 -85 -87 -99 -100 -109 -113 -121 -122 -133 0
-20 -38 -39 -55 -56 -71 -72 -86 -87 -99 -101 -109 -113 -121 -122 -133 0
-20 -38 -39 -55 -56 -71 -72 -86 -87 -100 -101 -109 -114 -121 -122 -133 0
-17 -35 -36 -52 -53 -68 -69 -83 -84 -97 -98 -110 -111 -121 -123 -133 0
-18 -35 -37 -52 -53 -68 -69 -83 -84 -97 -98 -110 -111 -121 -123 -133 0
-19 -35 -38 -52 -53 -68 -69 -83 -84 -97 -98 -110 -111 -121 -123 -133 0
-20 -35 -39 -52 -53 -68 -69 -83 -84 -97 -98 -110 -111 -121 -123 -133 0
-18 -36 -37 -52 -54 -68 -69 -83 -84 -97 -98 -110 -111 -121 -123 -133 0
-19 -36 -38 -52 -54 -68 -69 -83 -84 -97 -98 -110 -111 -121 -123 -133 0
-20 -36 -39 -52 -54 -68 -69 -83 -84 -97 -98 -110 -111 -121 -123 -133 0
-19 -37 -38 -52 -55 -68 -69 -83 -84 -97 -98 -110 -111 -121 -123 -133 0
-20 -37 -39 -52 -55 -68 -69 -83 -84 -97 -98 -110 -111 -121 -123 -133 0
-20 -38 -39 -52 -56 -68 -69 -83 -84 -97 -98 -110 -111 -121 -123 -133 0
-18 -36 -37 -53 -54 -68 -70 -83 -84 -97 -98 -110 -111 -121 -123 -133 0
-19 -36 -38 -53 -54 -68 -70 -83 -84 -97 -98 -110 -111 -121 -123 -133 0
-20 -36 -39 -53 -54 -68 -70 -83 -84 -97 -98 -110 -111 -121 -123 -133 0
-19 -37 -38 -53 -55 -68 -70 -83 -84 -97 -98 -110 -111 -121 -123 -133 0
-20 -37 -39 -53 -55 -68 -70 -83 -84 -97 -98 -110 -111 -121 -123 -133 0
-20 -38 -39 -53 -56 -68 -70 -83 -84 -97 -98 -110 -111 -121 -123 -133 0
-19 -37 -38 -54 -55 -68 -71 -83 -84 -97 -98 -110 -111 -121 -123 -133 0
-20 -37 -39 -54 -55 -68 -71 -83 -84 -97 -98 -110 -111 -121 -123 -133 0
-20 -38 -39 -54 -56 -68 -71 -83 -84 -97 -98 -110 -111 -121 -123 -133 0
-20 -38 -39 -55 -56 -68 -72 -83 -84 -97 -98 -110 -111 -121 -123 -133 0
-18 -36 -37 -53 -54 -69 -70 -83 -85 -97 -98 -110 -111 -121 -123 -133 0
-19 -36 -38 -53 -54 -69 -70 -83 -85 -97 -98 -110 -111 -121 -123 -133 0
-20 -36 -39 -53 -54 -69 -70 -83 -85 -97 -98 -110 -111 -121 -123 -133 0
-19 -37 -38 -53 -55 -69 -70 -83 -85 -97 -98 -110 -111 -121 -123 -133 0
-20 -37 -39 -53 -55 -69 -70 -83 -85 -97 -98 -110 -111 -121 -123 -133 0
-20 -38 -39 -53 -56 -69 -70 -83 -85 -97 -98 -110 -111 -121 -123 -133 0
-19 -37 -38 -54 -55 -69 -71 -83 -85 -97 -98 -110 -111 -121 -123 -133 0
-20 -37 -39 -54 -55 -69 -71 -83 -85 -97 -98 -110 -111 -121 -123 -133 0
-20 -38 -39 -54 -56 -69 -71 -83 -85 -97 -98 -110 -111 -121 -123 -133 0
-20 -38 -39 -55 -56 -69 -72 -83 -85 -97 -98 -110 -111 -121 -123 -133 0
-19 -37 -38 -54 -55 -70 -71 -83 -86 -97 -98 -110 -111 -121 -123 -133 0
-20 -37 -39 -54 -55 -70 -71 -83 -86 -97 -98 -110 -111 -121 -123 -133 0
-20 -38 -39 -54 -56 -70 -71 -83 -86 -97 -98 -110 -111 -121 -123 -133 0
-20 -38 -39 -55 -56 -70 -72 -83 -86 -97 -98 -110 -111 -121 -123 -133 0
-20 -38 -39 -55 -56 -71 -72 -83 -87 -97 -98 -110 -111 -121 -123 -133 0
-18 -36 -37 -53 -54 -69 -70 -84 -85 -97 -99 -110 -111 -121 -123 -133 0
-19 -36 -38 -53 -54 -69 -70 -84 -85 -97 -99 -110 -111 -121 -123 -133 0
-20 -36 -39 -53 -54 -69 -70 -84 -85 -97 -99 -110 -111 -121 -123 -133 0
-19 -37 -38 -53 -55 -69 -70 -84 -85 -97 -99 -110 -111 -121 -123 -133 0
-20 -37 -39 -53 -55 -69 -70 -84 -85 -97 -99 -110 -111 -121 -123 -133 0
-20 -38 -39 -53 -56 -69 -70 -84 -85 -97 -99 -110 -111 -121 -123 -133 0
-19 -37 -38 -54 -55 -69 -71 -84 -85 -97 -99 -110 -111 -121 -123 -133 0
-20 -37 -39 -54 -55 -69 -71 -84 -85 -97 -99 -110 -111 -121 -123 -133 0
-20 -38 -39 -54 -56 -69 -71 -84 -85 -97 -99 -110 -111 -121 -123 -133 0
-20 -38 -39 -55 -56 -69 -72 -84 -85 -97 -99 -110 -111 -121 -123 -133 0
-19 -37 -38 -54 -55 -70 -71 -84 -86 -97 -99 -110 -111 -121 -123 -133 0
-20 -37 -39 -54 -55 -70 -71 -84 -86 -97 -99 -110 -111 -121 -123 -133 0
-20 -38 -39 -54 -56 -70 -71 -84 -86 -97 -99 -110 -111 -121 -123 -133 0
-20 -38 -39 -55 -56 -70 -72 -84 -86 -97 -99 -110 -111 -121 -123 -133 0
-20 -38 -39 -55 -56 -71 -72 -84 -87 -97 -99 -110 -111 -121 -123 -133 0
-19 -37 -38 -54 -55 -70 -71 -85 -86 -97 -100 -110 -111 -121 -123 -133 0
-20 -37 -39 -54 -55 -70 -71 -85 -86 -97 -100 -110 -111 -121 -123 -133 0
-20 -38 -39 -54 -56 -70 -71 -85 -86 -97 -100 -110 -111 -121 -123 -133 0
-20 -38 -39 -55 -56 -70 -72 -85 -86 -97 -100 -110 -111 -121 -123 -133 0
-20 -38 -39 -55 -56 -71 -72 -85 -87 -97 -100 -110 -111 -121 -123 -133 0
-20 -38 -39 -55 -56 -71 -72 -86 -87 -97 -101 -110 -111 -121 -123 -133 0
-18 -36 -37 -53 -54 -69 -70 -84 -85 -98 -99 -110 -112 -121 -123 -133 0
-19 -36 -38 -53 -54 -69 -70 -84 -85 -98 -99 -110 -112 -121 -123 -133 0
-20 -36 -39 -53 -54 -69 -70 -84 -85 -98 -99 -110 -112 -121 -123 -133 0
-19 -37 -38 -53 -55 -69 -70 -84 -85 -98 -99 -110 -112 -121 -123 -133 0
-20 -37 -39 -53 -55 -69 -70 -84 -85 -98 -99 -110 -112 -121 -123 -133 0
-20 -38 -39 -53 -56 -69 -70 -84 -85 -98 -99 -110 -112 -121 -123 -133 0
-19 -37 -38 -54 -55 -69 -71 -84 -85 -98 -99 -110 -112 -121 -123 -133 0
-20 -37 -39 -54 -55 -69 -71 -84 -85 -98 -99 -110 -112 -121 -123 -133 0
-20 -38 -39 -54 -56 -69 -71 -84 -85 -98 -99 -110 -112 -121 -123 -133 0
-20 -38 -39 -55 -56 -69 -72 -84 -85 -98 -99 -110 -112 -121 -123 -133 0
-19 -37 -38 -54 -55 -70 -71 -84 -86 -98 -99 -110 -112 -121 -123 -133 0
-20 -37 -39 -54 -55 -70 -71 -84 -86 -98 -99 -110 -112 -121 -123 -133 0
-20 -38 -39 -54 -56 -70 -71 -84 -86 -98 -99 -110 -112 -121 -123 -133 0
-20 -38 -39 -55 -56 -70 -72 -84 -86 -98 -99 -110 -112 -121 -123 -133 0
-20 -38 -39 -55 -56 -71 -72 -84 -87 -98 -99 -110 -112 -121 -123 -133 0
-19 -37 -38 -54 -55 -70 -71 -85 -86 -98 -100 -110 -112 -121 -123 -133 0
-20 -37 -39 -54 -55 -70 -71 -85 -86 -98 -100 -110 -112 -121 -123 -133 0
-20 -38 -39 -54 -56 -70 -71 -85 -86 -98 -100 -110 -112 -121 -123 -133 0
-20 -38 -39 -55 -56 -70 -72 -85 -86 -98 -100 -110 -112 -121 -123 -133 0
-20 -38 -39 -55 -56 -71 -72 -85 -87 -98 -100 -110 -112 -121 -123 -133 0
-20 -38 -39 -55 -56 -71 -72 -86 -87 -98 -101 -110 -112 -121 -123 -133 0
-19 -37 -38 -54 -55 -70 -71 -85 -86 -99 -100 -110 -113 -121 -123 -133 0
-20 -37 -39 -54 -55 -70 -71 -85 -86 -99 -100 -110 -113 -121 -123 -133 0
-20 -38 -39 -54 -56 -70 -71 -85 -86 -99 -100 -110 -113 -121 -123 -133 0
-20 -38 -39 -55 -56 -70 -72 -85 -86 -99 -100 -110 -113 -121 -123 -133 0
-20 -38 -39 -55 -56 -71 -72 -85 -87 -99 -100 -110 -113 -121 -123 -133 0
-20 -38 -39 -55 -56 -71 -72 -86 -87 -99 -101 -110 -113 -121 -123 -133 0
-20 -38 -39 -55 -56 -71 -72 -86 -87 -100 -101 -110 -114 -121 -123 -133 0
-18 -36 -37 -53 -54 -69 -70 -84 -85 -98 -99 -111 -112 -121 -124 -133 0
-19 -36 -38 -53 -54 -69 -70 -84 -85 -98 -99 -111 -112 -121 -124 -133 0
-20 -36 -39 -53 -54 -69 -70 -84 -85 -98 -99 -111 -112 -121 -124 -133 0
-19 -37 -38 -53 -55 -69 -70 -84 -85 -98 -99 -111 -112 -121 -124 -133 0
-20 -37 -39 -53 -55 -69 -70 -84 -85 -98 -99 -111 -112 -121 -124 -133 0
-20 -38 -39 -53 -56 -69 -70 -84 -85 -98 -99 -111 -112 -121 -124 -133 0
-19 -37 -38 -54 -55 -69 -71 -84 -85 -98 -99 -111 -112 -121 -124 -133 0
-20 -37 -39 -54 -55 -69 -71 -84 -85 -98 -99 -111 -112 -121 -124 -133 0
-20 -38 -39 -54 -56 -69 -71 -84 -85 -98 -99 -111 -112 -121 -124 -133 0
-20 -38 -39 -55 -56 -69 -72 -84 -85 -98 -99 -111 -112 -121 -124 -133 0
-19 -37 -38 -54 -55 -70 -71 -84 -86 -98 -99 -111 -112 -121 -124 -133 0
-20 -37 -39 -54 -55 -70 -71 -84 -86 -98 -99 -111 -112 -121 -124 -133 0
-20 -38 -39 -54 -56 -70 -71 -84 -86 -98 -99 -111 -112 -121 -124 -133 0
-20 -38 -39 -55 -56 -70 -72 -84 -86 -98 -99 -111 -112 -121 -124 -133 0
-20 -38 -39 -55 -56 -71 -72 -84 -87 -98 -99 -111 -112 -121 -124 -133 0
-19 -37 -38 -54 -55 -70 -71 -85 -86 -98 -100 -111 -112 -121 -124 -133 0
-20 -37 -39 -54 -55 -70 -71 -85 -86 -98 -100 -111 -112 -121 -124 -133 0
-20 -38 -39 -54 -56 -70 -71 -85 -86 -98 -100 -111 -112 -121 -124 -133 0
-20 -38 -39 -55 -56 -70 -72 -85 -86 -98 -100 -111 -112 -121 -124 -133 0
-20 -38 -39 -55 -56 -71 -72 -85 -87 -98 -100 -111 -112 -121 -124 -133 0
-20 -38 -39 -55 -56 -71 -72 -86 -87 -98 -101 -111 -112 -121 -124 -133 0
-19 -37 -38 -54 -55 -70 -71 -85 -86 -99 -100 -111 -113 -121 -124 -133 0
-20 -37 -39 -54 -55 -70 -71 -85 -86 -99 -100 -111 -113 -121 -124 -133 0
-20 -38 -39 -54 -56 -70 -71 -85 -86 -99 -100 -111 -113 -121 -124 -133 0
-20 -38 -39 -55 -56 -70 -72 -85 -86 -99 -100 -111 -113 -121 -124 -133 0
-20 -38 -39 -55 -56 -71 -72 -85 -87 -99 -100 -111 -113 -121 -124 -133 0
-20 -38 -39 -55 -56 -71 -72 -86 -87 -99 -101 -111 -113 -121 -124 -133 0
-20 -38 -39 -55 -56 -71 -72 -86 -87 -100 -101 -111 -114 -121 -124 -133 0
-19 -37 -38 -54 -55 -70 -71 -85 -86 -99 -100 -112 -113 -121 -125 -133 0
-20 -37 -39 -54 -55 -70 -71 -85 -86 -99 -100 -112 -113 -121 -125 -133 0
-20 -38 -39 -54 -56 -70 -71 -85 -86 -99 -100 -112 -113 -121 -125 -133 0
-20 -38 -39 -55 -56 -70 -72 -85 -86 -99 -100 -112 -113 -121 -125 -133 0
-20 -38 -39 -55 -56 -71 -72 -85 -87 -99 -100 -112 -113 -121 -125 -133 0
-20 -38 -39 -55 -56 -71 -72 -86 -87 -99 -101 -112 -113 -121 -125 -133 0
-20 -38 -39 -55 -56 -71 -72 -86 -87 -100 -101 -112 -114 -121 -125 -133 0
-20 -38 -39 -55 -56 -71 -72 -86 -87 -100 -101 -113 -114 -121 -126 -133 0
-17 -35 -36 -52 -53 -68 -69 -83 -84 -97 -98 -110 -111 -122 -123 -134 0
-18 -35 -37 -52 -53 -68 -69 -83 -84 -97 -98 -110 -111 -122 -123 -134 0
-19 -35 -38 -52 -53 -68 -69 -83 -84 -97 -98 -110 -111 -122 -123 -134 0
-20 -35 -39 -52 -53 -68 -69 -83 -84 -97 -98 -110 -111 -122 -123 -134 0
-18 -36 -37 -52 -54 -68 -69 -83 -84 -97 -98 -110 -111 -122 -123 -134 0
-19 -36 -38 -52 -54 -68 -69 -83 -84 -97 -98 -110 -111 -122 -123 -134 0
-20 -36 -39 -52 -54 -68 -69 -83 -84 -97 -98 -110 -111 -122 -123 -134 0
-19 -37 -38 -52 -55 -68 -69 -83 -84 -97 -98 -110 -111 -122 -123 -134 0
-20 -37 -39 -52 -55 -68 -69 -83 -84 -97 -98 -110 -111 -122 -123 -134 0
-20 -38 -39 -52 -56 -68 -69 -83 -84 -97 -98 -110 -111 -122 -123 -134 0
-18 -36 -37 -53 -54 -68 -70 -83 -84 -97 -98 -110 -111 -122 -123 -134 0
-19 -36 -38 -53 -54 -68 -70 -83 -84 -97 -98 -110 -111 -122 -123 -134 0
-20 -36 -39 -53 -54 -68 -70 -83 -84 -97 -98 -110 -111 -122 -123 -134 0
-19 -37 -38 -53 -55 -68 -70 -83 -84 -97 -98 -110 -111 -122 -123 -134 0
-20 -37 -39 -53 -55 -68 -70 -83 -84 -97 -98 -110 -111 -122 -123 -134 0
-20 -38 -39 -53 -56 -68 -70 -83 -84 -97 -98 -110 -111 -122 -123 -134 0
-19 -37 -38 -54 -55 -68 -71 -83 -84 -97 -98 -110 -111 -122 -123 -134 0
-20 -37 -39 -54 -55 -68 -71 -83 -84 -97 -98 -110 -111 -122 -123 -134 0
-20 -38 -39 -54 -56 -68 -71 -83 -84 -97 -98 -110 -111 -122 -123 -134 0
-20 -38 -39 -55 -56 -68 -72 -83 -84 -97 -98 -110 -111 -122 -123 -134 0
-18 -36 -37 -53 -54 -69 -70 -83 -85 -97 -98 -110 -111 -122 -123 -134 0
-19 -36 -38 -53 -54 -69 -70 -83 -85 -97 -98 -110 -111 -122 -123 -134 0
-20 -36 -39 -53 -54 -69 -70 -83 -85 -97 -98 -110 -111 -122 -123 -134 0
-19 -37 -38 -53 -55 -69 -70 -83 -85 -97 -98 -110 -111 -122 -123 -134 0
-20 -37 -39 -53 -55 -69 -70 -83 -85 -97 -98 -110 -111 -122 -123 -134 0
-20 -38 -39 -53 -56 -69 -70 -83 -85 -97 -98 -110 -111 -122 -123 -134 0
-19 -37 -38 -54 -55 -69 -71 -83 -85 -97 -98 -110 -111 -122 -123 -134 0
-20 -37 -39 -54 -55 -69 -71 -83 -85 -97 -98 -110 -111 -122 -123 -134 0
-20 -38 -39 -54 -56 -69 -71 -83 -85 -97 -98 -110 -111 -122 -123 -134 0
-20 -38 -39 -55 -56 -69 -72 -83 -85 -97 -98 -110 -111 -122 -123 -134 0
-19 -37 -38 -54 -55 -70 -71 -83 -86 -97 -98 -110 -111 -122 -123 -134 0
-20 -37 -39 -54 -55 -70 -71 -83 -86 -97 -98 -110 -111 -122 -123 -134 0
-20 -38 -39 -54 -56 -70 -71 -83 -86 -97 -98 -110 -111 -122 -123 -134 0
-20 -38 -39 -55 -56 -70 -72 -83 -86 -97 -98 -110 -111 -122 -123 -134 0
-20 -38 -39 -55 -56 -71 -72 -83 -87 -97 -98 -110 -111 -122 -123 -134 0
-18 -36 -37 -53 -54 -69 -70 -84 -85 -97 -99 -110 -111 -122 -123 -134 0
-19 -36 -38 -53 -54 -69 -70 -84 -85 -97 -99 -110 -111 -122 -123 -134 0
-20 -36 -39 -53 -54 -69 -70 -84 -85 -97 -99 -110 -111 -122 -123 -134 0
-19 -37 -38 -53 -55 -69 -70 -84 -85 -97 -99 -110 -111 -122 -123 -134 0
-20 -37 -39 -53 -55 -69 -70 -84 -85 -97 -99 -110 -111 -122 -123 -134 0
-20 -38 -39 -53 -56 -69 -70 -84 -85 -97 -99 -110 -111 -122 -123 -134 0
-19 -37 -38 -54 -55 -69 -71 -84 -85 -97 -99 -110 -111 -122 -123 -134 0
-20 -37 -39 -54 -55 -69 -71 -84 -85 -97 -99 -110 -111 -122 -123 -134 0
-20 -38 -39 -54 -56 -69 -71 -84 -85 -97 -99 -110 -111 -122 -123 -134 0
-20 -38 -39 -55 -56 -69 -72 -84 -85 -97 -99 -110 -111 -122 -123 -134 0
-19 -37 -38 -54 -55 -70 -71 -84 -86 -97 -99 -110 -111 -122 -123 -134 0
-20 -37 -39 -54 -55 -70 -71 -84 -86 -97 -99 -110 -111 -122 -123 -134 0
-20 -38 -39 -54 -56 -70 -71 -84 -86 -97 -99 -110 -111 -122 -123 -134 0
-20 -38 -39 -55 -56 -70 -72 -84 -86 -97 -99 -110 -111 -122 -123 -134 0
-20 -38 -39 -55 -56 -71 -72 -84 -87 -97 -99 -110 -111 -122 -123 -134 0
-19 -37 -38 -54 -55 -70 -71 -85 -86 -97 -100 -110 -111 -122 -123 -134 0
-20 -37 -39 -54 -55 -70 -71 -85 -86 -97 -100 -110 -111 -122 -123 -134 0
-20 -38 -39 -54 -56 -70 -71 -85 -86 -97 -100 -110 -111 -122 -123 -134 0
-20 -38 -39 -55 -56 -70 -72 -85 -86 -97 -100 -110 -111 -122 -123 -134 0
-20 -38 -39 -55 -56 -71 -72 -85 -87 -97 -100 -110 -111 -122 -123 -134 0
-20 -38 -39 -55 -56 -71 -72 -86 -87 -97 -101 -110 -111 -122 -123 -134 0
-18 -36 -37 -53 -54 -69 -70 -84 -85 -98 -99 -110 -112 -122 -123 -134 0
-19 -36 -38 -53 -54 -69 -70 -84 -85 -98 -99 -110 -112 -122 -123 -134 0
-20 -36 -39 -53 -54 -69 -70 -84 -85 -98 -99 -110 -112 -122 -123 -134 0
-19 -37 -38 -53 -55 -69 -70 -84 -85 -98 -99 -110 -112 -122 -123 -134 0
-20 -37 -39 -53 -55 -69 -70 -84 -85 -98 -99 -110 -112 -122 -123 -134 0
-20 -38 -39 -53 -56 -69 -70 -84 -85 -98 -99 -110 -112 -122 -123 -134 0
-19 -37 -38 -54 -55 -69 -71 -84 -85 -98 -99 -110 -112 -122 -123 -134 0
-20 -37 -39 -54 -55 -69 -71 -84 -85 -98 -99 -110 -112 -122 -123 -134 0
-20 -38 -39 -54 -56 -69 -71 -84 -85 -98 -99 -110 -112 -122 -123 -134 0
-20 -38 -39 -55 -56 -69 -72 -84 -85 -98 -99 -110 -112 -122 -123 -134 0
-19 -37 -38 -54 -55 -70 -71 -84 -86 -98 -99 -110 -112 -122 -123 -134 0
-20 -37 -39 -54 -55 -70 -71 -84 -86 -98 -99 -110 -112 -122 -123 -134 0
-20 -38 -39 -54 -56 -70 -71 -84 -86 -98 -99 -110 -112 -122 -123 -134 0
-20 -38 -39 -55 -56 -70 -72 -84 -86 -98 -99 -110 -112 -122 -123 -134 0
-20 -38 -39 -55 -56 -71 -72 -84 -87 -98 -99 -110 -112 -122 -123 -134 0
-19 -37 -38 -54 -55 -70 -71 -85 -86 -98 -100 -110 -112 -122 -123 -134 0
-20 -37 -39 -54 -55 -70 -71 -85 -86 -98 -100 -110 -112 -122 -123 -134 0
-20 -38 -39 -54 -56 -70 -71 -85 -86 -98 -100 -110 -112 -122 -123 -134 0
-20 -38 -39 -55 -56 -70 -72 -85 -86 -98 -100 -110 -112 -122 -123 -134 0
-20 -38 -39 -55 -56 -71 -72 -85 -87 -98 -100 -110 -112 -122 -123 -134 0
-20 -38 -39 -55 -56 -71 -72 -86 -87 -98 -101 -110 -112 -122 -123 -134 0
-19 -37 -38 -54 -55 -70 -71 -85 -86 -99 -100 -110 -113 -122 -123 -134 0
-20 -37 -39 -54 -55 -70 -71 -85 -86 -99 -100 -110 -113 -122 -123 -134 0
-20 -38 -39 -54 -56 -70 -71 -85 -86 -99 -100 -110 -113 -122 -123 -134 0
-20 -38 -39 -55 -56 -70 -72 -85 -86 -99 -100 -110 -113 -122 -123 -134 0
-20 -38 -39 -55 -56 -71 -72 -85 -87 -99 -100 -110 -113 -122 -123 -134 0
-20 -38 -39 -55 -56 -71 -72 -86 -87 -99 -101 -110 -113 -122 -123 -134 0
-20 -38 -39 -55 -56 -71 -72 -86 -87 -100 -101 -110 -114 -122 -123 -134 0
-18 -36 -37 -53 -54 -69 -70 -84 -85 -98 -99 -111 -112 -122 -124 -134 0
-19 -36 -38 -53 -54 -69 -70 -84 -85 -98 -99 -111 -112 -122 -124 -134 0
-20 -36 -39 -53 -54 -69 -70 -84 -85 -98 -99 -111 -112 -122 -124 -134 0
-19 -37 -38 -53 -55 -69 -70 -84 -85 -98 -99 -111 -112 -122 -124 -134 0
-20 -37 -39 -53 -55 -69 -70 -84 -85 -98 -99 -111 -112 -122 -124 -134 0
-20 -38 -39 -53 -56 -69 -70 -84 -85 -98 -99 -111 -112 -122 -124 -134 0
-19 -37 -38 -54 -55 -69 -71 -84 -85 -98 -99 -111 -112 -122 -124 -134 0
-20 -37 -39 -54 -55 -69 -71 -84 -85 -98 -99 -111 -112 -122 -124 -134 0
-20 -38 -39 -54 -56 -69 -71 -84 -85 -98 -99 -111 -112 -122 -124 -134 0
-20 -38 -39 -55 -56 -69 -72 -84 -85 -98 -99 -111 -112 -122 -124 -134 0
-19 -37 -38 -54 -55 -70 -71 -84 -86 -98 -99 -111 -112 -122 -124 -134 0
-20 -37 -39 -54 -55 -70 -71 -84 -86 -98 -99 -111 -112 -122 -124 -134 0
-20 -38 -39 -54 -56 -70 -71 -84 -86 -98 -99 -111 -112 -122 -124 -134 0
-20 -38 -39 -55 -56 -70 -72 -84 -86 -98 -99 -111 -112 -122 -124 -134 0
-20 -38 -39 -55 -56 -71 -72 -84 -87 -98 -99 -111 -112 -122 -124 -134 0
-19 -37 -38 -54 -55 -70 -71 -85 -86 -98 -100 -111 -112 -122 -124 -134 0
-20 -37 -39 -54 -55 -70 -71 -85 -86 -98 -100 -111 -112 -122 -124 -134 0
-20 -38 -39 -54 -56 -70 -71 -85 -86 -98 -100 -111 -112 -122 -124 -134 0
-20 -38 -39 -55 -56 -70 -72 -85 -86 -98 -100 -111 -112 -122 -124 -134 0
-20 -38 -39 -55 -56 -71 -72 -85 -87 -98 -100 -111 -112 -122 -124 -134 0
-20 -38 -39 -55 -56 -71 -72 -86 -87 -98 -101 -111 -112 -122 -124 -134 0
-19 -37 -38 -54 -55 -70 -71 -85 -86 -99 -100 -111 -113 -122 -124 -134 0
-20 -37 -39 -54 -55 -70 -71 -85 -86 -99 -100 -111 -113 -122 -124 -134 0
-20 -38 -39 -54 -56 -70 -71 -85 -86 -99 -100 -111 -113 -122 -124 -134 0
-20 -38 -39 -55 -56 -70 -72 -85 -86 -99 -100 -111 -113 -122 -124 -134 0
-20 -38 -39 -55 -56 -71 -72 -85 -87 -99 -100 -111 -113 -122 -124 -134 0
-20 -38 -39 -55 -56 -71 -72 -86 -87 -99 -101 -111 -113 -122 -124 -134 0
-20 -38 -39 -55 -56 -71 -72 -86 -87 -100 -101 -111 -114 -122 -124 -134 0
-19 -37 -38 -54 -55 -70 -71 -85 -86 -99 -100 -112 -113 -122 -125 -134 0
-20 -37 -39 -54 -55 -70 -71 -85 -86 -99 -100 -112 -113 -122 -125 -134 0
-20 -38 -39 -54 -56 -70 -71 -85 -86 -99 -100 -112 -113 -122 -125 -134 0
-20 -38 -39 -55 -56 -70 -72 -85 -86 -99 -100 -112 -113 -122 -125 -134 0
-20 -38 -39 -55 -56 -71 -72 -85 -87 -99 -100 -112 -113 -122 -125 -134 0
-20 -38 -39 -55 -56 -71 -72 -86 -87 -99 -101 -112 -113 -122 -125 -134 0
-20 -38 -39 -55 -56 -71 -72 -86 -87 -100 -101 -112 -114 -122 -125 -134 0
-20 -38 -39 -55 -56 -71 -72 -86 -87 -100 -101 -113 -114 -122 -126 -134 0
-18 -36 -37 -53 -54 -69 -70 -84 -85 -98 -99 -111 -112 -123 -124 -135 0
-19 -36 -38 -53 -54 -69 -70 -84 -85 -98 -99 -111 -112 -123 -124 -135 0
-20 -36 -39 -53 -54 -69 -70 -84 -85 -98 -99 -111 -112 -123 -124 -135 0
-19 -37 -38 -53 -55 -69 -70 -84 -85 -98 -99 -111 -112 -123 -124 -135 0
-20 -37 -39 -53 -55 -69 -70 -84 -85 -98 -99 -111 -112 -123 -124 -135 0
-20 -38 -39 -53 -56 -69 -70 -84 -85 -98 -99 -111 -112 -123 -124 -135 0
-19 -37 -38 -54 -55 -69 -71 -84 -85 -98 -99 -111 -112 -123 -124 -135 0
-20 -37 -39 -54 -55 -69 -71 -84 -85 -98 -99 -111 -112 -123 -124 -135 0
-20 -38 -39 -54 -56 -69 -71 -84 -85 -98 -99 -111 -112 -123 -124 -135 0
-20 -38 -39 -55 -56 -69 -72 -84 -85 -98 -99 -111 -112 -123 -124 -135 0
-19 -37 -38 -54 -55 -70 -71 -84 -86 -98 -99 -111 -112 -123 -124 -135 0
-20 -37 -39 -54 -55 -70 -71 -84 -86 -98 -99 -111 -112 -123 -124 -135 0
-20 -38 -39 -54 -56 -70 -71 -84 -86 -98 -99 -111 -112 -123 -124 -135 0
-20 -38 -39 -55 -56 -70 -72 -84 -86 -98 -99 -111 -112 -123 -124 -135 0
-20 -38 -39 -55 -56 -71 -72 -84 -87 -98 -99 -111 -112 -123 -124 -135 0
-19 -37 -38 -54 -55 -70 -71 -85 -86 -98 -100 -111 -112 -123 -124 -135 0
-20 -37 -39 -54 -55 -70 -71 -85 -86 -98 -100 -111 -112 -123 -124 -135 0
-20 -38 -39 -54 -56 -70 -71 -85 -86 -98 -100 -111 -112 -123 -124 -135 0
-20 -38 -39 -55 -56 -70 -72 -85 -86 -98 -100 -111 -112 -123 -124 -135 0
-20 -38 -39 -55 -56 -71 -72 -85 -87 -98 -100 -111 -112 -123 -124 -135 0
-20 -38 -39 -55 -56 -71 -72 -86 -87 -98 -101 -111 -112 -123 -124 -135 0
-19 -37 -38 -54 -55 -70 -71 -85 -86 -99 -100 -111 -113 -123 -124 -135 0
-20 -37 -39 -54 -55 -70 -71 -85 -86 -99 -100 -111 -113 -123 -124 -135 0
-20 -38 -39 -54 -56 -70 -71 -85 -86 -99 -100 -111 -113 -123 -124 -135 0
-20 -38 -39 -55 -56 -70 -72 -85 -86 -99 -100 -111 -113 -123 -124 -135 0
-20 -38 -39 -55 -56 -71 -72 -85 -87 -99 -100 -111 -113 -123 -124 -135 0
-20 -38 -39 -55 -56 -71 -72 -86 -87 -99 -101 -111 -113 -123 -124 -135 0
-20 -38 -39 -55 -56 -71 -72 -86 -87 -100 -101 -111 -114 -123 -124 -135 0
-19 -37 -38 -54 -55 -70 -71 -85 -86 -99 -100 -112 -113 -123 -125 -135 0
-20 -37 -39 -54 -55 -70 -71 -85 -86 -99 -100 -112 -113 -123 -125 -135 0
-20 -38 -39 -54 -56 -70 -71 -85 -86 -99 -100 -112 -113 -123 -125 -135 0
-20 -38 -39 -55 -56 -70 -72 -85 -86 -99 -100 -112 -113 -123 -125 -135 0
-20 -38 -39 -55 -56 -71 -72 -85 -87 -99 -100 -112 -113 -123 -125 -135 0
-20 -38 -39 -55 -56 -71 -72 -86 -87 -99 -101 -112 -113 -123 -125 -135 0
-20 -38 -39 -55 -56 -71 -72 -86 -87 -100 -101 -112 -114 -123 -125 -135 0
-20 -38 -39 -55 -56 -71 -72 -86 -87 -100 -101 -113 -114 -123 -126 -135 0
-19 -37 -38 -54 -55 -70 -71 -85 -86 -99 -100 -112 -113 -124 -125 -136 0
-20 -37 -39 -54 -55 -70 -71 -85 -86 -99 -100 -112 -113 -124 -125 -136 0
-20 -38 -39 -54 -56 -70 -71 -85 -86 -99 -100 -112 -113 -124 -125 -136 0
-20 -38 -39 -55 -56 -70 -72 -85 -86 -99 -100 -112 -113 -124 -125 -136 0
-20 -38 -39 -55 -56 -71 -72 -85 -87 -99 -100 -112 -113 -124 -125 -136 0
-20 -38 -39 -55 -56 -71 -72 -86 -87 -99 -101 -112 -113 -124 -125 -136 0
-20 -38 -39 -55 -56 -71 -72 -86 -87 -100 -101 -112 -114 -124 -125 -136 0
-20 -38 -39 -55 -56 -71 -72 -86 -87 -100 -101 -113 -114 -124 -126 -136 0
-20 -38 -39 -55 -56 -71 -72 -86 -87 -100 -101 -113 -114 -125 -126 -137 0
-17 -35 -36 -52 -53 -68 -69 -83 -84 -97 -98 -110 -111 -122 -123 -145 0
-18 -35 -37 -52 -53 -68 -69 -83 -84 -97 -98 -110 -111 -122 -123 -145 0
-19 -35 -38 -52 -53 -68 -69 -83 -84 -97 -98 -110 -111 -122 -123 -145 0
-20 -35 -39 -52 -53 -68 -69 -83 -84 -97 -98 -110 -111 -122 -123 -145 0
-18 -36 -37 -52 -54 -68 -69 -83 -84 -97 -98 -110 -111 -122 -123 -145 0
-19 -36 -38 -52 -54 -68 -69 -83 -84 -97 -98 -110 -111 -122 -123 -145 0
-20 -36 -39 -52 -54 -68 -69 -83 -84 -97 -98 -110 -111 -122 -123 -145 0
-19 -37 -38 -52 -55 -68 -69 -83 -84 -97 -98 -110 -111 -122 -123 -145 0
-20 -37 -39 -52 -55 -68 -69 -83 -84 -97 -98 -110 -111 -122 -123 -145 0
-20 -38 -39 -52 -56 -68 -69 -83 -84 -97 -98 -110 -111 -122 -123 -145 0
-18 -36 -37 -53 -54 -68 -70 -83 -84 -97 -98 -110 -111 -122 -123 -145 0
-19 -36 -38 -53 -54 -68 -70 -83 -84 -97 -98 -110 -111 -122 -123 -145 0
-20 -36 -39 -53 -54 -68 -70 -83 -84 -97 -98 -110 -111 -122 -123 -145 0
-19 -37 -38 -53 -55 -68 -70 -83 -84 -97 -98 -110 -111 -122 -123 -145 0
-20 -37 -39 -53 -55 -68 -70 -83 -84 -97 -98 -110 -111 -122 -123 -145 0
-20 -38 -39 -53 -56 -68 -70 -83 -84 -97 -98 -110 -111 -122 -123 -145 0
-19 -37 -38 -54 -55 -68 -71 -83 -84 -97 -98 -110 -111 -122 -123 -145 0
-20 -37 -39 -54 -55 -68 -71 -83 -84 -97 -98 -110 -111 -122 -123 -145 0
-20 -38 -39 -54 -56 -68 -71 -83 -84 -97 -98 -110 -111 -122 -123 -145 0
-20 -38 -39 -55 -56 -68 -72 -83 -84 -97 -98 -110 -111 -122 -123 -145 0
-18 -36 -37 -53 -54 -69 -70 -83 -85 -97 -98 -110 -111 -122 -123 -145 0
-19 -36 -38 -53 -54 -69 -70 -83 -85 -97 -98 -110 -111 -122 -123 -145 0
-20 -36 -39 -53 -54 -69 -70 -83 -85 -97 -98 -110 -111 -122 -123 -145 0
-19 -37 -38 -53 -55 -69 -70 -83 -85 -97 -98 -110 -111 -122 -123 -145 0
-20 -37 -39 -53 -55 -69 -70 -83 -85 -97 -98 -110 -111 -122 -123 -145 0
-20 -38 -39 -53 -56 -69 -70 -83 -85 -97 -98 -110 -111 -122 -123 -145 0
-19 -37 -38 -54 -55 -69 -71 -83 -85 -97 -98 -110 -111 -122 -123 -145 0
-20 -37 -39 -54 -55 -69 -71 -83 -85 -97 -98 -110 -111 -122 -123 -145 0
-20 -38 -39 -54 -56 -69 -71 -83 -85 -97 -98 -110 -111 -122 -123 -145 0
-20 -38 -39 -55 -56 -69 -72 -83 -85 -97 -98 -110 -111 -122 -123 -145 0
-19 -37 -38 -54 -55 -70 -71 -83 -86 -97 -98 -110 -111 -122 -123 -145 0
-20 -37 -39 -54 -55 -70 -71 -83 -86 -97 -98 -110 -111 -122 -123 -145 0
-20 -38 -39 -54 -56 -70 -71 -83 -86 -97 -98 -110 -111 -122 -123 -145 0
-20 -38 -39 -55 -56 -70 -72 -83 -86 -97 -98 -110 -111 -122 -123 -145 0
-20 -38 -39 -55 -56 -71 -72 -83 -87 -97 -98 -110 -111 -122 -123 -145 0
-18 -36 -37 -53 -54 -69 -70 -84 -85 -97 -99 -110 -111 -122 -123 -145 0
-19 -36 -38 -53 -54 -69 -70 -84 -85 -97 -99 -110 -111 -122 -123 -145 0
-20 -36 -39 -53 -54 -69 -70 -84 -85 -97 -99 -110 -111 -122 -123 -145 0
-19 -37 -38 -53 -55 -69 -70 -84 -85 -97 -99 -110 -111 -122 -123 -145 0
-20 -37 -39 -53 -55 -69 -70 -84 -85 -97 -99 -110 -111 -122 -123 -145 0
-20 -38 -39 -53 -56 -69 -70 -84 -85 -97 -99 -110 -111 -122 -123 -145 0
-19 -37 -38 -54 -55 -69 -71 -84 -85 -97 -99 -110 -111 -122 -123 -145 0
-20 -37 -39 -54 -55 -69 -71 -84 -85 -97 -99 -110 -111 -122 -123 -145 0
-20 -38 -39 -54 -56 -69 -71 -84 -85 -97 -99 -110 -111 -122 -123 -145 0
-20 -38 -39 -55 -56 -69 -72 -84 -85 -97 -99 -110 -111 -122 -123 -145 0
-19 -37 -38 -54 -55 -70 -71 -84 -86 -97 -99 -110 -111 -122 -123 -145 0
-20 -37 -39 -54 -55 -70 -71 -84 -86 -97 -99 -110 -111 -122 -123 -145 0
-20 -38 -39 -54 -56 -70 -71 -84 -86 -97 -99 -110 -111 -122 -123 -145 0
-20 -38 -39 -55 -56 -70 -72 -84 -86 -97 -99 -110 -111 -122 -123 -145 0
-20 -38 -39 -55 -56 -71 -72 -84 -87 -97 -99 -110 -111 -122 -123 -145 0
-19 -37 -38 -54 -55 -70 -71 -85 -86 -97 -100 -110 -111 -122 -123 -145 0
-20 -37 -39 -54 -55 -70 -71 -85 -86 -97 -100 -110 -111 -122 -123 -145 0
-20 -38 -39 -54 -56 -70 -71 -85 -86 -97 -100 -110 -111 -122 -123 -145 0
-20 -38 -39 -55 -56 -70 -72 -85 -86 -97 -100 -110 -111 -122 -123 -145 0
-20 -38 -39 -55 -56 -71 -72 -85 -87 -97 -100 -110 -111 -122 -123 -145 0
-20 -38 -39 -55 -56 -71 -72 -86 -87 -97 -101 -110 -111 -122 -123 -145 0
-18 -36 -37 -53 -54 -69 -70 -84 -85 -98 -99 -110 -112 -122 -123 -145 0
-19 -36 -38 -53 -54 -69 -70 -84 -85 -98 -99 -110 -112 -122 -123 -145 0
-20 -36 -39 -53 -54 -69 -70 -84 -85 -98 -99 -110 -112 -122 -123 -145 0
-19 -37 -38 -53 -55 -69 -70 -84 -85 -98 -99 -110 -112 -122 -123 -145 0
-20 -37 -39 -53 -55 -69 -70 -84 -85 -98 -99 -110 -112 -122 -123 -145 0
-20 -38 -39 -53 -56 -69 -70 -84 -85 -98 -99 -110 -112 -122 -123 -145 0
-19 -37 -38 -54 -55 -69 -71 -84 -85 -98 -99 -110 -112 -122 -123 -145 0
-20 -37 -39 -54 -55 -69 -71 -84 -85 -98 -99 -110 -112 -122 -123 -145 0
-20 -38 -39 -54 -56 -69 -71 -84 -85 -98 -99 -110 -112 -122 -123 -145 0
-20 -38 -39 -55 -56 -69 -72 -84 -85 -98 -99 -110 -112 -122 -123 -145 0
-19 -37 -38 -54 -55 -70 -71 -84 -86 -98 -99 -110 -112 -122 -123 -145 0
-20 -37 -39 -54 -55 -70 -71 -84 -86 -98 -99 -110 -112 -122 -123 -145 0
-20 -38 -39 -54 -56 -70 -71 -84 -86 -98 -99 -110 -112 -122 -123 -145 0
-20 -38 -39 -55 -56 -70 -72 -84 -86 -98 -99 -110 -112 -122 -123 -145 0
-20 -38 -39 -55 -56 -71 -72 -84 -87 -98 -99 -110 -112 -122 -123 -145 0
-19 -37 -38 -54 -55 -70 -71 -85 -86 -98 -100 -110 -112 -122 -123 -145 0
-20 -37 -39 -54 -55 -70 -71 -85 -86 -98 -100 -110 -112 -122 -123 -145 0
-20 -38 -39 -54 -56 -70 -71 -85 -86 -98 -100 -110 -112 -122 -123 -145 0
-20 -38 -39 -55 -56 -70 -72 -85 -86 -98 -100 -110 -112 -122 -123 -145 0
-20 -38 -39 -55 -56 -71 -72 -85 -87 -98 -100 -110 -112 -122 -123 -145 0
-20 -38 -39 -55 -56 -71 -72 -86 -87 -98 -101 -110 -112 -122 -123 -145 0
-19 -37 -38 -54 -55 -70 -71 -85 -86 -99 -100 -110 -113 -122 -123 -145 0
-20 -37 -39 -54 -55 -70 -71 -85 -86 -99 -100 -110 -113 -122 -123 -145 0
-20 -38 -39 -54 -56 -70 -71 -85 -86 -99 -100 -110 -113 -122 -123 -145 0
-20 -38 -39 -55 -56 -70 -72 -85 -86 -99 -100 -110 -113 -122 -123 -145 0
-20 -38 -39 -55 -56 -71 -72 -85 -87 -99 -100 -110 -113 -122 -123 -145 0
-20 -38 -39 -55 -56 -71 -72 -86 -87 -99 -101 -110 -113 -122 -123 -145 0
-20 -38 -39 -55 -56 -71 -72 -86 -87 -100 -101 -110 -114 -122 -123 -145 0
-18 -36 -37 -53 -54 -69 -70 -84 -85 -98 -99 -111 -112 -122 -124 -145 0
-19 -36 -38 -53 -54 -69 -70 -84 -85 -98 -99 -111 -112 -122 -124 -145 0
-20 -36 -39 -53 -54 -69 -70 -84 -85 -98 -99 -111 -112 -122 -124 -145 0
-19 -37 -38 -53 -55 -69 -70 -84 -85 -98 -99 -111 -112 -122 -124 -145 0
-20 -37 -39 -53 -55 -69 -70 -84 -85 -98 -99 -111 -112 -122 -124 -145 0
-20 -38 -39 -53 -56 -69 -70 -84 -85 -98 -99 -111 -112 -122 -124 -145 0
-19 -37 -38 -54 -55 -69 -71 -84 -85 -98 -99 -111 -112 -122 -124 -145 0
-20 -37 -39 -54 -55 -69 -71 -84 -85 -98 -99 -111 -112 -122 -124 -145 0
-20 -38 -39 -54 -56 -69 -71 -84 -85 -98 -99 -111 -112 -122 -124 -145 0
-20 -38 -39 -55 -56 -69 -72 -84 -85 -98 -99 -111 -112 -122 -124 -145 0
-19 -37 -38 -54 -55 -70 -71 -84 -86 -98 -99 -111 -112 -122 -124 -145 0
-20 -37 -39 -54 -55 -70 -71 -84 -86 -98 -99 -111 -112 -122 -124 -145 0
-20 -38 -39 -54 -56 -70 -71 -84 -86 -98 -99 -111 -112 -122 -124 -145 0
-20 -38 -39 -55 -56 -70 -72 -84 -86 -98 -99 -111 -112 -122 -124 -145 0
-20 -38 -39 -55 -56 -71 -72 -84 -87 -98 -99 -111 -112 -122 -124 -145 0
-19 -37 -38 -54 -55 -70 -71 -85 -86 -98 -100 -111 -112 -122 -124 -145 0
-20 -37 -39 -54 -55 -70 -71 -85 -86 -98 -100 -111 -112 -122 -124 -145 0
-20 -38 -39 -54 -56 -70 -71 -85 -86 -98 -100 -111 -112 -122 -124 -145 0
-20 -38 -39 -55 -56 -70 -72 -85 -86 -98 -100 -111 -112 -122 -124 -145 0
-20 -38 -39 -55 -56 -71 -72 -85 -87 -98 -100 -111 -112 -122 -124 -145 0
-20 -38 -39 -55 -56 -71 -72 -86 -87 -98 -101 -111 -112 -122 -124 -145 0
-19 -37 -38 -54 -55 -70 -71 -85 -86 -99 -100 -111 -113 -122 -124 -145 0
-20 -37 -39 -54 -55 -70 -71 -85 -86 -99 -100 -111 -113 -122 -124 -145 0
-20 -38 -39 -54 -56 -70 -71 -85 -86 -99 -100 -111 -113 -122 -124 -145 0
-20 -38 -39 -55 -56 -70 -72 -85 -86 -99 -100 -111 -113 -122 -124 -145 0
-20 -38 -39 -55 -56 -71 -72 -85 -87 -99 -100 -111 -113 -122 -124 -145 0
-20 -38 -39 -55 -56 -71 -72 -86 -87 -99 -101 -111 -113 -122 -124 -145 0
-20 -38 -39 -55 -56 -71 -72 -86 -87 -100 -101 -111 -114 -122 -124 -145 0
-19 -37 -38 -54 -55 -70 -71 -85 -86 -99 -100 -112 -113 -122 -125 -145 0
-20 -37 -39 -54 -55 -70 -71 -85 -86 -99 -100 -112 -113 -122 -125 -145 0
-20 -38 -39 -54 -56 -70 -71 -85 -86 -99 -100 -112 -113 -122 -125 -145 0
-20 -38 -39 -55 -56 -70 -72 -85 -86 -99 -100 -112 -113 -122 -125 -145 0
-20 -38 -39 -55 -56 -71 -72 -85 -87 -99 -100 -112 -113 -122 -125 -145 0
-20 -38 -39 -55 -56 -71 -72 -86 -87 -99 -101 -112 -113 -122 -125 -145 0
-20 -38 -39 -55 -56 -71 -72 -86 -87 -100 -101 -112 -114 -122 -125 -145 0
-20 -38 -39 -55 -56 -71 -72 -86 -87 -100 -101 -113 -114 -122 -126 -145 0
-18 -36 -37 -53 -54 -69 -70 -84 -85 -98 -99 -111 -112 -123 -124 -146 0
-19 -36 -38 -53 -54 -69 -70 -84 -85 -98 -99 -111 -112 -123 -124 -146 0
-20 -36 -39 -53 -54 -69 -70 -84 -85 -98 -99 -111 -112 -123 -124 -146 0
-19 -37 -38 -53 -55 -69 -70 -84 -85 -98 -99 -111 -112 -123 -124 -146 0
-20 -37 -39 -53 -55 -69 -70 -84 -85 -98 -99 -111 -112 -123 -124 -146 0
-20 -38 -39 -53 -56 -69 -70 -84 -85 -98 -99 -111 -112 -123 -124 -146 0
-19 -37 -38 -54 -55 -69 -71 -84 -85 -98 -99 -111 -112 -123 -124 -146 0
-20 -37 -39 -54 -55 -69 -71 -84 -85 -98 -99 -111 -112 -123 -124 -146 0
-20 -38 -39 -54 -56 -69 -71 -84 -85 -98 -99 -111 -112 -123 -124 -146 0
-20 -38 -39 -55 -56 -69 -72 -84 -85 -98 -99 -111 -112 -123 -124 -146 0
-19 -37 -38 -54 -55 -70 -71 -84 -86 -98 -99 -111 -112 -123 -124 -146 0
-20 -37 -39 -54 -55 -70 -71 -84 -86 -98 -99 -111 -112 -123 -124 -146 0
-20 -38 -39 -54 -56 -70 -71 -84 -86 -98 -99 -111 -112 -123 -124 -146 0
-20 -38 -39 -55 -56 -70 -72 -84 -86 -98 -99 -111 -112 -123 -124 -146 0
-20 -38 -39 -55 -56 -71 -72 -84 -87 -98 -99 -111 -112 -123 -124 -146 0
-19 -37 -38 -54 -55 -70 -71 -85 -86 -98 -100 -111 -112 -123 -124 -146 0
-20 -37 -39 -54 -55 -70 -71 -85 -86 -98 -100 -111 -112 -123 -124 -146 0
-20 -38 -39 -54 -56 -70 -71 -85 -86 -98 -100 -111 -112 -123 -124 -146 0
-20 -38 -39 -55 -56 -70 -72 -85 -86 -98 -100 -111 -112 -123 -124 -146 0
-20 -38 -39 -55 -56 -71 -72 -85 -87 -98 -100 -111 -112 -123 -124 -146 0
-20 -38 -39 -55 -56 -71 -72 -86 -87 -98 -101 -111 -112 -123 -124 -146 0
-19 -37 -38 -54 -55 -70 -71 -85 -86 -99 -100 -111 -113 -123 -124 -146 0
-20 -37 -39 -54 -55 -70 -71 -85 -86 -99 -100 -111 -113 -123 -124 -146 0
-20 -38 -39 -54 -56 -70 -71 -85 -86 -99 -100 -111 -113 -123 -124 -146 0
-20 -38 -39 -55 -56 -70 -72 -85 -86 -99 -100 -111 -113 -123 -124 -146 0
-20 -38 -39 -55 -56 -71 -72 -85 -87 -99 -100 -111 -113 -123 -124 -146 0
-20 -38 -39 -55 -56 -71 -72 -86 -87 -99 -101 -111 -113 -123 -124 -146 0
-20 -38 -39 -55 -56 -71 -72 -86 -87 -100 -101 -111 -114 -123 -124 -146 0
-19 -37 -38 -54 -55 -70 -71 -85 -86 -99 -100 -112 -113 -123 -125 -146 0
-20 -37 -39 -54 -55 -70 -71 -85 -86 -99 -100 -112 -113 -123 -125 -146 0
-20 -38 -39 -54 -56 -70 -71 -85 -86 -99 -100 -112 -113 -123 -125 -146 0
-20 -38 -39 -55 -56 -70 -72 -85 -86 -99 -100 -112 -113 -123 -125 -146 0
-20 -38 -39 -55 -56 -71 -72 -85 -87 -99 -100 -112 -113 -123 -125 -146 0
-20 -38 -39 -55 -56 -71 -72 -86 -87 -99 -101 -112 -113 -123 -125 -146 0
-20 -38 -39 -55 -56 -71 -72 -86 -87 -100 -101 -112 -114 -123 -125 -146 0
-20 -38 -39 -55 -56 -71 -72 -86 -87 -100 -101 -113 -114 -123 -126 -146 0
-19 -37 -38 -54 -55 -70 -71 -85 -86 -99 -100 -112 -113 -124 -125 -147 0
-20 -37 -39 -54 -55 -70 -71 -85 -86 -99 -100 -112 -113 -124 -125 -147 0
-20 -38 -39 -54 -56 -70 -71 -85 -86 -99 -100 -112 -113 -124 -125 -147 0
-20 -38 -39 -55 -56 -70 -72 -85 -86 -99 -100 -112 -113 -124 -125 -147 0
-20 -38 -39 -55 -56 -71 -72 -85 -87 -99 -100 -112 -113 -124 -125 -147 0
-20 -38 -39 -55 -56 -71 -72 -86 -87 -99 -101 -112 -113 -124 -125 -147 0
-20 -38 -39 -55 -56 -71 -72 -86 -87 -100 -101 -112 -114 -124 -125 -147 0
-20 -38 -39 -55 -56 -71 -72 -86 -87 -100 -101 -113 -114 -124 -126 -147 0
-20 -38 -39 -55 -56 -71 -72 -86 -87 -100 -101 -113 -114 -125 -126 -148 0
-18 -36 -37 -53 -54 -69 -70 -84 -85 -98 -99 -111 -112 -123 -124 -156 0
-19 -36 -38 -53 -54 -69 -70 -84 -85 -98 -99 -111 -112 -123 -124 -156 0
-20 -36 -39 -53 -54 -69 -70 -84 -85 -98 -99 -111 -112 -123 -124 -156 0
-19 -37 -38 -53 -55 -69 -70 -84 -85 -98 -99 -111 -112 -123 -124 -156 0
-20 -37 -39 -53 -55 -69 -70 -84 -85 -98 -99 -111 -112 -123 -124 -156 0
-20 -38 -39 -53 -56 -69 -70 -84 -85 -98 -99 -111 -112 -123 -124 -156 0
-19 -37 -38 -54 -55 -69 -71 -84 -85 -98 -99 -111 -112 -123 -124 -156 0
-20 -37 -39 -54 -55 -69 -71 -84 -85 -98 -99 -111 -112 -123 -124 -156 0
-20 -38 -39 -54 -56 -69 -71 -84 -85 -98 -99 -111 -112 -123 -124 -156 0
-20 -38 -39 -55 -56 -69 -72 -84 -85 -98 -99 -111 -112 -123 -124 -156 0
-19 -37 -38 -54 -55 -70 -71 -84 -86 -98 -99 -111 -112 -123 -124 -156 0
-20 -37 -39 -54 -55 -70 -71 -84 -86 -98 -99 -111 -112 -123 -124 -156 0
-20 -38 -39 -54 -56 -70 -71 -84 -86 -98 -99 -111 -112 -123 -124 -156 0
-20 -38 -39 -55 -56 -70 -72 -84 -86 -98 -99 -111 -112 -123 -124 -156 0
-20 -38 -39 -55 -56 -71 -72 -84 -87 -98 -99 -111 -112 -123 -124 -156 0
-19 -37 -38 -54 -55 -70 -71 -85 -86 -98 -100 -111 -112 -123 -124 -156 0
-20 -37 -39 -54 -55 -70 -71 -85 -86 -98 -100 -111 -112 -123 -124 -156 0
-20 -38 -39 -54 -56 -70 -71 -85 -86 -98 -100 -111 -112 -123 -124 -156 0
-20 -38 -39 -55 -56 -70 -72 -85 -86 -98 -100 -111 -112 -123 -124 -156 0
-20 -38 -39 -55 -56 -71 -72 -85 -87 -98 -100 -111 -112 -123 -124 -156 0
-20 -38 -39 -55 -56 -71 -72 -86 -87 -98 -101 -111 -112 -123 -124 -156 0
-19 -37 -38 -54 -55 -70 -71 -85 -86 -99 -100 -111 -113 -123 -124 -156 0
-20 -37 -39 -54 -55 -70 -71 -85 -86 -99 -100 -111 -113 -123 -124 -156 0
-20 -38 -39 -54 -56 -70 -71 -85 -86 -99 -100 -111 -113 -123 -124 -156 0
-20 -38 -39 -55 -56 -70 -72 -85 -86 -99 -100 -111 -113 -123 -124 -156 0
-20 -38 -39 -55 -56 -71 -72 -85 -87 -99 -100 -111 -113 -123 -124 -156 0
-20 -38 -39 -55 -56 -71 -72 -86 -87 -99 -101 -111 -113 -123 -124 -156 0
-20 -38 -39 -55 -56 -71 -72 -86 -87 -100 -101 -111 -114 -123 -124 -156 0
-19 -37 -38 -54 -55 -70 -71 -85 -86 -99 -100 -112 -113 -123 -125 -156 0
-20 -37 -39 -54 -55 -70 -71 -85 -86 -99 -100 -112 -113 -123 -125 -156 0
-20 -38 -39 -54 -56 -70 -71 -85 -86 -99 -100 -112 -113 -123 -125 -156 0
-20 -38 -39 -55 -56 -70 -72 -85 -86 -99 -100 -112 -113 -123 -125 -156 0
-20 -38 -39 -55 -56 -71 -72 -85 -87 -99 -100 -112 -113 -123 -125 -156 0
-20 -38 -39 -55 -56 -71 -72 -86 -87 -99 -101 -112 -113 -123 -125 -156 0
-20 -38 -39 -55 -56 -71 -72 -86 -87 -100 -101 -112 -114 -123 -125 -156 0
-20 -38 -39 -55 -56 -71 -72 -86 -87 -100 -101 -113 -114 -123 -126 -156 0
-19 -37 -38 -54 -55 -70 -71 -85 -86 -99 -100 -112 -113 -124 -125 -157 0
-20 -37 -39 -54 -55 -70 -71 -85 -86 -99 -100 -112 -113 -124 -125 -157 0
-20 -38 -39 -54 -56 -70 -71 -85 -86 -99 -100 -112 -113 -124 -125 -157 0
-20 -38 -39 -55 -56 -70 -72 -85 -86 -99 -100 -112 -113 -124 -125 -157 0
-20 -38 -39 -55 -56 -71 -72 -85 -87 -99 -100 -112 -113 -124 -125 -157 0
-20 -38 -39 -55 -56 -71 -72 -86 -87 -99 -101 -112 -113 -124 -125 -157 0
-20 -38 -39 -55 -56 -71 -72 -86 -87 -100 -101 -112 -114 -124 -125 -157 0
-20 -38 -39 -55 -56 -71 -72 -86 -87 -100 -101 -113 -114 -124 -126 -157 0
-20 -38 -39 -55 -56 -71 -72 -86 -87 -100 -101 -113 -114 -125 -126 -158 0
-19 -37 -38 -54 -55 -70 -71 -85 -86 -99 -100 -112 -113 -124 -125 -166 0
-20 -37 -39 -54 -55 -70 -71 -85 -86 -99 -100 -112 -113 -124 -125 -166 0
-20 -38 -39 -54 -56 -70 -71 -85 -86 -99 -100 -112 -113 -124 -125 -166 0
-20 -38 -39 -55 -56 -70 -72 -85 -86 -99 -100 -112 -113 -124 -125 -166 0
-20 -38 -39 -55 -56 -71 -72 -85 -87 -99 -100 -112 -113 -124 -125 -166 0
-20 -38 -39 -55 -56 -71 -72 -86 -87 -99 -101 -112 -113 -124 -125 -166 0
-20 -38 -39 -55 -56 -71 -72 -86 -87 -100 -101 -112 -114 -124 -125 -166 0
-20 -38 -39 -55 -56 -71 -72 -86 -87 -100 -101 -113 -114 -124 -126 -166 0
-20 -38 -39 -55 -56 -71 -72 -86 -87 -100 -101 -113 -114 -125 -126 -167 0
-20 -38 -39 -55 -56 -71 -72 -86 -87 -100 -101 -113 -114 -125 -126 -175 0
-17 -35 -36 -52 -53 -68 -69 -83 -84 -97 -98 -110 -111 -134 -135 -145 0
-18 -35 -37 -52 -53 -68 -69 -83 -84 -97 -98 -110 -111 -134 -135 -145 0
-19 -35 -38 -52 -53 -68 -69 -83 -84 -97 -98 -110 -111 -134 -135 -145 0
-20 -35 -39 -52 -53 -68 -69 -83 -84 -97 -98 -110 -111 -134 -135 -145 0
-18 -36 -37 -52 -54 -68 -69 -83 -84 -97 -98 -110 -111 -134 -135 -145 0
-19 -36 -38 -52 -54 -68 -69 -83 -84 -97 -98 -110 -111 -134 -135 -145 0
-20 -36 -39 -52 -54 -68 -69 -83 -84 -97 -98 -110 -111 -134 -135 -145 0
-19 -37 -38 -52 -55 -68 -69 -83 -84 -97 -98 -110 -111 -134 -135 -145 0
-20 -37 -39 -52 -55 -68 -69 -83 -84 -97 -98 -110 -111 -134 -135 -145 0
-20 -38 -39 -52 -56 -68 -69 -83 -84 -97 -98 -110 -111 -134 -135 -145 0
-18 -36 -37 -53 -54 -68 -70 -83 -84 -97 -98 -110 -111 -134 -135 -145 0
-19 -36 -38 -53 -54 -68 -70 -83 -84 -97 -98 -110 -111 -134 -135 -145 0
-20 -36 -39 -53 -54 -68 -70 -83 -84 -97 -98 -110 -111 -134 -135 -145 0
-19 -37 -38 -53 -55 -68 -70 -83 -84 -97 -98 -110 -111 -134 -135 -145 0
-20 -37 -39 -53 -55 -68 -70 -83 -84 -97 -98 -110 -111 -134 -135 -145 0
-20 -38 -39 -53 -56 -68 -70 -83 -84 -97 -98 -110 -111 -134 -135 -145 0
-19 -37 -38 -54 -55 -68 -71 -83 -84 -97 -98 -110 -111 -134 -135 -145 0
-20 -37 -39 -54 -55 -68 -71 -83 -84 -97 -98 -110 -111 -134 -135 -145 0
-20 -38 -39 -54 -56 -68 -71 -83 -84 -97 -98 -110 -111 -134 -135 -145 0
-20 -38 -39 -55 -56 -68 -72 -83 -84 -97 -98 -110 -111 -134 -135 -145 0
-18 -36 -37 -53 -54 -69 -70 -83 -85 -97 -98 -110 -111 -134 -135 -145 0
-19 -36 -38 -53 -54 -69 -70 -83 -85 -97 -98 -110 -111 -134 -135 -145 0
-20 -36 -39 -53 -54 -69 -70 -83 -85 -97 -98 -110 -111 -134 -135 -145 0
-19 -37 -38 -53 -55 -69 -70 -83 -85 -97 -98 -110 -111 -134 -135 -145 0
-20 -37 -39 -53 -55 -69 -70 -83 -85 -97 -98 -110 -111 -134 -135 -145 0
-20 -38 -39 -53 -56 -69 -70 -83 -85 -97 -98 -110 -111 -134 -135 -145 0
-19 -37 -38 -54 -55 -69 -71 -83 -85 -97 -98 -110 -111 -134 -135 -145 0
-20 -37 -39 -54 -55 -69 -71 -83 -85 -97 -98 -110 -111 -134 -135 -145 0
-20 -38 -39 -54 -56 -69 -71 -83 -85 -97 -98 -110 -111 -134 -135 -145 0
-20 -38 -39 -55 -56 -69 -72 -83 -85 -97 -98 -110 -111 -134 -135 -145 0
-19 -37 -38 -54 -55 -70 -71 -83 -86 -97 -98 -110 -111 -134 -135 -145 0
-20 -37 -39 -54 -55 -70 -71 -83 -86 -97 -98 -110 -111 -134 -135 -145 0
-20 -38 -39 -54 -56 -70 -71 -83 -86 -97 -98 -110 -111 -134 -135 -145 0
-20 -38 -39 -55 -56 -70 -72 -83 -86 -97 -98 -110 -111 -134 -135 -145 0
-20 -38 -39 -55 -56 -71 -72 -83 -87 -97 -98 -110 -111 -134 -135 -145 0
-18 -36 -37 -53 -54 -69 -70 -84 -85 -97 -99 -110 -111 -134 -135 -145 0
-19 -36 -38 -53 -54 -69 -70 -84 -85 -97 -99 -110 -111 -134 -135 -145 0
-20 -36 -39 -53 -54 -69 -70 -84 -85 -97 -99 -110 -111 -134 -135 -145 0
-19 -37 -38 -53 -55 -69 -70 -84 -85 -97 -99 -110 -111 -134 -135 -145 0
-20 -37 -39 -53 -55 -69 -70 -84 -85 -97 -99 -110 -111 -134 -135 -145 0
-20 -38 -39 -53 -56 -69 -70 -84 -85 -97 -99 -110 -111 -134 -135 -145 0
-19 -37 -38 -54 -55 -69 -71 -84 -85 -97 -99 -110 -111 -134 -135 -145 0
-20 -37 -39 -54 -55 -69 -71 -84 -85 -97 -99 -110 -111 -134 -135 -145 0
-20 -38 -39 -54 -56 -69 -71 -84 -85 -97 -99 -110 -111 -134 -135 -145 0
-20 -38 -39 -55 -56 -69 -72 -84 -85 -97 -99 -110 -111 -134 -135 -145 0
-19 -37 -38 -54 -55 -70 -71 -84 -86 -97 -99 -110 -111 -134 -135 -145 0
-20 -37 -39 -54 -55 -70 -71 -84 -86 -97 -99 -110 -111 -134 -135 -145 0
-20 -38 -39 -54 -56 -70 -71 -84 -86 -97 -99 -110 -111 -134 -135 -145 0
-20 -38 -39 -55 -56 -70 -72 -84 -86 -97 -99 -110 -111 -134 -135 -145 0
-20 -38 -39 -55 -56 -71 -72 -84 -87 -97 -99 -110 -111 -134 -135 -145 0
-19 -37 -38 -54 -55 -70 -71 -85 -86 -97 -100 -110 -111 -134 -135 -145 0
-20 -37 -39 -54 -55 -70 -71 -85 -86 -97 -100 -110 -111 -134 -135 -145 0
-20 -38 -39 -54 -56 -70 -71 -85 -86 -97 -100 -110 -111 -134 -135 -145 0
-20 -38 -39 -55 -56 -70 -72 -85 -86 -97 -100 -110 -111 -134 -135 -145 0
-20 -38 -39 -55 -56 -71 -72 -85 -87 -97 -100 -110 -111 -134 -135 -145 0
-20 -38 -39 -55 -56 -71 -72 -86 -87 -97 -101 -110 -111 -134 -135 -145 0
-18 -36 -37 -53 -54 -69 -70 -84 -85 -98 -99 -110 -112 -134 -135 -145 0
-19 -36 -38 -53 -54 -69 -70 -84 -85 -98 -99 -110 -112 -134 -135 -145 0
-20 -36 -39 -53 -54 -69 -70 -84 -85 -98 -99 -110 -112 -134 -135 -145 0
-19 -37 -38 -53 -55 -69 -70 -84 -85 -98 -99 -110 -112 -134 -135 -145 0
-20 -37 -39 -53 -55 -69 -70 -84 -85 -98 -99 -110 -112 -134 -135 -145 0
-20 -38 -39 -53 -56 -69 -70 -84 -85 -98 -99 -110 -112 -134 -135 -145 0
-19 -37 -38 -54 -55 -69 -71 -84 -85 -98 -99 -110 -112 -134 -135 -145 0
-20 -37 -39 -54 -55 -69 -71 -84 -85 -98 -99 -110 -112 -134 -135 -145 0
-20 -38 -39 -54 -56 -69 -71 -84 -85 -98 -99 -110 -112 -134 -135 -145 0
-20 -38 -39 -55 -56 -69 -72 -84 -85 -98 -99 -110 -112 -134 -135 -145 0
-19 -37 -38 -54 -55 -70 -71 -84 -86 -98 -99 -110 -112 -134 -135 -145 0
-20 -37 -39 -54 -55 -70 -71 -84 -86 -98 -99 -110 -112 -134 -135 -145 0
-20 -38 -39 -54 -56 -70 -71 -84 -86 -98 -99 -110 -112 -134 -135 -145 0
-20 -38 -39 -55 -56 -70 -72 -84 -86 -98 -99 -110 -112 -134 -135 -145 0
-20 -38 -39 -55 -56 -71 -72 -84 -87 -98 -99 -110 -112 -134 -135 -145 0
-19 -37 -38 -54 -55 -70 -71 -85 -86 -98 -100 -110 -112 -134 -135 -145 0
-20 -37 -39 -54 -55 -70 -71 -85 -86 -98 -100 -110 -112 -134 -135 -145 0
-20 -38 -39 -54 -56 -70 -71 -85 -86 -98 -100 -110 -112 -134 -135 -145 0
-20 -38 -39 -55 -56 -70 -72 -85 -86 -98 -100 -110 -112 -134 -135 -145 0
-20 -38 -39 -55 -56 -71 -72 -85 -87 -98 -100 -110 -112 -134 -135 -145 0
-20 -38 -39 -55 -56 -71 -72 -86 -87 -98 -101 -110 -112 -134 -135 -145 0
-19 -37 -38 -54 -55 -70 -71 -85 -86 -99 -100 -110 -113 -134 -135 -145 0
-20 -37 -39 -54 -55 -70 -71 -85 -86 -99 -100 -110 -113 -134 -135 -145 0
-20 -38 -39 -54 -56 -70 -71 -85 -86 -99 -100 -110 -113 -134 -135 -145 0
-20 -38 -39 -55 -56 -70 -72 -85 -86 -99 -100 -110 -113 -134 -135 -145 0
-20 -38 -39 -55 -56 -71 -72 -85 -87 -99 -100 -110 -113 -134 -135 -145 0
-20 -38 -39 -55 -56 -71 -72 -86 -87 -99 -101 -110 -113 -134 -135 -145 0
-20 -38 -39 -55 -56 -71 -72 -86 -87 -100 -101 -110 -114 -134 -135 -145 0
-18 -36 -37 -53 -54 -69 -70 -84 -85 -98 -99 -111 -112 -134 -136 -145 0
-19 -36 -38 -53 -54 -69 -70 -84 -85 -98 -99 -111 -112 -134 -136 -145 0
-20 -36 -39 -53 -54 -69 -70 -84 -85 -98 -99 -111 -112 -134 -136 -145 0
-19 -37 -38 -53 -55 -69 -70 -84 -85 -98 -99 -111 -112 -134 -136 -145 0
-20 -37 -39 -53 -55 -69 -70 -84 -85 -98 -99 -111 -112 -134 -136 -145 0
-20 -38 -39 -53 -56 -69 -70 -84 -85 -98 -99 -111 -112 -134 -136 -145 0
-19 -37 -38 -54 -55 -69 -71 -84 -85 -98 -99 -111 -112 -134 -136 -145 0
-20 -37 -39 -54 -55 -69 -71 -84 -85 -98 -99 -111 -112 -134 -136 -145 0
-20 -38 -39 -54 -56 -69 -71 -84 -85 -98 -99 -111 -112 -134 -136 -145 0
-20 -38 -39 -55 -56 -69 -72 -84 -85 -98 -99 -111 -112 -134 -136 -145 0
-19 -37 -38 -54 -55 -70 -71 -84 -86 -98 -99 -111 -112 -134 -136 -145 0
-20 -37 -39 -54 -55 -70 -71 -84 -86 -98 -99 -111 -112 -134 -136 -145 0
-20 -38 -39 -54 -56 -70 -71 -84 -86 -98 -99 -111 -112 -134 -136 -145 0
-20 -38 -39 -55 -56 -70 -72 -84 -86 -98 -99 -111 -112 -134 -136 -145 0
-20 -38 -39 -55 -56 -71 -72 -84 -87 -98 -99 -111 -112 -134 -136 -145 0
-19 -37 -38 -54 -55 -70 -71 -85 -86 -98 -100 -111 -112 -134 -136 -145 0
-20 -37 -39 -54 -55 -70 -71 -85 -86 -98 -100 -111 -112 -134 -136 -145 0
-20 -38 -39 -54 -56 -70 -71 -85 -86 -98 -100 -111 -112 -134 -136 -145 0
-20 -38 -39 -55 -56 -70 -72 -85 -86 -98 -100 -111 -112 -134 -136 -145 0
-20 -38 -39 -55 -56 -71 -72 -85 -87 -98 -100 -111 -112 -134 -136 -145 0
-20 -38 -39 -55 -56 -71 -72 -86 -87 -98 -101 -111 -112 -134 -136 -145 0
-19 -37 -38 -54 -55 -70 -71 -85 -86 -99 -100 -111 -113 -134 -136 -145 0
-20 -37 -39 -54 -55 -70 -71 -85 -86 -99 -100 -111 -113 -134 -136 -145 0
-20 -38 -39 -54 -56 -70 -71 -85 -86 -99 -100 -111 -113 -134 -136 -145 0
-20 -38 -39 -55 -56 -70 -72 -85 -86 -99 -100 -111 -113 -134 -136 -145 0
-20 -38 -39 -55 -56 -71 -72 -85 -87 -99 -100 -111 -113 -134 -136 -145 0
-20 -38 -39 -55 -56 -71 -72 -86 -87 -99 -101 -111 -113 -134 -136 -145 0
-20 -38 -39 -55 -56 -71 -72 -86 -87 -100 -101 -111 -114 -134 -136 -145 0
-19 -37 -38 -54 -55 -70 -71 -85 -86 -99 -100 -112 -113 -134 -137 -145 0
-20 -37 -39 -54 -55 -70 -71 -85 -86 -99 -100 -112 -113 -134 -137 -145 0
-20 -38 -39 -54 -56 -70 -71 -85 -86 -99 -100 -112 -113 -134 -137 -145 0
-20 -38 -39 -55 -56 -70 -72 -85 -86 -99 -100 -112 -113 -134 -137 -145 0
-20 -38 -39 -55 -56 -71 -72 -85 -87 -99 -100 -112 -113 -134 -137 -145 0
-20 -38 -39 -55 -56 -71 -72 -86 -87 -99 -101 -112 -113 -134 -137 -145 0
-20 -38 -39 -55 -56 -71 -72 -86 -87 -100 -101 -112 -114 -134 -137 -145 0
-20 -38 -39 -55 -56 -71 -72 -86 -87 -100 -101 -113 -114 -134 -138 -145 0
-18 -36 -37 -53 -54 -69 -70 -84 -85 -98 -99 -111 -112 -135 -136 -146 0
-19 -36 -38 -53 -54 -69 -70 -84 -85 -98 -99 -111 -112 -135 -136 -146 0
-20 -36 -39 -53 -54 -69 -70 -84 -85 -98 -99 -111 -112 -135 -136 -146 0
-19 -37 -38 -53 -55 -69 -70 -84 -85 -98 -99 -111 -112 -135 -136 -146 0
-20 -37 -39 -53 -55 -69 -70 -84 -85 -98 -99 -111 -112 -135 -136 -146 0
-20 -38 -39 -53 -56 -69 -70 -84 -85 -98 -99 -111 -112 -135 -136 -146 0
-19 -37 -38 -54 -55 -69 -71 -84 -85 -98 -99 -111 -112 -135 -136 -146 0
-20 -37 -39 -54 -55 -69 -71 -84 -85 -98 -99 -111 -112 -135 -136 -146 0
-20 -38 -39 -54 -56 -69 -71 -84 -85 -98 -99 -111 -112 -135 -136 -146 0
-20 -38 -39 -55 -56 -69 -72 -84 -85 -98 -99 -111 -112 -135 -136 -146 0
-19 -37 -38 -54 -55 -70 -71 -84 -86 -98 -99 -111 -112 -135 -136 -146 0
-20 -37 -39 -54 -55 -70 -71 -84 -86 -98 -99 -111 -112 -135 -136 -146 0
-20 -38 -39 -54 -56 -70 -71 -84 -86 -98 -99 -111 -112 -135 -136 -146 0
-20 -38 -39 -55 -56 -70 -72 -84 -86 -98 -99 -111 -112 -135 -136 -146 0
-20 -38 -39 -55 -56 -71 -72 -84 -87 -98 -99 -111 -112 -135 -136 -146 0
-19 -37 -38 -54 -55 -70 -71 -85 -86 -98 -100 -111 -112 -135 -136 -146 0
-20 -37 -39 -54 -55 -70 -71 -85 -86 -98 -100 -111 -112 -135 -136 -146 0
-20 -38 -39 -54 -56 -70 -71 -85 -86 -98 -100 -111 -112 -135 -136 -146 0
-20 -38 -39 -55 -56 -70 -72 -85 -86 -98 -100 -111 -112 -135 -136 -146 0
-20 -38 -39 -55 -56 -71 -72 -85 -87 -98 -100 -111 -112 -135 -136 -146 0
-20 -38 -39 -55 -56 -71 -72 -86 -87 -98 -101 -111 -112 -135 -136 -146 0
-19 -37 -38 -54 -55 -70 -71 -85 -86 -99 -100 -111 -113 -135 -136 -146 0
-20 -37 -39 -54 -55 -70 -71 -85 -86 -99 -100 -111 -113 -135 -136 -146 0
-20 -38 -39 -54 -56 -70 -71 -85 -86 -99 -100 -111 -113 -135 -136 -146 0
-20 -38 -39 -55 -56 -70 -72 -85 -86 -99 -100 -111 -113 -135 -136 -146 0
-20 -38 -39 -55 -56 -71 -72 -85 -87 -99 -100 -111 -113 -135 -136 -146 0
-20 -38 -39 -55 -56 -71 -72 -86 -87 -99 -101 -111 -113 -135 -136 -146 0
-20 -38 -39 -55 -56 -71 -72 -86 -87 -100 -101 -111 -114 -135 -136 -146 0
-19 -37 -38 -54 -55 -70 -71 -85 -86 -99 -100 -112 -113 -135 -137 -146 0
-20 -37 -39 -54 -55 -70 -71 -85 -86 -99 -100 -112 -113 -135 -137 -146 0
-20 -38 -39 -54 -56 -70 -71 -85 -86 -99 -100 -112 -113 -135 -137 -146 0
-20 -38 -39 -55 -56 -70 -72 -85 -86 -99 -100 -112 -113 -135 -137 -146 0
-20 -38 -39 -55 -56 -71 -72 -85 -87 -99 -100 -112 -113 -135 -137 -146 0
-20 -38 -39 -55 -56 -71 -72 -86 -87 -99 -101 -112 -113 -135 -137 -146 0
-20 -38 -39 -55 -56 -71 -72 -86 -87 -100 -101 -112 -114 -135 -137 -146 0
-20 -38 -39 -55 -56 -71 -72 -86 -87 -100 -101 -113 -114 -135 -138 -146 0
-19 -37 -38 -54 -55 -70 -71 -85 -86 -99 -100 -112 -113 -136 -137 -147 0
-20 -37 -39 -54 -55 -70 -71 -85 -86 -99 -100 -112 -113 -136 -137 -147 0
-20 -38 -39 -54 -56 -70 -71 -85 -86 -99 -100 -112 -113 -136 -137 -147 0
-20 -38 -39 -55 -56 -70 -72 -85 -86 -99 -100 -112 -113 -136 -137 -147 0
-20 -38 -39 -55 -56 -71 -72 -85 -87 -99 -100 -112 -113 -136 -137 -147 0
-20 -38 -39 -55 -56 -71 -72 -86 -87 -99 -101 -112 -113 -136 -137 -147 0
-20 -38 -39 -55 -56 -71 -72 -86 -87 -100 -101 -112 -114 -136 -137 -147 0
-20 -38 -39 -55 -56 -71 -72 -86 -87 -100 -101 -113 -114 -136 -138 -147 0
-20 -38 -39 -55 -56 -71 -72 -86 -87 -100 -101 -113 -114 -137 -138 -148 0
-18 -36 -37 -53 -54 -69 -70 -84 -85 -98 -99 -111 -112 -135 -136 -156 0
-19 -36 -38 -53 -54 -69 -70 -84 -85 -98 -99 -111 -112 -135 -136 -156 0
-20 -36 -39 -53 -54 -69 -70 -84 -85 -98 -99 -111 -112 -135 -136 -156 0
-19 -37 -38 -53 -55 -69 -70 -84 -85 -98 -99 -111 -112 -135 -136 -156 0
-20 -37 -39 -53 -55 -69 -70 -84 -85 -98 -99 -111 -112 -135 -136 -156 0
-20 -38 -39 -53 -56 -69 -70 -84 -85 -98 -99 -111 -112 -135 -136 -156 0
-19 -37 -38 -54 -55 -69 -71 -84 -85 -98 -99 -111 -112 -135 -136 -156 0
-20 -37 -39 -54 -55 -69 -71 -84 -85 -98 -99 -111 -112 -135 -136 -156 0
-20 -38 -39 -54 -56 -69 -71 -84 -85 -98 -99 -111 -112 -135 -136 -156 0
-20 -38 -39 -55 -56 -69 -72 -84 -85 -98 -99 -111 -112 -135 -136 -156 0
-19 -37 -38 -54 -55 -70 -71 -84 -86 -98 -99 -111 -112 -135 -136 -156 0
-20 -37 -39 -54 -55 -70 -71 -84 -86 -98 -99 -111 -112 -135 -136 -156 0
-20 -38 -39 -54 -56 -70 -71 -84 -86 -98 -99 -111 -112 -135 -136 -156 0
-20 -38 -39 -55 -56 -70 -72 -84 -86 -98 -99 -111 -112 -135 -136 -156 0
-20 -38 -39 -55 -56 -71 -72 -84 -87 -98 -99 -111 -112 -135 -136 -156 0
-19 -37 -38 -54 -55 -70 -71 -85 -86 -98 -100 -111 -112 -135 -136 -156 0
-20 -37 -39 -54 -55 -70 -71 -85 -86 -98 -100 -111 -112 -135 -136 -156 0
-20 -38 -39 -54 -56 -70 -71 -85 -86 -98 -100 -111 -112 -135 -136 -156 0
-20 -38 -39 -55 -56 -70 -72 -85 -86 -98 -100 -111 -112 -135 -136 -156 0
-20 -38 -39 -55 -56 -71 -72 -85 -87 -98 -100 -111 -112 -135 -136 -156 0
-20 -38 -39 -55 -56 -71 -72 -86 -87 -98 -101 -111 -112 -135 -136 -156 0
-19 -37 -38 -54 -55 -70 -71 -85 -86 -99 -100 -111 -113 -135 -136 -156 0
-20 -37 -39 -54 -55 -70 -71 -85 -86 -99 -100 -111 -113 -135 -136 -156 0
-20 -38 -39 -54 -56 -70 -71 -85 -86 -99 -100 -111 -113 -135 -136 -156 0
-20 -38 -39 -55 -56 -70 -72 -85 -86 -99 -100 -111 -113 -135 -136 -156 0
-20 -38 -39 -55 -56 -71 -72 -85 -87 -99 -100 -111 -113 -135 -136 -156 0
-20 -38 -39 -55 -56 -71 -72 -86 -87 -99 -101 -111 -113 -135 -136 -156 0
-20 -38 -39 -55 -56 -71 -72 -86 -87 -100 -101 -111 -114 -135 -136 -156 0
-19 -37 -38 -54 -55 -70 -71 -85 -86 -99 -100 -112 -113 -135 -137 -156 0
-20 -37 -39 -54 -55 -70 -71 -85 -86 -99 -100 -112 -113 -135 -137 -156 0
-20 -38 -39 -54 -56 -70 -71 -85 -86 -99 -100 -112 -113 -135 -137 -156 0
-20 -38 -39 -55 -56 -70 -72 -85 -86 -99 -100 -112 -113 -135 -137 -156 0
-20 -38 -39 -55 -56 -71 -72 -85 -87 -99 -100 -112 -113 -135 -137 -156 0
-20 -38 -39 -55 -56 -71 -72 -86 -87 -99 -101 -112 -113 -135 -137 -156 0
-20 -38 -39 -55 -56 -71 -72 -86 -87 -100 -101 -112 -114 -135 -137 -156 0
-20 -38 -39 -55 -56 -71 -72 -86 -87 -100 -101 -113 -114 -135 -138 -156 0
-19 -37 -38 -54 -55 -70 -71 -85 -86 -99 -100 -112 -113 -136 -137 -157 0
-20 -37 -39 -54 -55 -70 -71 -85 -86 -99 -100 -112 -113 -136 -137 -157 0
-20 -38 -39 -54 -56 -70 -71 -85 -86 -99 -100 -112 -113 -136 -137 -157 0
-20 -38 -39 -55 -56 -70 -72 -85 -86 -99 -100 -112 -113 -136 -137 -157 0
-20 -38 -39 -55 -56 -71 -72 -85 -87 -99 -100 -112 -113 -136 -137 -157 0
-20 -38 -39 -55 -56 -71 -72 -86 -87 -99 -101 -112 -113 -136 -137 -157 0
-20 -38 -39 -55 -56 -71 -72 -86 -87 -100 -101 -112 -114 -136 -137 -157 0
-20 -38 -39 -55 -56 -71 -72 -86 -87 -100 -101 -113 -114 -136 -138 -157 0
-20 -38 -39 -55 -56 -71 -72 -86 -87 -100 -101 -113 -114 -137 -138 -158 0
-19 -37 -38 -54 -55 -70 -71 -85 -86 -99 -100 -112 -113 -136 -137 -166 0
-20 -37 -39 -54 -55 -70 -71 -85 -86 -99 -100 -112 -113 -136 -137 -166 0
-20 -38 -39 -54 -56 -70 -71 -85 -86 -99 -100 -112 -113 -136 -137 -166 0
-20 -38 -39 -55 -56 -70 -72 -85 -86 -99 -100 -112 -113 -136 -137 -166 0
-20 -38 -39 -55 -56 -71 -72 -85 -87 -99 -100 -112 -113 -136 -137 -166 0
-20 -38 -39 -55 -56 -71 -72 -86 -87 -99 -101 -112 -113 -136 -137 -166 0
-20 -38 -39 -55 -56 -71 -72 -86 -87 -100 -101 -112 -114 -136 -137 -166 0
-20 -38 -39 -55 -56 -71 -72 -86 -87 -100 -101 -113 -114 -136 -138 -166 0
-20 -38 -39 -55 -56 -71 -72 -86 -87 -100 -101 -113 -114 -137 -138 -167 0
-20 -38 -39 -55 -56 -71 -72 -86 -87 -100 -101 -113 -114 -137 -138 -175 0
-18 -36 -37 -53 -54 -69 -70 -84 -85 -98 -99 -111 -112 -146 -147 -156 0
-19 -36 -38 -53 -54 -69 -70 -84 -85 -98 -99 -111 -112 -146 -147 -156 0
-20 -36 -39 -53 -54 -69 -70 -84 -85 -98 -99 -111 -112 -146 -147 -156 0
-19 -37 -38 -53 -55 -69 -70 -84 -85 -98 -99 -111 -112 -146 -147 -156 0
-20 -37 -39 -53 -55 -69 -70 -84 -85 -98 -99 -111 -112 -146 -147 -156 0
-20 -38 -39 -53 -56 -69 -70 -84 -85 -98 -99 -111 -112 -146 -147 -156 0
-19 -37 -38 -54 -55 -69 -71 -84 -85 -98 -99 -111 -112 -146 -147 -156 0
-20 -37 -39 -54 -55 -69 -71 -84 -85 -98 -99 -111 -112 -146 -147 -156 0
-20 -38 -39 -54 -56 -69 -71 -84 -85 -98 -99 -111 -112 -146 -147 -156 0
-20 -38 -39 -55 -56 -69 -72 -84 -85 -98 -99 -111 -112 -146 -147 -156 0
-19 -37 -38 -54 -55 -70 -71 -84 -86 -98 -99 -111 -112 -146 -147 -156 0
-20 -37 -39 -54 -55 -70 -71 -84 -86 -98 -99 -111 -112 -146 -147 -156 0
-20 -38 -39 -54 -56 -70 -71 -84 -86 -98 -99 -111 -112 -146 -147 -156 0
-20 -38 -39 -55 -56 -70 -72 -84 -86 -98 -99 -111 -112 -146 -147 -156 0
-20 -38 -39 -55 -56 -71 -72 -84 -87 -98 -99 -111 -112 -146 -147 -156 0
-19 -37 -38 -54 -55 -70 -71 -85 -86 -98 -100 -111 -112 -146 -147 -156 0
-20 -37 -39 -54 -55 -70 -71 -85 -86 -98 -100 -111 -112 -146 -147 -156 0
-20 -38 -39 -54 -56 -70 -71 -85 -86 -98 -100 -111 -112 -146 -147 -156 0
-20 -38 -39 -55 -56 -70 -72 -85 -86 -98 -100 -111 -112 -146 -147 -156 0
-20 -38 -39 -55 -56 -71 -72 -85 -87 -98 -100 -111 -112 -146 -147 -156 0
-20 -38 -39 -55 -56 -71 -72 -86 -87 -98 -101 -111 -112 -146 -147 -156 0
-19 -37 -38 -54 -55 -70 -71 -85 -86 -99 -100 -111 -113 -146 -147 -156 0
-20 -37 -39 -54 -55 -70 -71 -85 -86 -99 -100 -111 -113 -146 -147 -156 0
-20 -38 -39 -54 -56 -70 -71 -85 -86 -99 -100 -111 -113 -146 -147 -156 0
-20 -38 -39 -55 -56 -70 -72 -85 -86 -99 -100 -111 -113 -146 -147 -156 0
-20 -38 -39 -55 -56 -71 -72 -85 -87 -99 -100 -111 -113 -146 -147 -156 0
-20 -38 -39 -55 -56 -71 -72 -86 -87 -99 -101 -111 -113 -146 -147 -156 0
-20 -38 -39 -55 -56 -71 -72 -86 -87 -100 -101 -111 -114 -146 -147 -156 0
-19 -37 -38 -54 -55 -70 -71 -85 -86 -99 -100 -112 -113 -146 -148 -156 0
-20 -37 -39 -54 -55 -70 -71 -85 -86 -99 -100 -112 -113 -146 -148 -156 0
-20 -38 -39 -54 -56 -70 -71 -85 -86 -99 -100 -112 -113 -146 -148 -156 0
-20 -38 -39 -55 -56 -70 -72 -85 -86 -99 -100 -112 -113 -146 -148 -156 0
-20 -38 -39 -55 -56 -71 -72 -85 -87 -99 -100 -112 -113 -146 -148 -156 0
-20 -38 -39 -55 -56 -71 -72 -86 -87 -99 -101 -112 -113 -146 -148 -156 0
-20 -38 -39 -55 -56 -71 -72 -86 -87 -100 -101 -112 -114 -146 -148 -156 0
-20 -38 -39 -55 -56 -71 -72 -86 -87 -100 -101 -113 -114 -146 -149 -156 0
-19 -37 -38 -54 -55 -70 -71 -85 -86 -99 -100 -112 -113 -147 -148 -157 0
-20 -37 -39 -54 -55 -70 -71 -85 -86 -99 -100 -112 -113 -147 -148 -157 0
-20 -38 -39 -54 -56 -70 -71 -85 -86 -99 -100 -112 -113 -147 -148 -157 0
-20 -38 -39 -55 -56 -70 -72 -85 -86 -99 -100 -112 -113 -147 -148 -157 0
-20 -38 -39 -55 -56 -71 -72 -85 -87 -99 -100 -112 -113 -147 -148 -157 0
-20 -38 -39 -55 -56 -71 -72 -86 -87 -99 -101 -112 -113 -147 -148 -157 0
-20 -38 -39 -55 -56 -71 -72 -86 -87 -100 -101 -112 -114 -147 -148 -157 0
-20 -38 -39 -55 -56 -71 -72 -86 -87 -100 -101 -113 -114 -147 -149 -157 0
-20 -38 -39 -55 -56 -71 -72 -86 -87 -100 -101 -113 -114 -148 -149 -158 0
-19 -37 -38 -54 -55 -70 -71 -85 -86 -99 -100 -112 -113 -147 -148 -166 0
-20 -37 -39 -54 -55 -70 -71 -85 -86 -99 -100 -112 -113 -147 -148 -166 0
-20 -38 -39 -54 -56 -70 -71 -85 -86 -99 -100 -112 -113 -147 -148 -166 0
-20 -38 -39 -55 -56 -70 -72 -85 -86 -99 -100 -112 -113 -147 -148 -166 0
-20 -38 -39 -55 -56 -71 -72 -85 -87 -99 -100 -112 -113 -147 -148 -166 0
-20 -38 -39 -55 -56 -71 -72 -86 -87 -99 -101 -112 -113 -147 -148 -166 0
-20 -38 -39 -55 -56 -71 -72 -86 -87 -100 -101 -112 -114 -147 -148 -166 0
-20 -38 -39 -55 -56 -71 -72 -86 -87 -100 -101 -113 -114 -147 -149 -166 0
-20 -38 -39 -55 -56 -71 -72 -86 -87 -100 -101 -113 -114 -148 -149 -167 0
-20 -38 -39 -55 -56 -71 -72 -86 -87 -100 -101 -113 -114 -148 -149 -175 0
-19 -37 -38 -54 -55 -70 -71 -85 -86 -99 -100 -112 -113 -157 -158 -166 0
-20 -37 -39 -54 -55 -70 -71 -85 -86 -99 -100 -112 -113 -157 -158 -166 0
-20 -38 -39 -54 -56 -70 -71 -85 -86 -99 -100 -112 -113 -157 -158 -166 0
-20 -38 -39 -55 -56 -70 -72 -85 -86 -99 -100 -112 -113 -157 -158 -166 0
-20 -38 -39 -55 -56 -71 -72 -85 -87 -99 -100 -112 -113 -157 -158 -166 0
-20 -38 -39 -55 -56 -71 -72 -86 -87 -99 -101 -112 -113 -157 -158 -166 0
-20 -38 -39 -55 -56 -71 -72 -86 -87 -100 -101 -112 -114 -157 -158 -166 0
-20 -38 -39 -55 -56 -71 -72 -86 -87 -100 -101 -113 -114 -157 -159 -166 0
-20 -38 -39 -55 -56 -71 -72 -86 -87 -100 -101 -113 -114 -158 -159 -167 0
-20 -38 -39 -55 -56 -71 -72 -86 -87 -100 -101 -113 -114 -158 -159 -175 0
-20 -38 -39 -55 -56 -71 -72 -86 -87 -100 -101 -113 -114 -167 -168 -175 0
-17 -35 -36 -52 -53 -68 -69 -83 -84 -97 -98 -123 -124 -134 -135 -145 0
-18 -35 -37 -52 -53 -68 -69 -83 -84 -97 -98 -123 -124 -134 -135 -145 0
-19 -35 -38 -52 -53 -68 -69 -83 -84 -97 -98 -123 -124 -134 -135 -145 0
-20 -35 -39 -52 -53 -68 -69 -83 -84 -97 -98 -123 -124 -134 -135 -145 0
-18 -36 -37 -52 -54 -68 -69 -83 -84 -97 -98 -123 -124 -134 -135 -145 0
-19 -36 -38 -52 -54 -68 -69 -83 -84 -97 -98 -123 -124 -134 -135 -145 0
-20 -36 -39 -52 -54 -68 -69 -83 -84 -97 -98 -123 -124 -134 -135 -145 0
-19 -37 -38 -52 -55 -68 -69 -83 -84 -97 -98 -123 -124 -134 -135 -145 0
-20 -37 -39 -52 -55 -68 -69 -83 -84 -97 -98 -123 -124 -134 -135 -145 0
-20 -38 -39 -52 -56 -68 -69 -83 -84 -97 -98 -123 -124 -134 -135 -145 0
-18 -36 -37 -53 -54 -68 -70 -83 -84 -97 -98 -123 -124 -134 -135 -145 0
-19 -36 -38 -53 -54 -68 -70 -83 -84 -97 -98 -123 -124 -134 -135 -145 0
-20 -36 -39 -53 -54 -68 -70 -83 -84 -97 -98 -123 -124 -134 -135 -145 0
-19 -37 -38 -53 -55 -68 -70 -83 -84 -97 -98 -123 -124 -134 -135 -145 0
-20 -37 -39 -53 -55 -68 -70 -83 -84 -97 -98 -123 -124 -134 -135 -145 0
-20 -38 -39 -53 -56 -68 -70 -83 -84 -97 -98 -123 -124 -134 -135 -145 0
-19 -37 -38 -54 -55 -68 -71 -83 -84 -97 -98 -123 -124 -134 -135 -145 0
-20 -37 -39 -54 -55 -68 -71 -83 -84 -97 -98 -123 -124 -134 -135 -145 0
-20 -38 -39 -54 -56 -68 -71 -83 -84 -97 -98 -123 -124 -134 -135 -145 0
-20 -38 -39 -55 -56 -68 -72 -83 -84 -97 -98 -123 -124 -134 -135 -145 0
-18 -36 -37 -53 -54 -69 -70 -83 -85 -97 -98 -123 -124 -134 -135 -145 0
-19 -36 -38 -53 -54 -69 -70 -83 -85 -97 -98 -123 -124 -134 -135 -145 0
-20 -36 -39 -53 -54 -69 -70 -83 -85 -97 -98 -123 -124 -134 -135 -145 0
-19 -37 -38 -53 -55 -69 -70 -83 -85 -97 -98 -123 -124 -134 -135 -145 0
-20 -37 -39 -53 -55 -69 -70 -83 -85 -97 -98 -123 -124 -134 -135 -145 0
-20 -38 -39 -53 -56 -69 -70 -83 -85 -97 -98 -123 -124 -134 -135 -145 0
-19 -37 -38 -54 -55 -69 -71 -83 -85 -97 -98 -123 -124 -134 -135 -145 0
-20 -37 -39 -54 -55 -69 -71 -83 -85 -97 -98 -123 -124 -134 -135 -145 0
-20 -38 -39 -54 -56 -69 -71 -83 -85 -97 -98 -123 -124 -134 -135 -145 0
-20 -38 -39 -55 -56 -69 -72 -83 -85 -97 -98 -123 -124 -134 -135 -145 0
-19 -37 -38 -54 -55 -70 -71 -83 -86 -97 -98 -123 -124 -134 -135 -145 0
-20 -37 -39 -54 -55 -70 -71 -83 -86 -97 -98 -123 -124 -134 -135 -145 0
-20 -38 -39 -54 -56 -70 -71 -83 -86 -97 -98 -123 -124 -134 -135 -145 0
-20 -38 -39 -55 -56 -70 -72 -83 -86 -97 -98 -123 -124 -134 -135 -145 0
-20 -38 -39 -55 -56 -71 -72 -83 -87 -97 -98 -123 -124 -134 -135 -145 0
-18 -36 -37 -53 -54 -69 -70 -84 -85 -97 -99 -123 -124 -134 -135 -145 0
-19 -36 -38 -53 -54 -69 -70 -84 -85 -97 -99 -123 -124 -134 -135 -145 0
-20 -36 -39 -53 -54 -69 -70 -84 -85 -97 -99 -123 -124 -134 -135 -145 0
-19 -37 -38 -53 -55 -69 -70 -84 -85 -97 -99 -123 -124 -134 -135 -145 0
-20 -37 -39 -53 -55 -69 -70 -84 -85 -97 -99 -123 -124 -134 -135 -145 0
-20 -38 -39 -53 -56 -69 -70 -84 -85 -97 -99 -123 -124 -134 -135 -145 0
-19 -37 -38 -54 -55 -69 -71 -84 -85 -97 -99 -123 -124 -134 -135 -145 0
-20 -37 -39 -54 -55 -69 -71 -84 -85 -97 -99 -123 -124 -134 -135 -145 0
-20 -38 -39 -54 -56 -69 -71 -84 -85 -97 -99 -123 -124 -134 -135 -145 0
-20 -38 -39 -55 -56 -69 -72 -84 -85 -97 -99 -123 -124 -134 -135 -145 0
-19 -37 -38 -54 -55 -70 -71 -84 -86 -97 -99 -123 -124 -134 -135 -145 0
-20 -37 -39 -54 -55 -70 -71 -84 -86 -97 -99 -123 -124 -134 -135 -145 0
-20 -38 -39 -54 -56 -70 -71 -84 -86 -97 -99 -123 -124 -134 -135 -145 0
-20 -38 -39 -55 -56 -70 -72 -84 -86 -97 -99 -123 -124 -134 -135 -145 0
-20 -38 -39 -55 -56 -71 -72 -84 -87 -97 -99 -123 -124 -134 -135 -145 0
-19 -37 -38 -54 -55 -70 -71 -85 -86 -97 -100 -123 -124 -134 -135 -145 0
-20 -37 -39 -54 -55 -70 -71 -85 -86 -97 -100 -123 -124 -134 -135 -145 0
-20 -38 -39 -54 -56 -70 -71 -85 -86 -97 -100 -123 -124 -134 -135 -145 0
-20 -38 -39 -55 -56 -70 -72 -85 -86 -97 -100 -123 -124 -134 -135 -145 0
-20 -38 -39 -55 -56 -71 -72 -85 -87 -97 -100 -123 -124 -134 -135 -145 0
-20 -38 -39 -55 -56 -71 -72 -86 -87 -97 -101 -123 -124 -134 -135 -145 0
-18 -36 -37 -53 -54 -69 -70 -84 -85 -98 -99 -123 -125 -134 -135 -145 0
-19 -36 -38 -53 -54 -69 -70 -84 -85 -98 -99 -123 -125 -134 -135 -145 0
-20 -36 -39 -53 -54 -69 -70 -84 -85 -98 -99 -123 -125 -134 -135 -145 0
-19 -37 -38 -53 -55 -69 -70 -84 -85 -98 -99 -123 -125 -134 -135 -145 0
-20 -37 -39 -53 -55 -69 -70 -84 -85 -98 -99 -123 -125 -134 -135 -145 0
-20 -38 -39 -53 -56 -69 -70 -84 -85 -98 -99 -123 -125 -134 -135 -145 0
-19 -37 -38 -54 -55 -69 -71 -84 -85 -98 -99 -123 -125 -134 -135 -145 0
-20 -37 -39 -54 -55 -69 -71 -84 -85 -98 -99 -123 -125 -134 -135 -145 0
-20 -38 -39 -54 -56 -69 -71 -84 -85 -98 -99 -123 -125 -134 -135 -145 0
-20 -38 -39 -55 -56 -69 -72 -84 -85 -98 -99 -123 -125 -134 -135 -145 0
-19 -37 -38 -54 -55 -70 -71 -84 -86 -98 -99 -123 -125 -134 -135 -145 0
-20 -37 -39 -54 -55 -70 -71 -84 -86 -98 -99 -123 -125 -134 -135 -145 0
-20 -38 -39 -54 -56 -70 -71 -84 -86 -98 -99 -123 -125 -134 -135 -145 0
-20 -38 -39 -55 -56 -70 -72 -84 -86 -98 -99 -123 -125 -134 -135 -145 0
-20 -38 -39 -55 -56 -71 -72 -84 -87 -98 -99 -123 -125 -134 -135 -145 0
-19 -37 -38 -54 -55 -70 -71 -85 -86 -98 -100 -123 -125 -134 -135 -145 0
-20 -37 -39 -54 -55 -70 -71 -85 -86 -98 -100 -123 -125 -134 -135 -145 0
-20 -38 -39 -54 -56 -70 -71 -85 -86 -98 -100 -123 -125 -134 -135 -145 0
-20 -38 -39 -55 -56 -70 -72 -85 -86 -98 -100 -123 -125 -134 -135 -145 0
-20 -38 -39 -55 -56 -71 -72 -85 -87 -98 -100 -123 -125 -134 -135 -145 0
-20 -38 -39 -55 -56 -71 -72 -86 -87 -98 -101 -123 -125 -134 -135 -145 0
-19 -37 -38 -54 -55 -70 -71 -85 -86 -99 -100 -123 -126 -134 -135 -145 0
-20 -37 -39 -54 -55 -70 -71 -85 -86 -99 -100 -123 -126 -134 -135 -145 0
-20 -38 -39 -54 -56 -70 -71 -85 -86 -99 -100 -123 -126 -134 -135 -145 0
-20 -38 -39 -55 -56 -70 -72 -85 -86 -99 -100 -123 -126 -134 -135 -145 0
-20 -38 -39 -55 -56 -71 -72 -85 -87 -99 -100 -123 -126 -134 -135 -145 0
-20 -38 -39 -55 -56 -71 -72 -86 -87 -99 -101 -123 -126 -134 -135 -145 0
-20 -38 -39 -55 -56 -71 -72 -86 -87 -100 -101 -123 -127 -134 -135 -145 0
-18 -36 -37 -53 -54 -69 -70 -84 -85 -98 -99 -124 -125 -134 -136 -145 0
-19 -36 -38 -53 -54 -69 -70 -84 -85 -98 -99 -124 -125 -134 -136 -145 0
-20 -36 -39 -53 -54 -69 -70 -84 -85 -98 -99 -124 -125 -134 -136 -145 0
-19 -37 -38 -53 -55 -69 -70 -84 -85 -98 -99 -124 -125 -134 -136 -145 0
-20 -37 -39 -53 -55 -69 -70 -84 -85 -98 -99 -124 -125 -134 -136 -145 0
-20 -38 -39 -53 -56 -69 -70 -84 -85 -98 -99 -124 -125 -134 -136 -145 0
-19 -37 -38 -54 -55 -69 -71 -84 -85 -98 -99 -124 -125 -134 -136 -145 0
-20 -37 -39 -54 -55 -69 -71 -84 -85 -98 -99 -124 -125 -134 -136 -145 0
-20 -38 -39 -54 -56 -69 -71 -84 -85 -98 -99 -124 -125 -134 -136 -145 0
-20 -38 -39 -55 -56 -69 -72 -84 -85 -98 -99 -124 -125 -134 -136 -145 0
-19 -37 -38 -54 -55 -70 -71 -84 -86 -98 -99 -124 -125 -134 -136 -145 0
-20 -37 -39 -54 -55 -70 -71 -84 -86 -98 -99 -124 -125 -134 -136 -145 0
-20 -38 -39 -54 -56 -70 -71 -84 -86 -98 -99 -124 -125 -134 -136 -145 0
-20 -38 -39 -55 -56 -70 -72 -84 -86 -98 -99 -124 -125 -134 -136 -145 0
-20 -38 -39 -55 -56 -71 -72 -84 -87 -98 -99 -124 -125 -134 -136 -145 0
-19 -37 -38 -54 -55 -70 -71 -85 -86 -98 -100 -124 -125 -134 -136 -145 0
-20 -37 -39 -54 -55 -70 -71 -85 -86 -98 -100 -124 -125 -134 -136 -145 0
-20 -38 -39 -54 -56 -70 -71 -85 -86 -98 -100 -124 -125 -134 -136 -145 0
-20 -38 -39 -55 -56 -70 -72 -85 -86 -98 -100 -124 -125 -134 -136 -145 0
-20 -38 -39 -55 -56 -71 -72 -85 -87 -98 -100 -124 -125 -134 -136 -145 0
-20 -38 -39 -55 -56 -71 -72 -86 -87 -98 -101 -124 -125 -134 -136 -145 0
-19 -37 -38 -54 -55 -70 -71 -85 -86 -99 -100 -124 -126 -134 -136 -145 0
-20 -37 -39 -54 -55 -70 -71 -85 -86 -99 -100 -124 -126 -134 -136 -145 0
-20 -38 -39 -54 -56 -70 -71 -85 -86 -99 -100 -124 -126 -134 -136 -145 0
-20 -38 -39 -55 -56 -70 -72 -85 -86 -99 -100 -124 -126 -134 -136 -145 0
-20 -38 -39 -55 -56 -71 -72 -85 -87 -99 -100 -124 -126 -134 -136 -145 0
-20 -38 -39 -55 -56 -71 -72 -86 -87 -99 -101 -124 -126 -134 -136 -145 0
-20 -38 -39 -55 -56 -71 -72 -86 -87 -100 -101 -124 -127 -134 -136 -145 0
-19 -37 -38 -54 -55 -70 -71 -85 -86 -99 -100 -125 -126 -134 -137 -145 0
-20 -37 -39 -54 -55 -70 -71 -85 -86 -99 -100 -125 -126 -134 -137 -145 0
-20 -38 -39 -54 -56 -70 -71 -85 -86 -99 -100 -125 -126 -134 -137 -145 0
-20 -38 -39 -55 -56 -70 -72 -85 -86 -99 -100 -125 -126 -134 -137 -145 0
-20 -38 -39 -55 -56 -71 -72 -85 -87 -99 -100 -125 -126 -134 -137 -145 0
-20 -38 -39 -55 -56 -71 -72 -86 -87 -99 -101 -125 -126 -134 -137 -145 0
-20 -38 -39 -55 -56 -71 -72 -86 -87 -100 -101 -125 -127 -134 -137 -145 0
-20 -38 -39 -55 -56 -71 -72 -86 -87 -100 -101 -126 -127 -134 -138 -145 0
-18 -36 -37 -53 -54 -69 -70 -84 -85 -98 -99 -124 -125 -135 -136 -146 0
-19 -36 -38 -53 -54 -69 -70 -84 -85 -98 -99 -124 -125 -135 -136 -146 0
-20 -36 -39 -53 -54 -69 -70 -84 -85 -98 -99 -124 -125 -135 -136 -146 0
-19 -37 -38 -53 -55 -69 -70 -84 -85 -98 -99 -124 -125 -135 -136 -146 0
-20 -37 -39 -53 -55 -69 -70 -84 -85 -98 -99 -124 -125 -135 -136 -146 0
-20 -38 -39 -53 -56 -69 -70 -84 -85 -98 -99 -124 -125 -135 -136 -146 0
-19 -37 -38 -54 -55 -69 -71 -84 -85 -98 -99 -124 -125 -135 -136 -146 0
-20 -37 -39 -54 -55 -69 -71 -84 -85 -98 -99 -124 -125 -135 -136 -146 0
-20 -38 -39 -54 -56 -69 -71 -84 -85 -98 -99 -124 -125 -135 -136 -146 0
-20 -38 -39 -55 -56 -69 -72 -84 -85 -98 -99 -124 -125 -135 -136 -146 0
-19 -37 -38 -54 -55 -70 -71 -84 -86 -98 -99 -124 -125 -135 -136 -146 0
-20 -37 -39 -54 -55 -70 -71 -84 -86 -98 -99 -124 -125 -135 -136 -146 0
-20 -38 -39 -54 -56 -70 -71 -84 -86 -98 -99 -124 -125 -135 -136 -146 0
-20 -38 -39 -55 -56 -70 -72 -84 -86 -98 -99 -124 -125 -135 -136 -146 0
-20 -38 -39 -55 -56 -71 -72 -84 -87 -98 -99 -124 -125 -135 -136 -146 0
-19 -37 -38 -54 -55 -70 -71 -85 -86 -98 -100 -124 -125 -135 -136 -146 0
-20 -37 -39 -54 -55 -70 -71 -85 -86 -98 -100 -124 -125 -135 -136 -146 0
-20 -38 -39 -54 -56 -70 -71 -85 -86 -98 -100 -124 -125 -135 -136 -146 0
-20 -38 -39 -55 -56 -70 -72 -85 -86 -98 -100 -124 -125 -135 -136 -146 0
-20 -38 -39 -55 -56 -71 -72 -85 -87 -98 -100 -124 -125 -135 -136 -146 0
-20 -38 -39 -55 -56 -71 -72 -86 -87 -98 -101 -124 -125 -135 -136 -146 0
-19 -37 -38 -54 -55 -70 -71 -85 -86 -99 -100 -124 -126 -135 -136 -146 0
-20 -37 -39 -54 -55 -70 -71 -85 -86 -99 -100 -124 -126 -135 -136 -146 0
-20 -38 -39 -54 -56 -70 -71 -85 -86 -99 -100 -124 -126 -135 -136 -146 0
-20 -38 -39 -55 -56 -70 -72 -85 -86 -99 -100 -124 -126 -135 -136 -146 0
-20 -38 -39 -55 -56 -71 -72 -85 -87 -99 -100 -124 -126 -135 -136 -146 0
-20 -38 -39 -55 -56 -71 -72 -86 -87 -99 -101 -124 -126 -135 -136 -146 0
-20 -38 -39 -55 -56 -71 -72 -86 -87 -100 -101 -124 -127 -135 -136 -146 0
-19 -37 -38 -54 -55 -70 -71 -85 -86 -99 -100 -125 -126 -135 -137 -146 0
-20 -37 -39 -54 -55 -70 -71 -85 -86 -99 -100 -125 -126 -135 -137 -146 0
-20 -38 -39 -54 -56 -70 -71 -85 -86 -99 -100 -125 -126 -135 -137 -146 0
-20 -38 -39 -55 -56 -70 -72 -85 -86 -99 -100 -125 -126 -135 -137 -146 0
-20 -38 -39 -55 -56 -71 -72 -85 -87 -99 -100 -125 -126 -135 -137 -146 0
-20 -38 -39 -55 -56 -71 -72 -86 -87 -99 -101 -125 -126 -135 -137 -146 0
-20 -38 -39 -55 -56 -71 -72 -86 -87 -100 -101 -125 -127 -135 -137 -146 0
-20 -38 -39 -55 -56 -71 -72 -86 -87 -100 -101 -126 -127 -135 -138 -146 0
-19 -37 -38 -54 -55 -70 -71 -85 -86 -99 -100 -125 -126 -136 -137 -147 0
-20 -37 -39 -54 -55 -70 -71 -85 -86 -99 -100 -125 -126 -136 -137 -147 0
-20 -38 -39 -54 -56 -70 -71 -85 -86 -99 -100 -125 -126 -136 -137 -147 0
-20 -38 -39 -55 -56 -70 -72 -85 -86 -99 -100 -125 -126 -136 -137 -147 0
-20 -38 -39 -55 -56 -71 -72 -85 -87 -99 -100 -125 -126 -136 -137 -147 0
-20 -38 -39 -55 -56 -71 -72 -86 -87 -99 -101 -125 -126 -136 -137 -147 0
-20 -38 -39 -55 -56 -71 -72 -86 -87 -100 -101 -125 -127 -136 -137 -147 0
-20 -38 -39 -55 -56 -71 -72 -86 -87 -100 -101 -126 -127 -136 -138 -147 0
-20 -38 -39 -55 -56 -71 -72 -86 -87 -100 -101 -126 -127 -137 -138 -148 0
-18 -36 -37 -53 -54 -69 -70 -84 -85 -98 -99 -124 -125 -135 -136 -156 0
-19 -36 -38 -53 -54 -69 -70 -84 -85 -98 -99 -124 -125 -135 -136 -156 0
-20 -36 -39 -53 -54 -69 -70 -84 -85 -98 -99 -124 -125 -135 -136 -156 0
-19 -37 -38 -53 -55 -69 -70 -84 -85 -98 -99 -124 -125 -135 -136 -156 0
-20 -37 -39 -53 -55 -69 -70 -84 -85 -98 -99 -124 -125 -135 -136 -156 0
-20 -38 -39 -53 -56 -69 -70 -84 -85 -98 -99 -124 -125 -135 -136 -156 0
-19 -37 -38 -54 -55 -69 -71 -84 -85 -98 -99 -124 -125 -135 -136 -156 0
-20 -37 -39 -54 -55 -69 -71 -84 -85 -98 -99 -124 -125 -135 -136 -156 0
-20 -38 -39 -54 -56 -69 -71 -84 -85 -98 -99 -124 -125 -135 -136 -156 0
-20 -38 -39 -55 -56 -69 -72 -84 -85 -98 -99 -124 -125 -135 -136 -156 0
-19 -37 -38 -54 -55 -70 -71 -84 -86 -98 -99 -124 -125 -135 -136 -156 0
-20 -37 -39 -54 -55 -70 -71 -84 -86 -98 -99 -124 -125 -135 -136 -156 0
-20 -38 -39 -54 -56 -70 -71 -84 -86 -98 -99 -124 -125 -135 -136 -156 0
-20 -38 -39 -55 -56 -70 -72 -84 -86 -98 -99 -124 -125 -135 -136 -156 0
-20 -38 -39 -55 -56 -71 -72 -84 -87 -98 -99 -124 -125 -135 -136 -156 0
-19 -37 -38 -54 -55 -70 -71 -85 -86 -98 -100 -124 -125 -135 -136 -156 0
-20 -37 -39 -54 -55 -70 -71 -85 -86 -98 -100 -124 -125 -135 -136 -156 0
-20 -38 -39 -54 -56 -70 -71 -85 -86 -98 -100 -124 -125 -135 -136 -156 0
-20 -38 -39 -55 -56 -70 -72 -85 -86 -98 -100 -124 -125 -135 -136 -156 0
-20 -38 -39 -55 -56 -71 -72 -85 -87 -98 -100 -124 -125 -135 -136 -156 0
-20 -38 -39 -55 -56 -71 -72 -86 -87 -98 -101 -124 -125 -135 -136 -156 0
-19 -37 -38 -54 -55 -70 -71 -85 -86 -99 -100 -124 -126 -135 -136 -156 0
-20 -37 -39 -54 -55 -70 -71 -85 -86 -99 -100 -124 -126 -135 -136 -156 0
-20 -38 -39 -54 -56 -70 -71 -85 -86 -99 -100 -124 -126 -135 -136 -156 0
-20 -38 -39 -55 -56 -70 -72 -85 -86 -99 -100 -124 -126 -135 -136 -156 0
-20 -38 -39 -55 -56 -71 -72 -85 -87 -99 -100 -124 -126 -135 -136 -156 0
-20 -38 -39 -55 -56 -71 -72 -86 -87 -99 -101 -124 -126 -135 -136 -156 0
-20 -38 -39 -55 -56 -71 -72 -86 -87 -100 -101 -124 -127 -135 -136 -156 0
-19 -37 -38 -54 -55 -70 -71 -85 -86 -99 -100 -125 -126 -135 -137 -156 0
-20 -37 -39 -54 -55 -70 -71 -85 -86 -99 -100 -125 -126 -135 -137 -156 0
-20 -38 -39 -54 -56 -70 -71 -85 -86 -99 -100 -125 -126 -135 -137 -156 0
-20 -38 -39 -55 -56 -70 -72 -85 -86 -99 -100 -125 -126 -135 -137 -156 0
-20 -38 -39 -55 -56 -71 -72 -85 -87 -99 -100 -125 -126 -135 -137 -156 0
-20 -38 -39 -55 -56 -71 -72 -86 -87 -99 -101 -125 -126 -135 -137 -156 0
-20 -38 -39 -55 -56 -71 -72 -86 -87 -100 -101 -125 -127 -135 -137 -156 0
-20 -38 -39 -55 -56 -71 -72 -86 -87 -100 -101 -126 -127 -135 -138 -156 0
-19 -37 -38 -54 -55 -70 -71 -85 -86 -99 -100 -125 -126 -136 -137 -157 0
-20 -37 -39 -54 -55 -70 -71 -85 -86 -99 -100 -125 -126 -136 -137 -157 0
-20 -38 -39 -54 -56 -70 -71 -85 -86 -99 -100 -125 -126 -136 -137 -157 0
-20 -38 -39 -55 -56 -70 -72 -85 -86 -99 -100 -125 -126 -136 -137 -157 0
-20 -38 -39 -55 -56 -71 -72 -85 -87 -99 -100 -125 -126 -136 -137 -157 0
-20 -38 -39 -55 -56 -71 -72 -86 -87 -99 -101 -125 -126 -136 -137 -157 0
-20 -38 -39 -55 -56 -71 -72 -86 -87 -100 -101 -125 -127 -136 -137 -157 0
-20 -38 -39 -55 -56 -71 -72 -86 -87 -100 -101 -126 -127 -136 -138 -157 0
-20 -38 -39 -55 -56 -71 -72 -86 -87 -100 -101 -126 -127 -137 -138 -158 0
-19 -37 -38 -54 -55 -70 -71 -85 -86 -99 -100 -125 -126 -136 -137 -166 0
-20 -37 -39 -54 -55 -70 -71 -85 -86 -99 -100 -125 -126 -136 -137 -166 0
-20 -38 -39 -54 -56 -70 -71 -85 -86 -99 -100 -125 -126 -136 -137 -166 0
-20 -38 -39 -55 -56 -70 -72 -85 -86 -99 -100 -125 -126 -136 -137 -166 0
-20 -38 -39 -55 -56 -71 -72 -85 -87 -99 -100 -125 -126 -136 -137 -166 0
-20 -38 -39 -55 -56 -71 -72 -86 -87 -99 -101 -125 -126 -136 -137 -166 0
-20 -38 -39 -55 -56 -71 -72 -86 -87 -100 -101 -125 -127 -136 -137 -166 0
-20 -38 -39 -55 -56 -71 -72 -86 -87 -100 -101 -126 -127 -136 -138 -166 0
-20 -38 -39 -55 -56 -71 -72 -86 -87 -100 -101 -126 -127 -137 -138 -167 0
-20 -38 -39 -55 -56 -71 -72 -86 -87 -100 -101 -126 -127 -137 -138 -175 0
-18 -36 -37 -53 -54 -69 -70 -84 -85 -98 -99 -124 -125 -146 -147 -156 0
-19 -36 -38 -53 -54 -69 -70 -84 -85 -98 -99 -124 -125 -146 -147 -156 0
-20 -36 -39 -53 -54 -69 -70 -84 -85 -98 -99 -124 -125 -146 -147 -156 0
-19 -37 -38 -53 -55 -69 -70 -84 -85 -98 -99 -124 -125 -146 -147 -156 0
-20 -37 -39 -53 -55 -69 -70 -84 -85 -98 -99 -124 -125 -146 -147 -156 0
-20 -38 -39 -53 -56 -69 -70 -84 -85 -98 -99 -124 -125 -146 -147 -156 0
-19 -37 -38 -54 -55 -69 -71 -84 -85 -98 -99 -124 -125 -146 -147 -156 0
-20 -37 -39 -54 -55 -69 -71 -84 -85 -98 -99 -124 -125 -146 -147 -156 0
-20 -38 -39 -54 -56 -69 -71 -84 -85 -98 -99 -124 -125 -146 -147 -156 0
-20 -38 -39 -55 -56 -69 -72 -84 -85 -98 -99 -124 -125 -146 -147 -156 0
-19 -37 -38 -54 -55 -70 -71 -84 -86 -98 -99 -124 -125 -146 -147 -156 0
-20 -37 -39 -54 -55 -70 -71 -84 -86 -98 -99 -124 -125 -146 -147 -156 0
-20 -38 -39 -54 -56 -70 -71 -84 -86 -98 -99 -124 -125 -146 -147 -156 0
-20 -38 -39 -55 -56 -70 -72 -84 -86 -98 -99 -124 -125 -146 -147 -156 0
-20 -38 -39 -55 -56 -71 -72 -84 -87 -98 -99 -124 -125 -146 -147 -156 0
-19 -37 -38 -54 -55 -70 -71 -85 -86 -98 -100 -124 -125 -146 -147 -156 0
-20 -37 -39 -54 -55 -70 -71 -85 -86 -98 -100 -124 -125 -146 -147 -156 0
-20 -38 -39 -54 -56 -70 -71 -85 -86 -98 -100 -124 -125 -146 -147 -156 0
-20 -38 -39 -55 -56 -70 -72 -85 -86 -98 -100 -124 -125 -146 -147 -156 0
-20 -38 -39 -55 -56 -71 -72 -85 -87 -98 -100 -124 -125 -146 -147 -156 0
-20 -38 -39 -55 -56 -71 -72 -86 -87 -98 -101 -124 -125 -146 -147 -156 0
-19 -37 -38 -54 -55 -70 -71 -85 -86 -99 -100 -124 -126 -146 -147 -156 0
-20 -37 -39 -54 -55 -70 -71 -85 -86 -99 -100 -124 -126 -146 -147 -156 0
-20 -38 -39 -54 -56 -70 -71 -85 -86 -99 -100 -124 -126 -146 -147 -156 0
-20 -38 -39 -55 -56 -70 -72 -85 -86 -99 -100 -124 -126 -146 -147 -156 0
-20 -38 -39 -55 -56 -71 -72 -85 -87 -99 -100 -124 -126 -146 -147 -156 0
-20 -38 -39 -55 -56 -71 -72 -86 -87 -99 -101 -124 -126 -146 -147 -156 0
-20 -38 -39 -55 -56 -71 -72 -86 -87 -100 -101 -124 -127 -146 -147 -156 0
-19 -37 -38 -54 -55 -70 -71 -85 -86 -99 -100 -125 -126 -146 -148 -156 0
-20 -37 -39 -54 -55 -70 -71 -85 -86 -99 -100 -125 -126 -146 -148 -156 0
-20 -38 -39 -54 -56 -70 -71 -85 -86 -99 -100 -125 -126 -146 -148 -156 0
-20 -38 -39 -55 -56 -70 -72 -85 -86 -99 -100 -125 -126 -146 -148 -156 0
-20 -38 -39 -55 -56 -71 -72 -85 -87 -99 -100 -125 -126 -146 -148 -156 0
-20 -38 -39 -55 -56 -71 -72 -86 -87 -99 -101 -125 -126 -146 -148 -156 0
-20 -38 -39 -55 -56 -71 -72 -86 -87 -100 -101 -125 -127 -146 -148 -156 0
-20 -38 -39 -55 -56 -71 -72 -86 -87 -100 -101 -126 -127 -146 -149 -156 0
-19 -37 -38 -54 -55 -70 -71 -85 -86 -99 -100 -125 -126 -147 -148 -157 0
-20 -37 -39 -54 -55 -70 -71 -85 -86 -99 -100 -125 -126 -147 -148 -157 0
-20 -38 -39 -54 -56 -70 -71 -85 -86 -99 -100 -125 -126 -147 -148 -157 0
-20 -38 -39 -55 -56 -70 -72 -85 -86 -99 -100 -125 -126 -147 -148 -157 0
-20 -38 -39 -55 -56 -71 -72 -85 -87 -99 -100 -125 -126 -147 -148 -157 0
-20 -38 -39 -55 -56 -71 -72 -86 -87 -99 -101 -125 -126 -147 -148 -157 0
-20 -38 -39 -55 -56 -71 -72 -86 -87 -100 -101 -125 -127 -147 -148 -157 0
-20 -38 -39 -55 -56 -71 -72 -86 -87 -100 -101 -126 -127 -147 -149 -157 0
-20 -38 -39 -55 -56 -71 -72 -86 -87 -100 -101 -126 -127 -148 -149 -158 0
-19 -37 -38 -54 -55 -70 -71 -85 -86 -99 -100 -125 -126 -147 -148 -166 0
-20 -37 -39 -54 -55 -70 -71 -85 -86 -99 -100 -125 -126 -147 -148 -166 0
-20 -38 -39 -54 -56 -70 -71 -85 -86 -99 -100 -125 -126 -147 -148 -166 0
-20 -38 -39 -55 -56 -70 -72 -85 -86 -99 -100 -125 -126 -147 -148 -166 0
-20 -38 -39 -55 -56 -71 -72 -85 -87 -99 -100 -125 -126 -147 -148 -166 0
-20 -38 -39 -55 -56 -71 -72 -86 -87 -99 -101 -125 -126 -147 -148 -166 0
-20 -38 -39 -55 -56 -71 -72 -86 -87 -100 -101 -125 -127 -147 -148 -166 0
-20 -38 -39 -55 -56 -71 -72 -86 -87 -100 -101 -126 -127 -147 -149 -166 0
-20 -38 -39 -55 -56 -71 -72 -86 -87 -100 -101 -126 -127 -148 -149 -167 0
-20 -38 -39 -55 -56 -71 -72 -86 -87 -100 -101 -126 -127 -148 -149 -175 0
-19 -37 -38 -54 -55 -70 -71 -85 -86 -99 -100 -125 -126 -157 -158 -166 0
-20 -37 -39 -54 -55 -70 -71 -85 -86 -99 -100 -125 -126 -157 -158 -166 0
-20 -38 -39 -54 -56 -70 -71 -85 -86 -99 -100 -125 -126 -157 -158 -166 0
-20 -38 -39 -55 -56 -70 -72 -85 -86 -99 -100 -125 -126 -157 -158 -166 0
-20 -38 -39 -55 -56 -71 -72 -85 -87 -99 -100 -125 -126 -157 -158 -166 0
-20 -38 -39 -55 -56 -71 -72 -86 -87 -99 -101 -125 -126 -157 -158 -166 0
-20 -38 -39 -55 -56 -71 -72 -86 -87 -100 -101 -125 -127 -157 -158 -166 0
-20 -38 -39 -55 -56 -71 -72 -86 -87 -100 -101 -126 -127 -157 -159 -166 0
-20 -38 -39 -55 -56 -71 -72 -86 -87 -100 -101 -126 -127 -158 -159 -167 0
-20 -38 -39 -55 -56 -71 -72 -86 -87 -100 -101 -126 -127 -158 -159 -175 0
-20 -38 -39 -55 -56 -71 -72 -86 -87 -100 -101 -126 -127 -167 -168 -175 0
-18 -36 -37 -53 -54 -69 -70 -84 -85 -98 -99 -136 -137 -146 -147 -156 0
-19 -36 -38 -53 -54 -69 -70 -84 -85 -98 -99 -136 -137 -146 -147 -156 0
-20 -36 -39 -53 -54 -69 -70 -84 -85 -98 -99 -136 -137 -146 -147 -156 0
-19 -37 -38 -53 -55 -69 -70 -84 -85 -98 -99 -136 -137 -146 -147 -156 0
-20 -37 -39 -53 -55 -69 -70 -84 -85 -98 -99 -136 -137 -146 -147 -156 0
-20 -38 -39 -53 -56 -69 -70 -84 -85 -98 -99 -136 -137 -146 -147 -156 0
-19 -37 -38 -54 -55 -69 -71 -84 -85 -98 -99 -136 -137 -146 -147 -156 0
-20 -37 -39 -54 -55 -69 -71 -84 -85 -98 -99 -136 -137 -146 -147 -156 0
-20 -38 -39 -54 -56 -69 -71 -84 -85 -98 -99 -136 -137 -146 -147 -156 0
-20 -38 -39 -55 -56 -69 -72 -84 -85 -98 -99 -136 -137 -146 -147 -156 0
-19 -37 -38 -54 -55 -70 -71 -84 -86 -98 -99 -136 -137 -146 -147 -156 0
-20 -37 -39 -54 -55 -70 -71 -84 -86 -98 -99 -136 -137 -146 -147 -156 0
-20 -38 -39 -54 -56 -70 -71 -84 -86 -98 -99 -136 -137 -146 -147 -156 0
-20 -38 -39 -55 -56 -70 -72 -84 -86 -98 -99 -136 -137 -146 -147 -156 0
-20 -38 -39 -55 -56 -71 -72 -84 -87 -98 -99 -136 -137 -146 -147 -156 0
-19 -37 -38 -54 -55 -70 -71 -85 -86 -98 -100 -136 -137 -146 -147 -156 0
-20 -37 -39 -54 -55 -70 -71 -85 -86 -98 -100 -136 -137 -146 -147 -156 0
-20 -38 -39 -54 -56 -70 -71 -85 -86 -98 -100 -136 -137 -146 -147 -156 0
-20 -38 -39 -55 -56 -70 -72 -85 -86 -98 -100 -136 -137 -146 -147 -156 0
-20 -38 -39 -55 -56 -71 -72 -85 -87 -98 -100 -136 -137 -146 -147 -156 0
-20 -38 -39 -55 -56 -71 -72 -86 -87 -98 -101 -136 -137 -146 -147 -156 0
-19 -37 -38 -54 -55 -70 -71 -85 -86 -99 -100 -136 -138 -146 -147 -156 0
-20 -37 -39 -54 -55 -70 -71 -85 -86 -99 -100 -136 -138 -146 -147 -156 0
-20 -38 -39 -54 -56 -70 -71 -85 -86 -99 -100 -136 -138 -146 -147 -156 0
-20 -38 -39 -55 -56 -70 -72 -85 -86 -99 -100 -136 -138 -146 -147 -156 0
-20 -38 -39 -55 -56 -71 -72 -85 -87 -99 -100 -136 -138 -146 -147 -156 0
-20 -38 -39 -55 -56 -71 -72 -86 -87 -99 -101 -136 -138 -146 -147 -156 0
-20 -38 -39 -55 -56 -71 -72 -86 -87 -100 -101 -136 -139 -146 -147 -156 0
-19 -37 -38 -54 -55 -70 -71 -85 -86 -99 -100 -137 -138 -146 -148 -156 0
-20 -37 -39 -54 -55 -70 -71 -85 -86 -99 -100 -137 -138 -146 -148 -156 0
-20 -38 -39 -54 -56 -70 -71 -85 -86 -99 -100 -137 -138 -146 -148 -156 0
-20 -38 -39 -55 -56 -70 -72 -85 -86 -99 -100 -137 -138 -146 -148 -156 0
-20 -38 -39 -55 -56 -71 -72 -85 -87 -99 -100 -137 -138 -146 -148 -156 0
-20 -38 -39 -55 -56 -71 -72 -86 -87 -99 -101 -137 -138 -146 -148 -156 0
-20 -38 -39 -55 -56 -71 -72 -86 -87 -100 -101 -137 -139 -146 -148 -156 0
-20 -38 -39 -55 -56 -71 -72 -86 -87 -100 -101 -138 -139 -146 -149 -156 0
-19 -37 -38 -54 -55 -70 -71 -85 -86 -99 -100 -137 -138 -147 -148 -157 0
-20 -37 -39 -54 -55 -70 -71 -85 -86 -99 -100 -137 -138 -147 -148 -157 0
-20 -38 -39 -54 -56 -70 -71 -85 -86 -99 -100 -137 -138 -147 -148 -157 0
-20 -38 -39 -55 -56 -70 -72 -85 -86 -99 -100 -137 -138 -147 -148 -157 0
-20 -38 -39 -55 -56 -71 -72 -85 -87 -99 -100 -137 -138 -147 -148 -157 0
-20 -38 -39 -55 -56 -71 -72 -86 -87 -99 -101 -137 -138 -147 -148 -157 0
-20 -38 -39 -55 -56 -71 -72 -86 -87 -100 -101 -137 -139 -147 -148 -157 0
-20 -38 -39 -55 -56 -71 -72 -86 -87 -100 -101 -138 -139 -147 -149 -157 0
-20 -38 -39 -55 -56 -71 -72 -86 -87 -100 -101 -138 -139 -148 -149 -158 0
-19 -37 -38 -54 -55 -70 -71 -85 -86 -99 -100 -137 -138 -147 -148 -166 0
-20 -37 -39 -54 -55 -70 -71 -85 -86 -99 -100 -137 -138 -147 -148 -166 0
-20 -38 -39 -54 -56 -70 -71 -85 -86 -99 -100 -137 -138 -147 -148 -166 0
-20 -38 -39 -55 -56 -70 -72 -85 -86 -99 -100 -137 -138 -147 -148 -166 0
-20 -38 -39 -55 -56 -71 -72 -85 -87 -99 -100 -137 -138 -147 -148 -166 0
-20 -38 -39 -55 -56 -71 -72 -86 -87 -99 -101 -137 -138 -147 -148 -166 0
-20 -38 -39 -55 -56 -71 -72 -86 -87 -100 -101 -137 -139 -147 -148 -166 0
-20 -38 -39 -55 -56 -71 -72 -86 -87 -100 -101 -138 -139 -147 -149 -166 0
-20 -38 -39 -55 -56 -71 -72 -86 -87 -100 -101 -138 -139 -148 -149 -167 0
-20 -38 -39 -55 -56 -71 -72 -86 -87 -100 -101 -138 -139 -148 -149 -175 0
-19 -37 -38 -54 -55 -70 -71 -85 -86 -99 -100 -137 -138 -157 -158 -166 0
-20 -37 -39 -54 -55 -70 -71 -85 -86 -99 -100 -137 -138 -157 -158 -166 0
-20 -38 -39 -54 -56 -70 -71 -85 -86 -99 -100 -137 -138 -157 -158 -166 0
-20 -38 -39 -55 -56 -70 -72 -85 -86 -99 -100 -137 -138 -157 -158 -166 0
-20 -38 -39 -55 -56 -71 -72 -85 -87 -99 -100 -137 -138 -157 -158 -166 0
-20 -38 -39 -55 -56 -71 -72 -86 -87 -99 -101 -137 -138 -157 -158 -166 0
-20 -38 -39 -55 -56 -71 -72 -86 -87 -100 -101 -137 -139 -157 -158 -166 0
-20 -38 -39 -55 -56 -71 -72 -86 -87 -100 -101 -138 -139 -157 -159 -166 0
-20 -38 -39 -55 -56 -71 -72 -86 -87 -100 -101 -138 -139 -158 -159 -167 0
-20 -38 -39 -55 -56 -71 -72 -86 -87 -100 -101 -138 -139 -158 -159 -175 0
-20 -38 -39 -55 -56 -71 -72 -86 -87 -100 -101 -138 -139 -167 -168 -175 0
-19 -37 -38 -54 -55 -70 -71 -85 -86 -99 -100 -148 -149 -157 -158 -166 0
-20 -37 -39 -54 -55 -70 -71 -85 -86 -99 -100 -148 -149 -157 -158 -166 0
-20 -38 -39 -54 -56 -70 -71 -85 -86 -99 -100 -148 -149 -157 -158 -166 0
-20 -38 -39 -55 -56 -70 -72 -85 -86 -99 -100 -148 -149 -157 -158 -166 0
-20 -38 -39 -55 -56 -71 -72 -85 -87 -99 -100 -148 -149 -157 -158 -166 0
-20 -38 -39 -55 -56 -71 -72 -86 -87 -99 -101 -148 -149 -157 -158 -166 0
-20 -38 -39 -55 -56 -71 -72 -86 -87 -100 -101 -148 -150 -157 -158 -166 0
-20 -38 -39 -55 -56 -71 -72 -86 -87 -100 -101 -149 -150 -157 -159 -166 0
-20 -38 -39 -55 -56 -71 -72 -86 -87 -100 -101 -149 -150 -158 -159 -167 0
-20 -38 -39 -55 -56 -71 -72 -86 -87 -100 -101 -149 -150 -158 -159 -175 0
-20 -38 -39 -55 -56 -71 -72 -86 -87 -100 -101 -149 -150 -167 -168 -175 0
-20 -38 -39 -55 -56 -71 -72 -86 -87 -100 -101 -159 -160 -167 -168 -175 0
-17 -35 -36 -52 -53 -68 -69 -83 -84 -111 -112 -123 -124 -134 -135 -145 0
-18 -35 -37 -52 -53 -68 -69 -83 -84 -111 -112 -123 -124 -134 -135 -145 0
-19 -35 -38 -52 -53 -68 -69 -83 -84 -111 -112 -123 -124 -134 -135 -145 0
-20 -35 -39 -52 -53 -68 -69 -83 -84 -111 -112 -123 -124 -134 -135 -145 0
-18 -36 -37 -52 -54 -68 -69 -83 -84 -111 -112 -123 -124 -134 -135 -145 0
-19 -36 -38 -52 -54 -68 -69 -83 -84 -111 -112 -123 -124 -134 -135 -145 0
-20 -36 -39 -52 -54 -68 -69 -83 -84 -111 -112 -123 -124 -134 -135 -145 0
-19 -37 -38 -52 -55 -68 -69 -83 -84 -111 -112 -123 -124 -134 -135 -145 0
-20 -37 -39 -52 -55 -68 -69 -83 -84 -111 -112 -123 -124 -134 -135 -145 0
-20 -38 -39 -52 -56 -68 -69 -83 -84 -111 -112 -123 -124 -134 -135 -145 0
-18 -36 -37 -53 -54 -68 -70 -83 -84 -111 -112 -123 -124 -134 -135 -145 0
-19 -36 -38 -53 -54 -68 -70 -83 -84 -111 -112 -123 -124 -134 -135 -145 0
-20 -36 -39 -53 -54 -68 -70 -83 -84 -111 -112 -123 -124 -134 -135 -145 0
-19 -37 -38 -53 -55 -68 -70 -83 -84 -111 -112 -123 -124 -134 -135 -145 0
-20 -37 -39 -53 -55 -68 -70 -83 -84 -111 -112 -123 -124 -134 -135 -145 0
-20 -38 -39 -53 -56 -68 -70 -83 -84 -111 -112 -123 -124 -134 -135 -145 0
-19 -37 -38 -54 -55 -68 -71 -83 -84 -111 -112 -123 -124 -134 -135 -145 0
-20 -37 -39 -54 -55 -68 -71 -83 -84 -111 -112 -123 -124 -134 -135 -145 0
-20 -38 -39 -54 -56 -68 -71 -83 -84 -111 -112 -123 -124 -134 -135 -145 0
-20 -38 -39 -55 -56 -68 -72 -83 -84 -111 -112 -123 -124 -134 -135 -145 0
-18 -36 -37 -53 -54 -69 -70 -83 -85 -111 -112 -123 -124 -134 -135 -145 0
-19 -36 -38 -53 -54 -69 -70 -83 -85 -111 -112 -123 -124 -134 -135 -145 0
-20 -36 -39 -53 -54 -69 -70 -83 -85 -111 -112 -123 -124 -134 -135 -145 0
-19 -37 -38 -53 -55 -69 -70 -83 -85 -111 -112 -123 -124 -134 -135 -145 0
-20 -37 -39 -53 -55 -69 -70 -83 -85 -111 -112 -123 -124 -134 -135 -145 0
-20 -38 -39 -53 -56 -69 -70 -83 -85 -111 -112 -123 -124 -134 -135 -145 0
-19 -37 -38 -54 -55 -69 -71 -83 -85 -111 -112 -123 -124 -134 -135 -145 0
-20 -37 -39 -54 -55 -69 -71 -83 -85 -111 -112 -123 -124 -134 -135 -145 0
-20 -38 -39 -54 -56 -69 -71 -83 -85 -111 -112 -123 -124 -134 -135 -145 0
-20 -38 -39 -55 -56 -69 -72 -83 -85 -111 -112 -123 -124 -134 -135 -145 0
-19 -37 -38 -54 -55 -70 -71 -83 -86 -111 -112 -123 -124 -134 -135 -145 0
-20 -37 -39 -54 -55 -70 -71 -83 -86 -111 -112 -123 -124 -134 -135 -145 0
-20 -38 -39 -54 -56 -70 -71 -83 -86 -111 -112 -123 -124 -134 -135 -145 0
-20 -38 -39 -55 -56 -70 -72 -83 -86 -111 -112 -123 -124 -134 -135 -145 0
-20 -38 -39 -55 -56 -71 -72 -83 -87 -111 -112 -123 -124 -134 -135 -145 0
-18 -36 -37 -53 -54 -69 -70 -84 -85 -111 -113 -123 -124 -134 -135 -145 0
-19 -36 -38 -53 -54 -69 -70 -84 -85 -111 -113 -123 -124 -134 -135 -145 0
-20 -36 -39 -53 -54 -69 -70 -84 -85 -111 -113 -123 -124 -134 -135 -145 0
-19 -37 -38 -53 -55 -69 -70 -84 -85 -111 -113 -123 -124 -134 -135 -145 0
-20 -37 -39 -53 -55 -69 -70 -84 -85 -111 -113 -123 -124 -134 -135 -145 0
-20 -38 -39 -53 -56 -69 -70 -84 -85 -111 -113 -123 -124 -134 -135 -145 0
-19 -37 -38 -54 -55 -69 -71 -84 -85 -111 -113 -123 -124 -134 -135 -145 0
-20 -37 -39 -54 -55 -69 -71 -84 -85 -111 -113 -123 -124 -134 -135 -145 0
-20 -38 -39 -54 -56 -69 -71 -84 -85 -111 -113 -123 -124 -134 -135 -145 0
-20 -38 -39 -55 -56 -69 -72 -84 -85 -111 -113 -123 -124 -134 -135 -145 0
-19 -37 -38 -54 -55 -70 -71 -84 -86 -111 -113 -123 -124 -134 -135 -145 0
-20 -37 -39 -54 -55 -70 -71 -84 -86 -111 -113 -123 -124 -134 -135 -145 0
-20 -38 -39 -54 -56 -70 -71 -84 -86 -111 -113 -123 -124 -134 -135 -145 0
-20 -38 -39 -55 -56 -70 -72 -84 -86 -111 -113 -123 -124 -134 -135 -145 0
-20 -38 -39 -55 -56 -71 -72 -84 -87 -111 -113 -123 -124 -134 -135 -145 0
-19 -37 -38 -54 -55 -70 -71 -85 -86 -111 -114 -123 -124 -134 -135 -145 0
-20 -37 -39 -54 -55 -70 -71 -85 -86 -111 -114 -123 -124 -134 -135 -145 0
-20 -38 -39 -54 -56 -70 -71 -85 -86 -111 -114 -123 -124 -134 -135 -145 0
-20 -38 -39 -55 -56 -70 -72 -85 -86 -111 -114 -123 -124 -134 -135 -145 0
-20 -38 -39 -55 -56 -71 -72 -85 -87 -111 -114 -123 -124 -134 -135 -145 0
-20 -38 -39 -55 -56 -71 -72 -86 -87 -111 -115 -123 -124 -134 -135 -145 0
-18 -36 -37 -53 -54 -69 -70 -84 -85 -112 -113 -123 -125 -134 -135 -145 0
-19 -36 -38 -53 -54 -69 -70 -84 -85 -112 -113 -123 -125 -134 -135 -145 0
-20 -36 -39 -53 -54 -69 -70 -84 -85 -112 -113 -123 -125 -134 -135 -145 0
-19 -37 -38 -53 -55 -69 -70 -84 -85 -112 -113 -123 -125 -134 -135 -145 0
-20 -37 -39 -53 -55 -69 -70 -84 -85 -112 -113 -123 -125 -134 -135 -145 0
-20 -38 -39 -53 -56 -69 -70 -84 -85 -112 -113 -123 -125 -134 -135 -145 0
-19 -37 -38 -54 -55 -69 -71 -84 -85 -112 -113 -123 -125 -134 -135 -145 0
-20 -37 -39 -54 -55 -69 -71 -84 -85 -112 -113 -123 -125 -134 -135 -145 0
-20 -38 -39 -54 -56 -69 -71 -84 -85 -112 -113 -123 -125 -134 -135 -145 0
-20 -38 -39 -55 -56 -69 -72 -84 -85 -112 -113 -123 -125 -134 -135 -145 0
-19 -37 -38 -54 -55 -70 -71 -84 -86 -112 -113 -123 -125 -134 -135 -145 0
-20 -37 -39 -54 -55 -70 -71 -84 -86 -112 -113 -123 -125 -134 -135 -145 0
-20 -38 -39 -54 -56 -70 -71 -84 -86 -112 -113 -123 -125 -134 -135 -145 0
-20 -38 -39 -55 -56 -70 -72 -84 -86 -112 -113 -123 -125 -134 -135 -145 0
-20 -38 -39 -55 -56 -71 -72 -84 -87 -112 -113 -123 -125 -134 -135 -145 0
-19 -37 -38 -54 -55 -70 -71 -85 -86 -112 -114 -123 -125 -134 -135 -145 0
-20 -37 -39 -54 -55 -70 -71 -85 -86 -112 -114 -123 -125 -134 -135 -145 0
-20 -38 -39 -54 -56 -70 -71 -85 -86 -112 -114 -123 -125 -134 -135 -145 0
-20 -38 -39 -55 -56 -70 -72 -85 -86 -112 -114 -123 -125 -134 -135 -145 0
-20 -38 -39 -55 -56 -71 -72 -85 -87 -112 -114 -123 -125 -134 -135 -145 0
-20 -38 -39 -55 -56 -71 -72 -86 -87 -112 -115 -123 -125 -134 -135 -145 0
-19 -37 -38 -54 -55 -70 -71 -85 -86 -113 -114 -123 -126 -134 -135 -145 0
-20 -37 -39 -54 -55 -70 -71 -85 -86 -113 -114 -123 -126 -134 -135 -145 0
-20 -38 -39 -54 -56 -70 -71 -85 -86 -113 -114 -123 -126 -134 -135 -145 0
-20 -38 -39 -55 -56 -70 -72 -85 -86 -113 -114 -123 -126 -134 -135 -145 0
-20 -38 -39 -55 -56 -71 -72 -85 -87 -113 -114 -123 -126 -134 -135 -145 0
-20 -38 -39 -55 -56 -71 -72 -86 -87 -113 -115 -123 -126 -134 -135 -145 0
-20 -38 -39 -55 -56 -71 -72 -86 -87 -114 -115 -123 -127 -134 -135 -145 0
-18 -36 -37 -53 -54 -69 -70 -84 -85 -112 -113 -124 -125 -134 -136 -145 0
-19 -36 -38 -53 -54 -69 -70 -84 -85 -112 -113 -124 -125 -134 -136 -145 0
-20 -36 -39 -53 -54 -69 -70 -84 -85 -112 -113 -124 -125 -134 -136 -145 0
-19 -37 -38 -53 -55 -69 -70 -84 -85 -112 -113 -124 -125 -134 -136 -145 0
-20 -37 -39 -53 -55 -69 -70 -84 -85 -112 -113 -124 -125 -134 -136 -145 0
-20 -38 -39 -53 -56 -69 -70 -84 -85 -112 -113 -124 -125 -134 -136 -145 0
-19 -37 -38 -54 -55 -69 -71 -84 -85 -112 -113 -124 -125 -134 -136 -145 0
-20 -37 -39 -54 -55 -69 -71 -84 -85 -112 -113 -124 -125 -134 -136 -145 0
-20 -38 -39 -54 -56 -69 -71 -84 -85 -112 -113 -124 -125 -134 -136 -145 0
-20 -38 -39 -55 -56 -69 -72 -84 -85 -112 -113 -124 -125 -134 -136 -145 0
-19 -37 -38 -54 -55 -70 -71 -84 -86 -112 -113 -124 -125 -134 -136 -145 0
-20 -37 -39 -54 -55 -70 -71 -84 -86 -112 -113 -124 -125 -134 -136 -145 0
-20 -38 -39 -54 -56 -70 -71 -84 -86 -112 -113 -124 -125 -134 -136 -145 0
-20 -38 -39 -55 -56 -70 -72 -84 -86 -112 -113 -124 -125 -134 -136 -145 0
-20 -38 -39 -55 -56 -71 -72 -84 -87 -112 -113 -124 -125 -134 -136 -145 0
-19 -37 -38 -54 -55 -70 -71 -85 -86 -112 -114 -124 -125 -134 -136 -145 0
-20 -37 -39 -54 -55 -70 -71 -85 -86 -112 -114 -124 -125 -134 -136 -145 0
-20 -38 -39 -54 -56 -70 -71 -85 -86 -112 -114 -124 -125 -134 -136 -145 0
-20 -38 -39 -55 -56 -70 -72 -85 -86 -112 -114 -124 -125 -134 -136 -145 0
-20 -38 -39 -55 -56 -71 -72 -85 -87 -112 -114 -124 -125 -134 -136 -145 0
-20 -38 -39 -55 -56 -71 -72 -86 -87 -112 -115 -124 -125 -134 -136 -145 0
-19 -37 -38 -54 -55 -70 -71 -85 -86 -113 -114 -124 -126 -134 -136 -145 0
-20 -37 -39 -54 -55 -70 -71 -85 -86 -113 -114 -124 -126 -134 -136 -145 0
-20 -38 -39 -54 -56 -70 -71 -85 -86 -113 -114 -124 -126 -134 -136 -145 0
-20 -38 -39 -55 -56 -70 -72 -85 -86 -113 -114 -124 -126 -134 -136 -145 0
-20 -38 -39 -55 -56 -71 -72 -85 -87 -113 -114 -124 -126 -134 -136 -145 0
-20 -38 -39 -55 -56 -71 -72 -86 -87 -113 -115 -124 -126 -134 -136 -145 0
-20 -38 -39 -55 -56 -71 -72 -86 -87 -114 -115 -124 -127 -134 -136 -145 0
-19 -37 -38 -54 -55 -70 -71 -85 -86 -113 -114 -125 -126 -134 -137 -145 0
-20 -37 -39 -54 -55 -70 -71 -85 -86 -113 -114 -125 -126 -134 -137 -145 0
-20 -38 -39 -54 -56 -70 -71 -85 -86 -113 -114 -125 -126 -134 -137 -145 0
-20 -38 -39 -55 -56 -70 -72 -85 -86 -113 -114 -125 -126 -134 -137 -145 0
-20 -38 -39 -55 -56 -71 -72 -85 -87 -113 -114 -125 -126 -134 -137 -145 0
-20 -38 -39 -55 -56 -71 -72 -86 -87 -113 -115 -125 -126 -134 -137 -145 0
-20 -38 -39 -55 -56 -71 -72 -86 -87 -114 -115 -125 -127 -134 -137 -145 0
-20 -38 -39 -55 -56 -71 -72 -86 -87 -114 -115 -126 -127 -134 -138 -145 0
-18 -36 -37 -53 -54 -69 -70 -84 -85 -112 -113 -124 -125 -135 -136 -146 0
-19 -36 -38 -53 -54 -69 -70 -84 -85 -112 -113 -124 -125 -135 -136 -146 0
-20 -36 -39 -53 -54 -69 -70 -84 -85 -112 -113 -124 -125 -135 -136 -146 0
-19 -37 -38 -53 -55 -69 -70 -84 -85 -112 -113 -124 -125 -135 -136 -146 0
-20 -37 -39 -53 -55 -69 -70 -84 -85 -112 -113 -124 -125 -135 -136 -146 0
-20 -38 -39 -53 -56 -69 -70 -84 -85 -112 -113 -124 -125 -135 -136 -146 0
-19 -37 -38 -54 -55 -69 -71 -84 -85 -112 -113 -124 -125 -135 -136 -146 0
-20 -37 -39 -54 -55 -69 -71 -84 -85 -112 -113 -124 -125 -135 -136 -146 0
-20 -38 -39 -54 -56 -69 -71 -84 -85 -112 -113 -124 -125 -135 -136 -146 0
-20 -38 -39 -55 -56 -69 -72 -84 -85 -112 -113 -124 -125 -135 -136 -146 0
-19 -37 -38 -54 -55 -70 -71 -84 -86 -112 -113 -124 -125 -135 -136 -146 0
-20 -37 -39 -54 -55 -70 -71 -84 -86 -112 -113 -124 -125 -135 -136 -146 0
-20 -38 -39 -54 -56 -70 -71 -84 -86 -112 -113 -124 -125 -135 -136 -146 0
-20 -38 -39 -55 -56 -70 -72 -84 -86 -112 -113 -124 -125 -135 -136 -146 0
-20 -38 -39 -55 -56 -71 -72 -84 -87 -112 -113 -124 -125 -135 -136 -146 0
-19 -37 -38 -54 -55 -70 -71 -85 -86 -112 -114 -124 -125 -135 -136 -146 0
-20 -37 -39 -54 -55 -70 -71 -85 -86 -112 -114 -124 -125 -135 -136 -146 0
-20 -38 -39 -54 -56 -70 -71 -85 -86 -112 -114 -124 -125 -135 -136 -146 0
-20 -38 -39 -55 -56 -70 -72 -85 -86 -112 -114 -124 -125 -135 -136 -146 0
-20 -38 -39 -55 -56 -71 -72 -85 -87 -112 -114 -124 -125 -135 -136 -146 0
-20 -38 -39 -55 -56 -71 -72 -86 -87 -112 -115 -124 -125 -135 -136 -146 0
-19 -37 -38 -54 -55 -70 -71 -85 -86 -113 -114 -124 -126 -135 -136 -146 0
-20 -37 -39 -54 -55 -70 -71 -85 -86 -113 -114 -124 -126 -135 -136 -146 0
-20 -38 -39 -54 -56 -70 -71 -85 -86 -113 -114 -124 -126 -135 -136 -146 0
-20 -38 -39 -55 -56 -70 -72 -85 -86 -113 -114 -124 -126 -135 -136 -146 0
-20 -38 -39 -55 -56 -71 -72 -85 -87 -113 -114 -124 -126 -135 -136 -146 0
-20 -38 -39 -55 -56 -71 -72 -86 -87 -113 -115 -124 -126 -135 -136 -146 0
-20 -38 -39 -55 -56 -71 -72 -86 -87 -114 -115 -124 -127 -135 -136 -146 0
-19 -37 -38 -54 -55 -70 -71 -85 -86 -113 -114 -125 -126 -135 -137 -146 0
-20 -37 -39 -54 -55 -70 -71 -85 -86 -113 -114 -125 -126 -135 -137 -146 0
-20 -38 -39 -54 -56 -70 -71 -85 -86 -113 -114 -125 -126 -135 -137 -146 0
-20 -38 -39 -55 -56 -70 -72 -85 -86 -113 -114 -125 -126 -135 -137 -146 0
-20 -38 -39 -55 -56 -71 -72 -85 -87 -113 -114 -125 -126 -135 -137 -146 0
-20 -38 -39 -55 -56 -71 -72 -86 -87 -113 -115 -125 -126 -135 -137 -146 0
-20 -38 -39 -55 -56 -71 -72 -86 -87 -114 -115 -125 -127 -135 -137 -146 0
-20 -38 -39 -55 -56 -71 -72 -86 -87 -114 -115 -126 -127 -135 -138 -146 0
-19 -37 -38 -54 -55 -70 -71 -85 -86 -113 -114 -125 -126 -136 -137 -147 0
-20 -37 -39 -54 -55 -70 -71 -85 -86 -113 -114 -125 -126 -136 -137 -147 0
-20 -38 -39 -54 -56 -70 -71 -85 -86 -113 -114 -125 -126 -136 -137 -147 0
-20 -38 -39 -55 -56 -70 -72 -85 -86 -113 -114 -125 -126 -136 -137 -147 0
-20 -38 -39 -55 -56 -71 -72 -85 -87 -113 -114 -125 -126 -136 -137 -147 0
-20 -38 -39 -55 -56 -71 -72 -86 -87 -113 -115 -125 -126 -136 -137 -147 0
-20 -38 -39 -55 -56 -71 -72 -86 -87 -114 -115 -125 -127 -136 -137 -147 0
-20 -38 -39 -55 -56 -71 -72 -86 -87 -114 -115 -126 -127 -136 -138 -147 0
-20 -38 -39 -55 -56 -71 -72 -86 -87 -114 -115 -126 -127 -137 -138 -148 0
-18 -36 -37 -53 -54 -69 -70 -84 -85 -112 -113 -124 -125 -135 -136 -156 0
-19 -36 -38 -53 -54 -69 -70 -84 -85 -112 -113 -124 -125 -135 -136 -156 0
-20 -36 -39 -53 -54 -69 -70 -84 -85 -112 -113 -124 -125 -135 -136 -156 0
-19 -37 -38 -53 -55 -69 -70 -84 -85 -112 -113 -124 -125 -135 -136 -156 0
-20 -37 -39 -53 -55 -69 -70 -84 -85 -112 -113 -124 -125 -135 -136 -156 0
-20 -38 -39 -53 -56 -69 -70 -84 -85 -112 -113 -124 -125 -135 -136 -156 0
-19 -37 -38 -54 -55 -69 -71 -84 -85 -112 -113 -124 -125 -135 -136 -156 0
-20 -37 -39 -54 -55 -69 -71 -84 -85 -112 -113 -124 -125 -135 -136 -156 0
-20 -38 -39 -54 -56 -69 -71 -84 -85 -112 -113 -124 -125 -135 -136 -156 0
-20 -38 -39 -55 -56 -69 -72 -84 -85 -112 -113 -124 -125 -135 -136 -156 0
-19 -37 -38 -54 -55 -70 -71 -84 -86 -112 -113 -124 -125 -135 -136 -156 0
-20 -37 -39 -54 -55 -70 -71 -84 -86 -112 -113 -124 -125 -135 -136 -156 0
-20 -38 -39 -54 -56 -70 -71 -84 -86 -112 -113 -124 -125 -135 -136 -156 0
-20 -38 -39 -55 -56 -70 -72 -84 -86 -112 -113 -124 -125 -135 -136 -156 0
-20 -38 -39 -55 -56 -71 -72 -84 -87 -112 -113 -124 -125 -135 -136 -156 0
-19 -37 -38 -54 -55 -70 -71 -85 -86 -112 -114 -124 -125 -135 -136 -156 0
-20 -37 -39 -54 -55 -70 -71 -85 -86 -112 -114 -124 -125 -135 -136 -156 0
-20 -38 -39 -54 -56 -70 -71 -85 -86 -112 -114 -124 -125 -135 -136 -156 0
-20 -38 -39 -55 -56 -70 -72 -85 -86 -112 -114 -124 -125 -135 -136 -156 0
-20 -38 -39 -55 -56 -71 -72 -85 -87 -112 -114 -124 -125 -135 -136 -156 0
-20 -38 -39 -55 -56 -71 -72 -86 -87 -112 -115 -124 -125 -135 -136 -156 0
-19 -37 -38 -54 -55 -70 -71 -85 -86 -113 -114 -124 -126 -135 -136 -156 0
-20 -37 -39 -54 -55 -70 -71 -85 -86 -113 -114 -124 -126 -135 -136 -156 0
-20 -38 -39 -54 -56 -70 -71 -85 -86 -113 -114 -124 -126 -135 -136 -156 0
-20 -38 -39 -55 -56 -70 -72 -85 -86 -113 -114 -124 -126 -135 -136 -156 0
-20 -38 -39 -55 -56 -71 -72 -85 -87 -113 -114 -124 -126 -135 -136 -156 0
-20 -38 -39 -55 -56 -71 -72 -86 -87 -113 -115 -124 -126 -135 -136 -156 0
-20 -38 -39 -55 -56 -71 -72 -86 -87 -114 -115 -124 -127 -135 -136 -156 0
-19 -37 -38 -54 -55 -70 -71 -85 -86 -113 -114 -125 -126 -135 -137 -156 0
-20 -37 -39 -54 -55 -70 -71 -85 -86 -113 -114 -125 -126 -135 -137 -156 0
-20 -38 -39 -54 -56 -70 -71 -85 -86 -113 -114 -125 -126 -135 -137 -156 0
-20 -38 -39 -55 -56 -70 -72 -85 -86 -113 -114 -125 -126 -135 -137 -156 0
-20 -38 -39 -55 -56 -71 -72 -85 -87 -113 -114 -125 -126 -135 -137 -156 0
-20 -38 -39 -55 -56 -71 -72 -86 -87 -113 -115 -125 -126 -135 -137 -156 0
-20 -38 -39 -55 -56 -71 -72 -86 -87 -114 -115 -125 -127 -135 -137 -156 0
-20 -38 -39 -55 -56 -71 -72 -86 -87 -114 -115 -126 -127 -135 -138 -156 0
-19 -37 -38 -54 -55 -70 -71 -85 -86 -113 -114 -125 -126 -136 -137 -157 0
-20 -37 -39 -54 -55 -70 -71 -85 -86 -113 -114 -125 -126 -136 -137 -157 0
-20 -38 -39 -54 -56 -70 -71 -85 -86 -113 -114 -125 -126 -136 -137 -157 0
-20 -38 -39 -55 -56 -70 -72 -85 -86 -113 -114 -125 -126 -136 -137 -157 0
-20 -38 -39 -55 -56 -71 -72 -85 -87 -113 -114 -125 -126 -136 -137 -157 0
-20 -38 -39 -55 -56 -71 -72 -86 -87 -113 -115 -125 -126 -136 -137 -157 0
-20 -38 -39 -55 -56 -71 -72 -86 -87 -114 -115 -125 -127 -136 -137 -157 0
-20 -38 -39 -55 -56 -71 -72 -86 -87 -114 -115 -126 -127 -136 -138 -157 0
-20 -38 -39 -55 -56 -71 -72 -86 -87 -114 -115 -126 -127 -137 -138 -158 0
-19 -37 -38 -54 -55 -70 -71 -85 -86 -113 -114 -125 -126 -136 -137 -166 0
-20 -37 -39 -54 -55 -70 -71 -85 -86 -113 -114 -125 -126 -136 -137 -166 0
-20 -38 -39 -54 -56 -70 -71 -85 -86 -113 -114 -125 -126 -136 -137 -166 0
-20 -38 -39 -55 -56 -70 -72 -85 -86 -113 -114 -125 -126 -136 -137 -166 0
-20 -38 -39 -55 -56 -71 -72 -85 -87 -113 -114 -125 -126 -136 -137 -166 0
-20 -38 -39 -55 -56 -71 -72 -86 -87 -113 -115 -125 -126 -136 -137 -166 0
-20 -38 -39 -55 -56 -71 -72 -86 -87 -114 -115 -125 -127 -136 -137 -166 0
-20 -38 -39 -55 -56 -71 -72 -86 -87 -114 -115 -126 -127 -136 -138 -166 0
-20 -38 -39 -55 -56 -71 -72 -86 -87 -114 -115 -126 -127 -137 -138 -167 0
-20 -38 -39 -55 -56 -71 -72 -86 -87 -114 -115 -126 -127 -137 -138 -175 0
-18 -36 -37 -53 -54 -69 -70 -84 -85 -112 -113 -124 -125 -146 -147 -156 0
-19 -36 -38 -53 -54 -69 -70 -84 -85 -112 -113 -124 -125 -146 -147 -156 0
-20 -36 -39 -53 -54 -69 -70 -84 -85 -112 -113 -124 -125 -146 -147 -156 0
-19 -37 -38 -53 -55 -69 -70 -84 -85 -112 -113 -124 -125 -146 -147 -156 0
-20 -37 -39 -53 -55 -69 -70 -84 -85 -112 -113 -124 -125 -146 -147 -156 0
-20 -38 -39 -53 -56 -69 -70 -84 -85 -112 -113 -124 -125 -146 -147 -156 0
-19 -37 -38 -54 -55 -69 -71 -84 -85 -112 -113 -124 -125 -146 -147 -156 0
-20 -37 -39 -54 -55 -69 -71 -84 -85 -112 -113 -124 -125 -146 -147 -156 0
-20 -38 -39 -54 -56 -69 -71 -84 -85 -112 -113 -124 -125 -146 -147 -156 0
-20 -38 -39 -55 -56 -69 -72 -84 -85 -112 -113 -124 -125 -146 -147 -156 0
-19 -37 -38 -54 -55 -70 -71 -84 -86 -112 -113 -124 -125 -146 -147 -156 0
-20 -37 -39 -54 -55 -70 -71 -84 -86 -112 -113 -124 -125 -146 -147 -156 0
-20 -38 -39 -54 -56 -70 -71 -84 -86 -112 -113 -124 -125 -146 -147 -156 0
-20 -38 -39 -55 -56 -70 -72 -84 -86 -112 -113 -124 -125 -146 -147 -156 0
-20 -38 -39 -55 -56 -71 -72 -84 -87 -112 -113 -124 -125 -146 -147 -156 0
-19 -37 -38 -54 -55 -70 -71 -85 -86 -112 -114 -124 -125 -146 -147 -156 0
-20 -37 -39 -54 -55 -70 -71 -85 -86 -112 -114 -124 -125 -146 -147 -156 0
-20 -38 -39 -54 -56 -70 -71 -85 -86 -112 -114 -124 -125 -146 -147 -156 0
-20 -38 -39 -55 -56 -70 -72 -85 -86 -112 -114 -124 -125 -146 -147 -156 0
-20 -38 -39 -55 -56 -71 -72 -85 -87 -112 -114 -124 -125 -146 -147 -156 0
-20 -38 -39 -55 -56 -71 -72 -86 -87 -112 -115 -124 -125 -146 -147 -156 0
-19 -37 -38 -54 -55 -70 -71 -85 -86 -113 -114 -124 -126 -146 -147 -156 0
-20 -37 -39 -54 -55 -70 -71 -85 -86 -113 -114 -124 -126 -146 -147 -156 0
-20 -38 -39 -54 -56 -70 -71 -85 -86 -113 -114 -124 -126 -146 -147 -156 0
-20 -38 -39 -55 -56 -70 -72 -85 -86 -113 -114 -124 -126 -146 -147 -156 0
-20 -38 -39 -55 -56 -71 -72 -85 -87 -113 -114 -124 -126 -146 -147 -156 0
-20 -38 -39 -55 -56 -71 -72 -86 -87 -113 -115 -124 -126 -146 -147 -156 0
-20 -38 -39 -55 -56 -71 -72 -86 -87 -114 -115 -124 -127 -146 -147 -156 0
-19 -37 -38 -54 -55 -70 -71 -85 -86 -113 -114 -125 -126 -146 -148 -156 0
-20 -37 -39 -54 -55 -70 -71 -85 -86 -113 -114 -125 -126 -146 -148 -156 0
-20 -38 -39 -54 -56 -70 -71 -85 -86 -113 -114 -125 -126 -146 -148 -156 0
-20 -38 -39 -55 -56 -70 -72 -85 -86 -113 -114 -125 -126 -146 -148 -156 0
-20 -38 -39 -55 -56 -71 -72 -85 -87 -113 -114 -125 -126 -146 -148 -156 0
-20 -38 -39 -55 -56 -71 -72 -86 -87 -113 -115 -125 -126 -146 -148 -156 0
-20 -38 -39 -55 -56 -71 -72 -86 -87 -114 -115 -125 -127 -146 -148 -156 0
-20 -38 -39 -55 -56 -71 -72 -86 -87 -114 -115 -126 -127 -146 -149 -156 0
-19 -37 -38 -54 -55 -70 -71 -85 -86 -113 -114 -125 -126 -147 -148 -157 0
-20 -37 -39 -54 -55 -70 -71 -85 -86 -113 -114 -125 -126 -147 -148 -157 0
-20 -38 -39 -54 -56 -70 -71 -85 -86 -113 -114 -125 -126 -147 -148 -157 0
-20 -38 -39 -55 -56 -70 -72 -85 -86 -113 -114 -125 -126 -147 -148 -157 0
-20 -38 -39 -55 -56 -71 -72 -85 -87 -113 -114 -125 -126 -147 -148 -157 0
-20 -38 -39 -55 -56 -71 -72 -86 -87 -113 -115 -125 -126 -147 -148 -157 0
-20 -38 -39 -55 -56 -71 -72 -86 -87 -114 -115 -125 -127 -147 -148 -157 0
-20 -38 -39 -55 -56 -71 -72 -86 -87 -114 -115 -126 -127 -147 -149 -157 0
-20 -38 -39 -55 -56 -71 -72 -86 -87 -114 -115 -126 -127 -148 -149 -158 0
-19 -37 -38 -54 -55 -70 -71 -85 -86 -113 -114 -125 -126 -147 -148 -166 0
-20 -37 -39 -54 -55 -70 -71 -85 -86 -113 -114 -125 -126 -147 -148 -166 0
-20 -38 -39 -54 -56 -70 -71 -85 -86 -113 -114 -125 -126 -147 -148 -166 0
-20 -38 -39 -55 -56 -70 -72 -85 -86 -113 -114 -125 -126 -147 -148 -166 0
-20 -38 -39 -55 -56 -71 -72 -85 -87 -113 -114 -125 -126 -147 -148 -166 0
-20 -38 -39 -55 -56 -71 -72 -86 -87 -113 -115 -125 -126 -147 -148 -166 0
-20 -38 -39 -55 -56 -71 -72 -86 -87 -114 -115 -125 -127 -147 -148 -166 0
-20 -38 -39 -55 -56 -71 -72 -86 -87 -114 -115 -126 -127 -147 -149 -166 0
-20 -38 -39 -55 -56 -71 -72 -86 -87 -114 -115 -126 -127 -148 -149 -167 0
-20 -38 -39 -55 -56 -71 -72 -86 -87 -114 -115 -126 -127 -148 -149 -175 0
-19 -37 -38 -54 -55 -70 -71 -85 -86 -113 -114 -125 -126 -157 -158 -166 0
-20 -37 -39 -54 -55 -70 -71 -85 -86 -113 -114 -125 -126 -157 -158 -166 0
-20 -38 -39 -54 -56 -70 -71 -85 -86 -113 -114 -125 -126 -157 -158 -166 0
-20 -38 -39 -55 -56 -70 -72 -85 -86 -113 -114 -125 -126 -157 -158 -166 0
-20 -38 -39 -55 -56 -71 -72 -85 -87 -113 -114 -125 -126 -157 -158 -166 0
-20 -38 -39 -55 -56 -71 -72 -86 -87 -113 -115 -125 -126 -157 -158 -166 0
-20 -38 -39 -55 -56 -71 -72 -86 -87 -114 -115 -125 -127 -157 -158 -166 0
-20 -38 -39 -55 -56 -71 -72 -86 -87 -114 -115 -126 -127 -157 -159 -166 0
-20 -38 -39 -55 -56 -71 -72 -86 -87 -114 -115 -126 -127 -158 -159 -167 0
-20 -38 -39 -55 -56 -71 -72 -86 -87 -114 -115 -126 -127 -158 -159 -175 0
-20 -38 -39 -55 -56 -71 -72 -86 -87 -114 -115 -126 -127 -167 -168 -175 0
-18 -36 -37 -53 -54 -69 -70 -84 -85 -112 -113 -136 -137 -146 -147 -156 0
-19 -36 -38 -53 -54 -69 -70 -84 -85 -112 -113 -136 -137 -146 -147 -156 0
-20 -36 -39 -53 -54 -69 -70 -84 -85 -112 -113 -136 -137 -146 -147 -156 0
-19 -37 -38 -53 -55 -69 -70 -84 -85 -112 -113 -136 -137 -146 -147 -156 0
-20 -37 -39 -53 -55 -69 -70 -84 -85 -112 -113 -136 -137 -146 -147 -156 0
-20 -38 -39 -53 -56 -69 -70 -84 -85 -112 -113 -136 -137 -146 -147 -156 0
-19 -37 -38 -54 -55 -69 -71 -84 -85 -112 -113 -136 -137 -146 -147 -156 0
-20 -37 -39 -54 -55 -69 -71 -84 -85 -112 -113 -136 -137 -146 -147 -156 0
-20 -38 -39 -54 -56 -69 -71 -84 -85 -112 -113 -136 -137 -146 -147 -156 0
-20 -38 -39 -55 -56 -69 -72 -84 -85 -112 -113 -136 -137 -146 -147 -156 0
-19 -37 -38 -54 -55 -70 -71 -84 -86 -112 -113 -136 -137 -146 -147 -156 0
-20 -37 -39 -54 -55 -70 -71 -84 -86 -112 -113 -136 -137 -146 -147 -156 0
-20 -38 -39 -54 -56 -70 -71 -84 -86 -112 -113 -136 -137 -146 -147 -156 0
-20 -38 -39 -55 -56 -70 -72 -84 -86 -112 -113 -136 -137 -146 -147 -156 0
-20 -38 -39 -55 -56 -71 -72 -84 -87 -112 -113 -136 -137 -146 -147 -156 0
-19 -37 -38 -54 -55 -70 -71 -85 -86 -112 -114 -136 -137 -146 -147 -156 0
-20 -37 -39 -54 -55 -70 -71 -85 -86 -112 -114 -136 -137 -146 -147 -156 0
-20 -38 -39 -54 -56 -70 -71 -85 -86 -112 -114 -136 -137 -146 -147 -156 0
-20 -38 -39 -55 -56 -70 -72 -85 -86 -112 -114 -136 -137 -146 -147 -156 0
-20 -38 -39 -55 -56 -71 -72 -85 -87 -112 -114 -136 -137 -146 -147 -156 0
-20 -38 -39 -55 -56 -71 -72 -86 -87 -112 -115 -136 -137 -146 -147 -156 0
-19 -37 -38 -54 -55 -70 -71 -85 -86 -113 -114 -136 -138 -146 -147 -156 0
-20 -37 -39 -54 -55 -70 -71 -85 -86 -113 -114 -136 -138 -146 -147 -156 0
-20 -38 -39 -54 -56 -70 -71 -85 -86 -113 -114 -136 -138 -146 -147 -156 0
-20 -38 -39 -55 -56 -70 -72 -85 -86 -113 -114 -136 -138 -146 -147 -156 0
-20 -38 -39 -55 -56 -71 -72 -85 -87 -113 -114 -136 -138 -146 -147 -156 0
-20 -38 -39 -55 -56 -71 -72 -86 -87 -113 -115 -136 -138 -146 -147 -156 0
-20 -38 -39 -55 -56 -71 -72 -86 -87 -114 -115 -136 -139 -146 -147 -156 0
-19 -37 -38 -54 -55 -70 -71 -85 -86 -113 -114 -137 -138 -146 -148 -156 0
-20 -37 -39 -54 -55 -70 -71 -85 -86 -113 -114 -137 -138 -146 -148 -156 0
-20 -38 -39 -54 -56 -70 -71 -85 -86 -113 -114 -137 -138 -146 -148 -156 0
-20 -38 -39 -55 -56 -70 -72 -85 -86 -113 -114 -137 -138 -146 -148 -156 0
-20 -38 -39 -55 -56 -71 -72 -85 -87 -113 -114 -137 -138 -146 -148 -156 0
-20 -38 -39 -55 -56 -71 -72 -86 -87 -113 -115 -137 -138 -146 -148 -156 0
-20 -38 -39 -55 -56 -71 -72 -86 -87 -114 -115 -137 -139 -146 -148 -156 0
-20 -38 -39 -55 -56 -71 -72 -86 -87 -114 -115 -138 -139 -146 -149 -156 0
-19 -37 -38 -54 -55 -70 -71 -85 -86 -113 -114 -137 -138 -147 -148 -157 0
-20 -37 -39 -54 -55 -70 -71 -85 -86 -113 -114 -137 -138 -147 -148 -157 0
-20 -38 -39 -54 -56 -70 -71 -85 -86 -113 -114 -137 -138 -147 -148 -157 0
-20 -38 -39 -55 -56 -70 -72 -85 -86 -113 -114 -137 -138 -147 -148 -157 0
-20 -38 -39 -55 -56 -71 -72 -85 -87 -113 -114 -137 -138 -147 -148 -157 0
-20 -38 -39 -55 -56 -71 -72 -86 -87 -113 -115 -137 -138 -147 -148 -157 0
-20 -38 -39 -55 -56 -71 -72 -86 -87 -114 -115 -137 -139 -147 -148 -157 0
-20 -38 -39 -55 -56 -71 -72 -86 -87 -114 -115 -138 -139 -147 -149 -157 0
-20 -38 -39 -55 -56 -71 -72 -86 -87 -114 -115 -138 -139 -148 -149 -158 0
-19 -37 -38 -54 -55 -70 -71 -85 -86 -113 -114 -137 -138 -147 -148 -166 0
-20 -37 -39 -54 -55 -70 -71 -85 -86 -113 -114 -137 -138 -147 -148 -166 0
-20 -38 -39 -54 -56 -70 -71 -85 -86 -113 -114 -137 -138 -147 -148 -166 0
-20 -38 -39 -55 -56 -70 -72 -85 -86 -113 -114 -137 -138 -147 -148 -166 0
-20 -38 -39 -55 -56 -71 -72 -85 -87 -113 -114 -137 -138 -147 -148 -166 0
-20 -38 -39 -55 -56 -71 -72 -86 -87 -113 -115 -137 -138 -147 -148 -166 0
-20 -38 -39 -55 -56 -71 -72 -86 -87 -114 -115 -137 -139 -147 -148 -166 0
-20 -38 -39 -55 -56 -71 -72 -86 -87 -114 -115 -138 -139 -147 -149 -166 0
-20 -38 -39 -55 -56 -71 -72 -86 -87 -114 -115 -138 -139 -148 -149 -167 0
-20 -38 -39 -55 -56 -71 -72 -86 -87 -114 -115 -138 -139 -148 -149 -175 0
-19 -37 -38 -54 -55 -70 -71 -85 -86 -113 -114 -137 -138 -157 -158 -166 0
-20 -37 -39 -54 -55 -70 -71 -85 -86 -113 -114 -137 -138 -157 -158 -166 0
-20 -38 -39 -54 -56 -70 -71 -85 -86 -113 -114 -137 -138 -157 -158 -166 0
-20 -38 -39 -55 -56 -70 -72 -85 -86 -113 -114 -137 -138 -157 -158 -166 0
-20 -38 -39 -55 -56 -71 -72 -85 -87 -113 -114 -137 -138 -157 -158 -166 0
-20 -38 -39 -55 -56 -71 -72 -86 -87 -113 -115 -137 -138 -157 -158 -166 0
-20 -38 -39 -55 -56 -71 -72 -86 -87 -114 -115 -137 -139 -157 -158 -166 0
-20 -38 -39 -55 -56 -71 -72 -86 -87 -114 -115 -138 -139 -157 -159 -166 0
-20 -38 -39 -55 -56 -71 -72 -86 -87 -114 -115 -138 -139 -158 -159 -167 0
-20 -38 -39 -55 -56 -71 -72 -86 -87 -114 -115 -138 -139 -158 -159 -175 0
-20 -38 -39 -55 -56 -71 -72 -86 -87 -114 -115 -138 -139 -167 -168 -175 0
-19 -37 -38 -54 -55 -70 -71 -85 -86 -113 -114 -148 -149 -157 -158 -166 0
-20 -37 -39 -54 -55 -70 -71 -85 -86 -113 -114 -148 -149 -157 -158 -166 0
-20 -38 -39 -54 -56 -70 -71 -85 -86 -113 -114 -148 -149 -157 -158 -166 0
-20 -38 -39 -55 -56 -70 -72 -85 -86 -113 -114 -148 -149 -157 -158 -166 0
-20 -38 -39 -55 -56 -71 -72 -85 -87 -113 -114 -148 -149 -157 -158 -166 0
-20 -38 -39 -55 -56 -71 -72 -86 -87 -113 -115 -148 -149 -157 -158 -166 0
-20 -38 -39 -55 -56 -71 -72 -86 -87 -114 -115 -148 -150 -157 -158 -166 0
-20 -38 -39 -55 -56 -71 -72 -86 -87 -114 -115 -149 -150 -157 -159 -166 0
-20 -38 -39 -55 -56 -71 -72 -86 -87 -114 -115 -149 -150 -158 -159 -167 0
-20 -38 -39 -55 -56 -71 -72 -86 -87 -114 -115 -149 -150 -158 -159 -175 0
-20 -38 -39 -55 -56 -71 -72 -86 -87 -114 -115 -149 -150 -167 -168 -175 0
-20 -38 -39 -55 -56 -71 -72 -86 -87 -114 -115 -159 -160 -167 -168 -175 0
-18 -36 -37 -53 -54 -69 -70 -84 -85 -125 -126 -136 -137 -146 -147 -156 0
-19 -36 -38 -53 -54 -69 -70 -84 -85 -125 -126 -136 -137 -146 -147 -156 0
-20 -36 -39 -53 -54 -69 -70 -84 -85 -125 -126 -136 -137 -146 -147 -156 0
-19 -37 -38 -53 -55 -69 -70 -84 -85 -125 -126 -136 -137 -146 -147 -156 0
-20 -37 -39 -53 -55 -69 -70 -84 -85 -125 -126 -136 -137 -146 -147 -156 0
-20 -38 -39 -53 -56 -69 -70 -84 -85 -125 -126 -136 -137 -146 -147 -156 0
-19 -37 -38 -54 -55 -69 -71 -84 -85 -125 -126 -136 -137 -146 -147 -156 0
-20 -37 -39 -54 -55 -69 -71 -84 -85 -125 -126 -136 -137 -146 -147 -156 0
-20 -38 -39 -54 -56 -69 -71 -84 -85 -125 -126 -136 -137 -146 -147 -156 0
-20 -38 -39 -55 -56 -69 -72 -84 -85 -125 -126 -136 -137 -146 -147 -156 0
-19 -37 -38 -54 -55 -70 -71 -84 -86 -125 -126 -136 -137 -146 -147 -156 0
-20 -37 -39 -54 -55 -70 -71 -84 -86 -125 -126 -136 -137 -146 -147 -156 0
-20 -38 -39 -54 -56 -70 -71 -84 -86 -125 -126 -136 -137 -146 -147 -156 0
-20 -38 -39 -55 -56 -70 -72 -84 -86 -125 -126 -136 -137 -146 -147 -156 0
-20 -38 -39 -55 -56 -71 -72 -84 -87 -125 -126 -136 -137 -146 -147 -156 0
-19 -37 -38 -54 -55 -70 -71 -85 -86 -125 -127 -136 -137 -146 -147 -156 0
-20 -37 -39 -54 -55 -70 -71 -85 -86 -125 -127 -136 -137 -146 -147 -156 0
-20 -38 -39 -54 -56 -70 -71 -85 -86 -125 -127 -136 -137 -146 -147 -156 0
-20 -38 -39 -55 -56 -70 -72 -85 -86 -125 -127 -136 -137 -146 -147 -156 0
-20 -38 -39 -55 -56 -71 -72 -85 -87 -125 -127 -136 -137 -146 -147 -156 0
-20 -38 -39 -55 -56 -71 -72 -86 -87 -125 -128 -136 -137 -146 -147 -156 0
-19 -37 -38 -54 -55 -70 -71 -85 -86 -126 -127 -136 -138 -146 -147 -156 0
-20 -37 -39 -54 -55 -70 -71 -85 -86 -126 -127 -136 -138 -146 -147 -156 0
-20 -38 -39 -54 -56 -70 -71 -85 -86 -126 -127 -136 -138 -146 -147 -156 0
-20 -38 -39 -55 -56 -70 -72 -85 -86 -126 -127 -136 -138 -146 -147 -156 0
-20 -38 -39 -55 -56 -71 -72 -85 -87 -126 -127 -136 -138 -146 -147 -156 0
-20 -38 -39 -55 -56 -71 -72 -86 -87 -126 -128 -136 -138 -146 -147 -156 0
-20 -38 -39 -55 -56 -71 -72 -86 -87 -127 -128 -136 -139 -146 -147 -156 0
-19 -37 -38 -54 -55 -70 -71 -85 -86 -126 -127 -137 -138 -146 -148 -156 0
-20 -37 -39 -54 -55 -70 -71 -85 -86 -126 -127 -137 -138 -146 -148 -156 0
-20 -38 -39 -54 -56 -70 -71 -85 -86 -126 -127 -137 -138 -146 -148 -156 0
-20 -38 -39 -55 -56 -70 -72 -85 -86 -126 -127 -137 -138 -146 -148 -156 0
-20 -38 -39 -55 -56 -71 -72 -85 -87 -126 -127 -137 -138 -146 -148 -156 0
-20 -38 -39 -55 -56 -71 -72 -86 -87 -126 -128 -137 -138 -146 -148 -156 0
-20 -38 -39 -55 -56 -71 -72 -86 -87 -127 -128 -137 -139 -146 -148 -156 0
-20 -38 -39 -55 -56 -71 -72 -86 -87 -127 -128 -138 -139 -146 -149 -156 0
-19 -37 -38 -54 -55 -70 -71 -85 -86 -126 -127 -137 -138 -147 -148 -157 0
-20 -37 -39 -54 -55 -70 -71 -85 -86 -126 -127 -137 -138 -147 -148 -157 0
-20 -38 -39 -54 -56 -70 -71 -85 -86 -126 -127 -137 -138 -147 -148 -157 0
-20 -38 -39 -55 -56 -70 -72 -85 -86 -126 -127 -137 -138 -147 -148 -157 0
-20 -38 -39 -55 -56 -71 -72 -85 -87 -126 -127 -137 -138 -147 -148 -157 0
-20 -38 -39 -55 -56 -71 -72 -86 -87 -126 -128 -137 -138 -147 -148 -157 0
-20 -38 -39 -55 -56 -71 -72 -86 -87 -127 -128 -137 -139 -147 -148 -157 0
-20 -38 -39 -55 -56 -71 -72 -86 -87 -127 -128 -138 -139 -147 -149 -157 0
-20 -38 -39 -55 -56 -71 -72 -86 -87 -127 -128 -138 -139 -148 -149 -158 0
-19 -37 -38 -54 -55 -70 -71 -85 -86 -126 -127 -137 -138 -147 -148 -166 0
-20 -37 -39 -54 -55 -70 -71 -85 -86 -126 -127 -137 -138 -147 -148 -166 0
-20 -38 -39 -54 -56 -70 -71 -85 -86 -126 -127 -137 -138 -147 -148 -166 0
-20 -38 -39 -55 -56 -70 -72 -85 -86 -126 -127 -137 -138 -147 -148 -166 0
-20 -38 -39 -55 -56 -71 -72 -85 -87 -126 -127 -137 -138 -147 -148 -166 0
-20 -38 -39 -55 -56 -71 -72 -86 -87 -126 -128 -137 -138 -147 -148 -166 0
-20 -38 -39 -55 -56 -71 -72 -86 -87 -127 -128 -137 -139 -147 -148 -166 0
-20 -38 -39 -55 -56 -71 -72 -86 -87 -127 -128 -138 -139 -147 -149 -166 0
-20 -38 -39 -55 -56 -71 -72 -86 -87 -127 -128 -138 -139 -148 -149 -167 0
-20 -38 -39 -55 -56 -71 -72 -86 -87 -127 -128 -138 -139 -148 -149 -175 0
-19 -37 -38 -54 -55 -70 -71 -85 -86 -126 -127 -137 -138 -157 -158 -166 0
-20 -37 -39 -54 -55 -70 -71 -85 -86 -126 -127 -137 -138 -157 -158 -166 0
-20 -38 -39 -54 -56 -70 -71 -85 -86 -126 -127 -137 -138 -157 -158 -166 0
-20 -38 -39 -55 -56 -70 -72 -85 -86 -126 -127 -137 -138 -157 -158 -166 0
-20 -38 -39 -55 -56 -71 -72 -85 -87 -126 -127 -137 -138 -157 -158 -166 0
-20 -38 -39 -55 -56 -71 -72 -86 -87 -126 -128 -137 -138 -157 -158 -166 0
-20 -38 -39 -55 -56 -71 -72 -86 -87 -127 -128 -137 -139 -157 -158 -166 0
-20 -38 -39 -55 -56 -71 -72 -86 -87 -127 -128 -138 -139 -157 -159 -166 0
-20 -38 -39 -55 -56 -71 -72 -86 -87 -127 -128 -138 -139 -158 -159 -167 0
-20 -38 -39 -55 -56 -71 -72 -86 -87 -127 -128 -138 -139 -158 -159 -175 0
-20 -38 -39 -55 -56 -71 -72 -86 -87 -127 -128 -138 -139 -167 -168 -175 0
-19 -37 -38 -54 -55 -70 -71 -85 -86 -126 -127 -148 -149 -157 -158 -166 0
-20 -37 -39 -54 -55 -70 -71 -85 -86 -126 -127 -148 -149 -157 -158 -166 0
-20 -38 -39 -54 -56 -70 -71 -85 -86 -126 -127 -148 -149 -157 -158 -166 0
-20 -38 -39 -55 -56 -70 -72 -85 -86 -126 -127 -148 -149 -157 -158 -166 0
-20 -38 -39 -55 -56 -71 -72 -85 -87 -126 -127 -148 -149 -157 -158 -166 0
-20 -38 -39 -55 -56 -71 -72 -86 -87 -126 -128 -148 -149 -157 -158 -166 0
-20 -38 -39 -55 -56 -71 -72 -86 -87 -127 -128 -148 -150 -157 -158 -166 0
-20 -38 -39 -55 -56 -71 -72 -86 -87 -127 -128 -149 -150 -157 -159 -166 0
-20 -38 -39 -55 -56 -71 -72 -86 -87 -127 -128 -149 -150 -158 -159 -167 0
-20 -38 -39 -55 -56 -71 -72 -86 -87 -127 -128 -149 -150 -158 -159 -175 0
-20 -38 -39 -55 -56 -71 -72 -86 -87 -127 -128 -149 -150 -167 -168 -175 0
-20 -38 -39 -55 -56 -71 -72 -86 -87 -127 -128 -159 -160 -167 -168 -175 0
-19 -37 -38 -54 -55 -70 -71 -85 -86 -138 -139 -148 -149 -157 -158 -166 0
-20 -37 -39 -54 -55 -70 -71 -85 -86 -138 -139 -148 -149 -157 -158 -166 0
-20 -38 -39 -54 -56 -70 -71 -85 -86 -138 -139 -148 -149 -157 -158 -166 0
-20 -38 -39 -55 -56 -70 -72 -85 -86 -138 -139 -148 -149 -157 -158 -166 0
-20 -38 -39 -55 -56 -71 -72 -85 -87 -138 -139 -148 -149 -157 -158 -166 0
-20 -38 -39 -55 -56 -71 -72 -86 -87 -138 -140 -148 -149 -157 -158 -166 0
-20 -38 -39 -55 -56 -71 -72 -86 -87 -139 -140 -148 -150 -157 -158 -166 0
-20 -38 -39 -55 -56 -71 -72 -86 -87 -139 -140 -149 -150 -157 -159 -166 0
-20 -38 -39 -55 -56 -71 -72 -86 -87 -139 -140 -149 -150 -158 -159 -167 0
-20 -38 -39 -55 -56 -71 -72 -86 -87 -139 -140 -149 -150 -158 -159 -175 0
-20 -38 -39 -55 -56 -71 -72 -86 -87 -139 -140 -149 -150 -167 -168 -175 0
-20 -38 -39 -55 -56 -71 -72 -86 -87 -139 -140 -159 -160 -167 -168 -175 0
-20 -38 -39 -55 -56 -71 -72 -86 -87 -150 -151 -159 -160 -167 -168 -175 0
-17 -35 -36 -52 -53 -68 -69 -98 -99 -111 -112 -123 -124 -134 -135 -145 0
-18 -35 -37 -52 -53 -68 -69 -98 -99 -111 -112 -123 -124 -134 -135 -145 0
-19 -35 -38 -52 -53 -68 -69 -98 -99 -111 -112 -123 -124 -134 -135 -145 0
-20 -35 -39 -52 -53 -68 -69 -98 -99 -111 -112 -123 -124 -134 -135 -145 0
-18 -36 -37 -52 -54 -68 -69 -98 -99 -111 -112 -123 -124 -134 -135 -145 0
-19 -36 -38 -52 -54 -68 -69 -98 -99 -111 -112 -123 -124 -134 -135 -145 0
-20 -36 -39 -52 -54 -68 -69 -98 -99 -111 -112 -123 -124 -134 -135 -145 0
-19 -37 -38 -52 -55 -68 -69 -98 -99 -111 -112 -123 -124 -134 -135 -145 0
-20 -37 -39 -52 -55 -68 -69 -98 -99 -111 -112 -123 -124 -134 -135 -145 0
-20 -38 -39 -52 -56 -68 -69 -98 -99 -111 -112 -123 -124 -134 -135 -145 0
-18 -36 -37 -53 -54 -68 -70 -98 -99 -111 -112 -123 -124 -134 -135 -145 0
-19 -36 -38 -53 -54 -68 -70 -98 -99 -111 -112 -123 -124 -134 -135 -145 0
-20 -36 -39 -53 -54 -68 -70 -98 -99 -111 -112 -123 -124 -134 -135 -145 0
-19 -37 -38 -53 -55 -68 -70 -98 -99 -111 -112 -123 -124 -134 -135 -145 0
-20 -37 -39 -53 -55 -68 -70 -98 -99 -111 -112 -123 -124 -134 -135 -145 0
-20 -38 -39 -53 -56 -68 -70 -98 -99 -111 -112 -123 -124 -134 -135 -145 0
-19 -37 -38 -54 -55 -68 -71 -98 -99 -111 -112 -123 -124 -134 -135 -145 0
-20 -37 -39 -54 -55 -68 -71 -98 -99 -111 -112 -123 -124 -134 -135 -145 0
-20 -38 -39 -54 -56 -68 -71 -98 -99 -111 -112 -123 -124 -134 -135 -145 0
-20 -38 -39 -55 -56 -68 -72 -98 -99 -111 -112 -123 -124 -134 -135 -145 0
-18 -36 -37 -53 -54 -69 -70 -98 -100 -111 -112 -123 -124 -134 -135 -145 0
-19 -36 -38 -53 -54 -69 -70 -98 -100 -111 -112 -123 -124 -134 -135 -145 0
-20 -36 -39 -53 -54 -69 -70 -98 -100 -111 -112 -123 -124 -134 -135 -145 0
-19 -37 -38 -53 -55 -69 -70 -98 -100 -111 -112 -123 -124 -134 -135 -145 0
-20 -37 -39 -53 -55 -69 -70 -98 -100 -111 -112 -123 -124 -134 -135 -145 0
-20 -38 -39 -53 -56 -69 -70 -98 -100 -111 -112 -123 -124 -134 -135 -145 0
-19 -37 -38 -54 -55 -69 -71 -98 -100 -111 -112 -123 -124 -134 -135 -145 0
-20 -37 -39 -54 -55 -69 -71 -98 -100 -111 -112 -123 -124 -134 -135 -145 0
-20 -38 -39 -54 -56 -69 -71 -98 -100 -111 -112 -123 -124 -134 -135 -145 0
-20 -38 -39 -55 -56 -69 -72 -98 -100 -111 -112 -123 -124 -134 -135 -145 0
-19 -37 -38 -54 -55 -70 -71 -98 -101 -111 -112 -123 -124 -134 -135 -145 0
-20 -37 -39 -54 -55 -70 -71 -98 -101 -111 -112 -123 -124 -134 -135 -145 0
-20 -38 -39 -54 -56 -70 -71 -98 -101 -111 -112 -123 -124 -134 -135 -145 0
-20 -38 -39 -55 -56 -70 -72 -98 -101 -111 -112 -123 -124 -134 -135 -145 0
-20 -38 -39 -55 -56 -71 -72 -98 -102 -111 -112 -123 -124 -134 -135 -145 0
-18 -36 -37 -53 -54 -69 -70 -99 -100 -111 -113 -123 -124 -134 -135 -145 0
-19 -36 -38 -53 -54 -69 -70 -99 -100 -111 -113 -123 -124 -134 -135 -145 0
-20 -36 -39 -53 -54 -69 -70 -99 -100 -111 -113 -123 -124 -134 -135 -145 0
-19 -37 -38 -53 -55 -69 -70 -99 -100 -111 -113 -123 -124 -134 -135 -145 0
-20 -37 -39 -53 -55 -69 -70 -99 -100 -111 -113 -123 -124 -134 -135 -145 0
-20 -38 -39 -53 -56 -69 -70 -99 -100 -111 -113 -123 -124 -134 -135 -145 0
-19 -37 -38 -54 -55 -69 -71 -99 -100 -111 -113 -123 -124 -134 -135 -145 0
-20 -37 -39 -54 -55 -69 -71 -99 -100 -111 -113 -123 -124 -134 -135 -145 0
-20 -38 -39 -54 -56 -69 -71 -99 -100 -111 -113 -123 -124 -134 -135 -145 0
-20 -38 -39 -55 -56 -69 -72 -99 -100 -111 -113 -123 -124 -134 -135 -145 0
-19 -37 -38 -54 -55 -70 -71 -99 -101 -111 -113 -123 -124 -134 -135 -145 0
-20 -37 -39 -54 -55 -70 -71 -99 -101 -111 -113 -123 -124 -134 -135 -145 0
-20 -38 -39 -54 -56 -70 -71 -99 -101 -111 -113 -123 -124 -134 -135 -145 0
-20 -38 -39 -55 -56 -70 -72 -99 -101 -111 -113 -123 -124 -134 -135 -145 0
-20 -38 -39 -55 -56 -71 -72 -99 -102 -111 -113 -123 -124 -134 -135 -145 0
-19 -37 -38 -54 -55 -70 -71 -100 -101 -111 -114 -123 -124 -134 -135 -145 0
-20 -37 -39 -54 -55 -70 -71 -100 -101 -111 -114 -123 -124 -134 -135 -145 0
-20 -38 -39 -54 -56 -70 -71 -100 -101 -111 -114 -123 -124 -134 -135 -145 0
-20 -38 -39 -55 -56 -70 -72 -100 -101 -111 -114 -123 -124 -134 -135 -145 0
-20 -38 -39 -55 -56 -71 -72 -100 -102 -111 -114 -123 -124 -134 -135 -145 0
-20 -38 -39 -55 -56 -71 -72 -101 -102 -111 -115 -123 -124 -134 -135 -145 0
-18 -36 -37 -53 -54 -69 -70 -99 -100 -112 -113 -123 -125 -134 -135 -145 0
-19 -36 -38 -53 -54 -69 -70 -99 -100 -112 -113 -123 -125 -134 -135 -145 0
-20 -36 -39 -53 -54 -69 -70 -99 -100 -112 -113 -123 -125 -134 -135 -145 0
-19 -37 -38 -53 -55 -69 -70 -99 -100 -112 -113 -123 -125 -134 -135 -145 0
-20 -37 -39 -53 -55 -69 -70 -99 -100 -112 -113 -123 -125 -134 -135 -145 0
-20 -38 -39 -53 -56 -69 -70 -99 -100 -112 -113 -123 -125 -134 -135 -145 0
-19 -37 -38 -54 -55 -69 -71 -99 -100 -112 -113 -123 -125 -134 -135 -145 0
-20 -37 -39 -54 -55 -69 -71 -99 -100 -112 -113 -123 -125 -134 -135 -145 0
-20 -38 -39 -54 -56 -69 -71 -99 -100 -112 -113 -123 -125 -134 -135 -145 0
-20 -38 -39 -55 -56 -69 -72 -99 -100 -112 -113 -123 -125 -134 -135 -145 0
-19 -37 -38 -54 -55 -70 -71 -99 -101 -112 -113 -123 -125 -134 -135 -145 0
-20 -37 -39 -54 -55 -70 -71 -99 -101 -112 -113 -123 -125 -134 -135 -145 0
-20 -38 -39 -54 -56 -70 -71 -99 -101 -112 -113 -123 -125 -134 -135 -145 0
-20 -38 -39 -55 -56 -70 -72 -99 -101 -112 -113 -123 -125 -134 -135 -145 0
-20 -38 -39 -55 -56 -71 -72 -99 -102 -112 -113 -123 -125 -134 -135 -145 0
-19 -37 -38 -54 -55 -70 -71 -100 -101 -112 -114 -123 -125 -134 -135 -145 0
-20 -37 -39 -54 -55 -70 -71 -100 -101 -112 -114 -123 -125 -134 -135 -145 0
-20 -38 -39 -54 -56 -70 -71 -100 -101 -112 -114 -123 -125 -134 -135 -145 0
-20 -38 -39 -55 -56 -70 -72 -100 -101 -112 -114 -123 -125 -134 -135 -145 0
-20 -38 -39 -55 -56 -71 -72 -100 -102 -112 -114 -123 -125 -134 -135 -145 0
-20 -38 -39 -55 -56 -71 -72 -101 -102 -112 -115 -123 -125 -134 -135 -145 0
-19 -37 -38 -54 -55 -70 -71 -100 -101 -113 -114 -123 -126 -134 -135 -145 0
-20 -37 -39 -54 -55 -70 -71 -100 -101 -113 -114 -123 -126 -134 -135 -145 0
-20 -38 -39 -54 -56 -70 -71 -100 -101 -113 -114 -123 -126 -134 -135 -145 0
-20 -38 -39 -55 -56 -70 -72 -100 -101 -113 -114 -123 -126 -134 -135 -145 0
-20 -38 -39 -55 -56 -71 -72 -100 -102 -113 -114 -123 -126 -134 -135 -145 0
-20 -38 -39 -55 -56 -71 -72 -101 -102 -113 -115 -123 -126 -134 -135 -145 0
-20 -38 -39 -55 -56 -71 -72 -101 -102 -114 -115 -123 -127 -134 -135 -145 0
-18 -36 -37 -53 -54 -69 -70 -99 -100 -112 -113 -124 -125 -134 -136 -145 0
-19 -36 -38 -53 -54 -69 -70 -99 -100 -112 -113 -124 -125 -134 -136 -145 0
-20 -36 -39 -53 -54 -69 -70 -99 -100 -112 -113 -124 -125 -134 -136 -145 0
-19 -37 -38 -53 -55 -69 -70 -99 -100 -112 -113 -124 -125 -134 -136 -145 0
-20 -37 -39 -53 -55 -69 -70 -99 -100 -112 -113 -124 -125 -134 -136 -145 0
-20 -38 -39 -53 -56 -69 -70 -99 -100 -112 -113 -124 -125 -134 -136 -145 0
-19 -37 -38 -54 -55 -69 -71 -99 -100 -112 -113 -124 -125 -134 -136 -145 0
-20 -37 -39 -54 -55 -69 -71 -99 -100 -112 -113 -124 -125 -134 -136 -145 0
-20 -38 -39 -54 -56 -69 -71 -99 -100 -112 -113 -124 -125 -134 -136 -145 0
-20 -38 -39 -55 -56 -69 -72 -99 -100 -112 -113 -124 -125 -134 -136 -145 0
-19 -37 -38 -54 -55 -70 -71 -99 -101 -112 -113 -124 -125 -134 -136 -145 0
-20 -37 -39 -54 -55 -70 -71 -99 -101 -112 -113 -124 -125 -134 -136 -145 0
-20 -38 -39 -54 -56 -70 -71 -99 -101 -112 -113 -124 -125 -134 -136 -145 0
-20 -38 -39 -55 -56 -70 -72 -99 -101 -112 -113 -124 -125 -134 -136 -145 0
-20 -38 -39 -55 -56 -71 -72 -99 -102 -112 -113 -124 -125 -134 -136 -145 0
-19 -37 -38 -54 -55 -70 -71 -100 -101 -112 -114 -124 -125 -134 -136 -145 0
-20 -37 -39 -54 -55 -70 -71 -100 -101 -112 -114 -124 -125 -134 -136 -145 0
-20 -38 -39 -54 -56 -70 -71 -100 -101 -112 -114 -124 -125 -134 -136 -145 0
-20 -38 -39 -55 -56 -70 -72 -100 -101 -112 -114 -124 -125 -134 -136 -145 0
-20 -38 -39 -55 -56 -71 -72 -100 -102 -112 -114 -124 -125 -134 -136 -145 0
-20 -38 -39 -55 -56 -71 -72 -101 -102 -112 -115 -124 -125 -134 -136 -145 0
-19 -37 -38 -54 -55 -70 -71 -100 -101 -113 -114 -124 -126 -134 -136 -145 0
-20 -37 -39 -54 -55 -70 -71 -100 -101 -113 -114 -124 -126 -134 -136 -145 0
-20 -38 -39 -54 -56 -70 -71 -100 -101 -113 -114 -124 -126 -134 -136 -145 0
-20 -38 -39 -55 -56 -70 -72 -100 -101 -113 -114 -124 -126 -134 -136 -145 0
-20 -38 -39 -55 -56 -71 -72 -100 -102 -113 -114 -124 -126 -134 -136 -145 0
-20 -38 -39 -55 -56 -71 -72 -101 -102 -113 -115 -124 -126 -134 -136 -145 0
-20 -38 -39 -55 -56 -71 -72 -101 -102 -114 -115 -124 -127 -134 -136 -145 0
-19 -37 -38 -54 -55 -70 -71 -100 -101 -113 -114 -125 -126 -134 -137 -145 0
-20 -37 -39 -54 -55 -70 -71 -100 -101 -113 -114 -125 -126 -134 -137 -145 0
-20 -38 -39 -54 -56 -70 -71 -100 -101 -113 -114 -125 -126 -134 -137 -145 0
-20 -38 -39 -55 -56 -70 -72 -100 -101 -113 -114 -125 -126 -134 -137 -145 0
-20 -38 -39 -55 -56 -71 -72 -100 -102 -113 -114 -125 -126 -134 -137 -145 0
-20 -38 -39 -55 -56 -71 -72 -101 -102 -113 -115 -125 -126 -134 -137 -145 0
-20 -38 -39 -55 -56 -71 -72 -101 -102 -114 -115 -125 -127 -134 -137 -145 0
-20 -38 -39 -55 -56 -71 -72 -101 -102 -114 -115 -126 -127 -134 -138 -145 0
-18 -36 -37 -53 -54 -69 -70 -99 -100 -112 -113 -124 -125 -135 -136 -146 0
-19 -36 -38 -53 -54 -69 -70 -99 -100 -112 -113 -124 -125 -135 -136 -146 0
-20 -36 -39 -53 -54 -69 -70 -99 -100 -112 -113 -124 -125 -135 -136 -146 0
-19 -37 -38 -53 -55 -69 -70 -99 -100 -112 -113 -124 -125 -135 -136 -146 0
-20 -37 -39 -53 -55 -69 -70 -99 -100 -112 -113 -124 -125 -135 -136 -146 0
-20 -38 -39 -53 -56 -69 -70 -99 -100 -112 -113 -124 -125 -135 -136 -146 0
-19 -37 -38 -54 -55 -69 -71 -99 -100 -112 -113 -124 -125 -135 -136 -146 0
-20 -37 -39 -54 -55 -69 -71 -99 -100 -112 -113 -124 -125 -135 -136 -146 0
-20 -38 -39 -54 -56 -69 -71 -99 -100 -112 -113 -124 -125 -135 -136 -146 0
-20 -38 -39 -55 -56 -69 -72 -99 -100 -112 -113 -124 -125 -135 -136 -146 0
-19 -37 -38 -54 -55 -70 -71 -99 -101 -112 -113 -124 -125 -135 -136 -146 0
-20 -37 -39 -54 -55 -70 -71 -99 -101 -112 -113 -124 -125 -135 -136 -146 0
-20 -38 -39 -54 -56 -70 -71 -99 -101 -112 -113 -124 -125 -135 -136 -146 0
-20 -38 -39 -55 -56 -70 -72 -99 -101 -112 -113 -124 -125 -135 -136 -146 0
-20 -38 -39 -55 -56 -71 -72 -99 -102 -112 -113 -124 -125 -135 -136 -146 0
-19 -37 -38 -54 -55 -70 -71 -100 -101 -112 -114 -124 -125 -135 -136 -146 0
-20 -37 -39 -54 -55 -70 -71 -100 -101 -112 -114 -124 -125 -135 -136 -146 0
-20 -38 -39 -54 -56 -70 -71 -100 -101 -112 -114 -124 -125 -135 -136 -146 0
-20 -38 -39 -55 -56 -70 -72 -100 -101 -112 -114 -124 -125 -135 -136 -146 0
-20 -38 -39 -55 -56 -71 -72 -100 -102 -112 -114 -124 -125 -135 -136 -146 0
-20 -38 -39 -55 -56 -71 -72 -101 -102 -112 -115 -124 -125 -135 -136 -146 0
-19 -37 -38 -54 -55 -70 -71 -100 -101 -113 -114 -124 -126 -135 -136 -146 0
-20 -37 -39 -54 -55 -70 -71 -100 -101 -113 -114 -124 -126 -135 -136 -146 0
-20 -38 -39 -54 -56 -70 -71 -100 -101 -113 -114 -124 -126 -135 -136 -146 0
-20 -38 -39 -55 -56 -70 -72 -100 -101 -113 -114 -124 -126 -135 -136 -146 0
-20 -38 -39 -55 -56 -71 -72 -100 -102 -113 -114 -124 -126 -135 -136 -146 0
-20 -38 -39 -55 -56 -71 -72 -101 -102 -113 -115 -124 -126 -135 -136 -146 0
-20 -38 -39 -55 -56 -71 -72 -101 -102 -114 -115 -124 -127 -135 -136 -146 0
-19 -37 -38 -54 -55 -70 -71 -100 -101 -113 -114 -125 -126 -135 -137 -146 0
-20 -37 -39 -54 -55 -70 -71 -100 -101 -113 -114 -125 -126 -135 -137 -146 0
-20 -38 -39 -54 -56 -70 -71 -100 -101 -113 -114 -125 -126 -135 -137 -146 0
-20 -38 -39 -55 -56 -70 -72 -100 -101 -113 -114 -125 -126 -135 -137 -146 0
-20 -38 -39 -55 -56 -71 -72 -100 -102 -113 -114 -125 -126 -135 -137 -146 0
-20 -38 -39 -55 -56 -71 -72 -101 -102 -113 -115 -125 -126 -135 -137 -146 0
-20 -38 -39 -55 -56 -71 -72 -101 -102 -114 -115 -125 -127 -135 -137 -146 0
-20 -38 -39 -55 -56 -71 -72 -101 -102 -114 -115 -126 -127 -135 -138 -146 0
-19 -37 -38 -54 -55 -70 -71 -100 -101 -113 -114 -125 -126 -136 -137 -147 0
-20 -37 -39 -54 -55 -70 -71 -100 -101 -113 -114 -125 -126 -136 -137 -147 0
-20 -38 -39 -54 -56 -70 -71 -100 -101 -113 -114 -125 -126 -136 -137 -147 0
-20 -38 -39 -55 -56 -70 -72 -100 -101 -113 -114 -125 -126 -136 -137 -147 0
-20 -38 -39 -55 -56 -71 -72 -100 -102 -113 -114 -125 -126 -136 -137 -147 0
-20 -38 -39 -55 -56 -71 -72 -101 -102 -113 -115 -125 -126 -136 -137 -147 0
-20 -38 -39 -55 -56 -71 -72 -101 -102 -114 -115 -125 -127 -136 -137 -147 0
-20 -38 -39 -55 -56 -71 -72 -101 -102 -114 -115 -126 -127 -136 -138 -147 0
-20 -38 -39 -55 -56 -71 -72 -101 -102 -114 -115 -126 -127 -137 -138 -148 0
-18 -36 -37 -53 -54 -69 -70 -99 -100 -112 -113 -124 -125 -135 -136 -156 0
-19 -36 -38 -53 -54 -69 -70 -99 -100 -112 -113 -124 -125 -135 -136 -156 0
-20 -36 -39 -53 -54 -69 -70 -99 -100 -112 -113 -124 -125 -135 -136 -156 0
-19 -37 -38 -53 -55 -69 -70 -99 -100 -112 -113 -124 -125 -135 -136 -156 0
-20 -37 -39 -53 -55 -69 -70 -99 -100 -112 -113 -124 -125 -135 -136 -156 0
-20 -38 -39 -53 -56 -69 -70 -99 -100 -112 -113 -124 -125 -135 -136 -156 0
-19 -37 -38 -54 -55 -69 -71 -99 -100 -112 -113 -124 -125 -135 -136 -156 0
-20 -37 -39 -54 -55 -69 -71 -99 -100 -112 -113 -124 -125 -135 -136 -156 0
-20 -38 -39 -54 -56 -69 -71 -99 -100 -112 -113 -124 -125 -135 -136 -156 0
-20 -38 -39 -55 -56 -69 -72 -99 -100 -112 -113 -124 -125 -135 -136 -156 0
-19 -37 -38 -54 -55 -70 -71 -99 -101 -112 -113 -124 -125 -135 -136 -156 0
-20 -37 -39 -54 -55 -70 -71 -99 -101 -112 -113 -124 -125 -135 -136 -156 0
-20 -38 -39 -54 -56 -70 -71 -99 -101 -112 -113 -124 -125 -135 -136 -156 0
-20 -38 -39 -55 -56 -70 -72 -99 -101 -112 -113 -124 -125 -135 -136 -156 0
-20 -38 -39 -55 -56 -71 -72 -99 -102 -112 -113 -124 -125 -135 -136 -156 0
-19 -37 -38 -54 -55 -70 -71 -100 -101 -112 -114 -124 -125 -135 -136 -156 0
-20 -37 -39 -54 -55 -70 -71 -100 -101 -112 -114 -124 -125 -135 -136 -156 0
-20 -38 -39 -54 -56 -70 -71 -100 -101 -112 -114 -124 -125 -135 -136 -156 0
-20 -38 -39 -55 -56 -70 -72 -100 -101 -112 -114 -124 -125 -135 -136 -156 0
-20 -38 -39 -55 -56 -71 -72 -100 -102 -112 -114 -124 -125 -135 -136 -156 0
-20 -38 -39 -55 -56 -71 -72 -101 -102 -112 -115 -124 -125 -135 -136 -156 0
-19 -37 -38 -54 -55 -70 -71 -100 -101 -113 -114 -124 -126 -135 -136 -156 0
-20 -37 -39 -54 -55 -70 -71 -100 -101 -113 -114 -124 -126 -135 -136 -156 0
-20 -38 -39 -54 -56 -70 -71 -100 -101 -113 -114 -124 -126 -135 -136 -156 0
-20 -38 -39 -55 -56 -70 -72 -100 -101 -113 -114 -124 -126 -135 -136 -156 0
-20 -38 -39 -55 -56 -71 -72 -100 -102 -113 -114 -124 -126 -135 -136 -156 0
-20 -38 -39 -55 -56 -71 -72 -101 -102 -113 -115 -124 -126 -135 -136 -156 0
-20 -38 -39 -55 -56 -71 -72 -101 -102 -114 -115 -124 -127 -135 -136 -156 0
-19 -37 -38 -54 -55 -70 -71 -100 -101 -113 -114 -125 -126 -135 -137 -156 0
-20 -37 -39 -54 -55 -70 -71 -100 -101 -113 -114 -125 -126 -135 -137 -156 0
-20 -38 -39 -54 -56 -70 -71 -100 -101 -113 -114 -125 -126 -135 -137 -156 0
-20 -38 -39 -55 -56 -70 -72 -100 -101 -113 -114 -125 -126 -135 -137 -156 0
-20 -38 -39 -55 -56 -71 -72 -100 -102 -113 -114 -125 -126 -135 -137 -156 0
-20 -38 -39 -55 -56 -71 -72 -101 -102 -113 -115 -125 -126 -135 -137 -156 0
-20 -38 -39 -55 -56 -71 -72 -101 -102 -114 -115 -125 -127 -135 -137 -156 0
-20 -38 -39 -55 -56 -71 -72 -101 -102 -114 -115 -126 -127 -135 -138 -156 0
-19 -37 -38 -54 -55 -70 -71 -100 -101 -113 -114 -125 -126 -136 -137 -157 0
-20 -37 -39 -54 -55 -70 -71 -100 -101 -113 -114 -125 -126 -136 -137 -157 0
-20 -38 -39 -54 -56 -70 -71 -100 -101 -113 -114 -125 -126 -136 -137 -157 0
-20 -38 -39 -55 -56 -70 -72 -100 -101 -113 -114 -125 -126 -136 -137 -157 0
-20 -38 -39 -55 -56 -71 -72 -100 -102 -113 -114 -125 -126 -136 -137 -157 0
-20 -38 -39 -55 -56 -71 -72 -101 -102 -113 -115 -125 -126 -136 -137 -157 0
-20 -38 -39 -55 -56 -71 -72 -101 -102 -114 -115 -125 -127 -136 -137 -157 0
-20 -38 -39 -55 -56 -71 -72 -101 -102 -114 -115 -126 -127 -136 -138 -157 0
-20 -38 -39 -55 -56 -71 -72 -101 -102 -114 -115 -126 -127 -137 -138 -158 0
-19 -37 -38 -54 -55 -70 -71 -100 -101 -113 -114 -125 -126 -136 -137 -166 0
-20 -37 -39 -54 -55 -70 -71 -100 -101 -113 -114 -125 -126 -136 -137 -166 0
-20 -38 -39 -54 -56 -70 -71 -100 -101 -113 -114 -125 -126 -136 -137 -166 0
-20 -38 -39 -55 -56 -70 -72 -100 -101 -113 -114 -125 -126 -136 -137 -166 0
-20 -38 -39 -55 -56 -71 -72 -100 -102 -113 -114 -125 -126 -136 -137 -166 0
-20 -38 -39 -55 -56 -71 -72 -101 -102 -113 -115 -125 -126 -136 -137 -166 0
-20 -38 -39 -55 -56 -71 -72 -101 -102 -114 -115 -125 -127 -136 -137 -166 0
-20 -38 -39 -55 -56 -71 -72 -101 -102 -114 -115 -126 -127 -136 -138 -166 0
-20 -38 -39 -55 -56 -71 -72 -101 -102 -114 -115 -126 -127 -137 -138 -167 0
-20 -38 -39 -55 -56 -71 -72 -101 -102 -114 -115 -126 -127 -137 -138 -175 0
-18 -36 -37 -53 -54 -69 -70 -99 -100 -112 -113 -124 -125 -146 -147 -156 0
-19 -36 -38 -53 -54 -69 -70 -99 -100 -112 -113 -124 -125 -146 -147 -156 0
-20 -36 -39 -53 -54 -69 -70 -99 -100 -112 -113 -124 -125 -146 -147 -156 0
-19 -37 -38 -53 -55 -69 -70 -99 -100 -112 -113 -124 -125 -146 -147 -156 0
-20 -37 -39 -53 -55 -69 -70 -99 -100 -112 -113 -124 -125 -146 -147 -156 0
-20 -38 -39 -53 -56 -69 -70 -99 -100 -112 -113 -124 -125 -146 -147 -156 0
-19 -37 -38 -54 -55 -69 -71 -99 -100 -112 -113 -124 -125 -146 -147 -156 0
-20 -37 -39 -54 -55 -69 -71 -99 -100 -112 -113 -124 -125 -146 -147 -156 0
-20 -38 -39 -54 -56 -69 -71 -99 -100 -112 -113 -124 -125 -146 -147 -156 0
-20 -38 -39 -55 -56 -69 -72 -99 -100 -112 -113 -124 -125 -146 -147 -156 0
-19 -37 -38 -54 -55 -70 -71 -99 -101 -112 -113 -124 -125 -146 -147 -156 0
-20 -37 -39 -54 -55 -70 -71 -99 -101 -112 -113 -124 -125 -146 -147 -156 0
-20 -38 -39 -54 -56 -70 -71 -99 -101 -112 -113 -124 -125 -146 -147 -156 0
-20 -38 -39 -55 -56 -70 -72 -99 -101 -112 -113 -124 -125 -146 -147 -156 0
-20 -38 -39 -55 -56 -71 -72 -99 -102 -112 -113 -124 -125 -146 -147 -156 0
-19 -37 -38 -54 -55 -70 -71 -100 -101 -112 -114 -124 -125 -146 -147 -156 0
-20 -37 -39 -54 -55 -70 -71 -100 -101 -112 -114 -124 -125 -146 -147 -156 0
-20 -38 -39 -54 -56 -70 -71 -100 -101 -112 -114 -124 -125 -146 -147 -156 0
-20 -38 -39 -55 -56 -70 -72 -100 -101 -112 -114 -124 -125 -146 -147 -156 0
-20 -38 -39 -55 -56 -71 -72 -100 -102 -112 -114 -124 -125 -146 -147 -156 0
-20 -38 -39 -55 -56 -71 -72 -101 -102 -112 -115 -124 -125 -146 -147 -156 0
-19 -37 -38 -54 -55 -70 -71 -100 -101 -113 -114 -124 -126 -146 -147 -156 0
-20 -37 -39 -54 -55 -70 -71 -100 -101 -113 -114 -124 -126 -146 -147 -156 0
-20 -38 -39 -54 -56 -70 -71 -100 -101 -113 -114 -124 -126 -146 -147 -156 0
-20 -38 -39 -55 -56 -70 -72 -100 -101 -113 -114 -124 -126 -146 -147 -156 0
-20 -38 -39 -55 -56 -71 -72 -100 -102 -113 -114 -124 -126 -146 -147 -156 0
-20 -38 -39 -55 -56 -71 -72 -101 -102 -113 -115 -124 -126 -146 -147 -156 0
-20 -38 -39 -55 -56 -71 -72 -101 -102 -114 -115 -124 -127 -146 -147 -156 0
-19 -37 -38 -54 -55 -70 -71 -100 -101 -113 -114 -125 -126 -146 -148 -156 0
-20 -37 -39 -54 -55 -70 -71 -100 -101 -113 -114 -125 -126 -146 -148 -156 0
-20 -38 -39 -54 -56 -70 -71 -100 -101 -113 -114 -125 -126 -146 -148 -156 0
-20 -38 -39 -55 -56 -70 -72 -100 -101 -113 -114 -125 -126 -146 -148 -156 0
-20 -38 -39 -55 -56 -71 -72 -100 -102 -113 -114 -125 -126 -146 -148 -156 0
-20 -38 -39 -55 -56 -71 -72 -101 -102 -113 -115 -125 -126 -146 -148 -156 0
-20 -38 -39 -55 -56 -71 -72 -101 -102 -114 -115 -125 -127 -146 -148 -156 0
-20 -38 -39 -55 -56 -71 -72 -101 -102 -114 -115 -126 -127 -146 -149 -156 0
-19 -37 -38 -54 -55 -70 -71 -100 -101 -113 -114 -125 -126 -147 -148 -157 0
-20 -37 -39 -54 -55 -70 -71 -100 -101 -113 -114 -125 -126 -147 -148 -157 0
-20 -38 -39 -54 -56 -70 -71 -100 -101 -113 -114 -125 -126 -147 -148 -157 0
-20 -38 -39 -55 -56 -70 -72 -100 -101 -113 -114 -125 -126 -147 -148 -157 0
-20 -38 -39 -55 -56 -71 -72 -100 -102 -113 -114 -125 -126 -147 -148 -157 0
-20 -38 -39 -55 -56 -71 -72 -101 -102 -113 -115 -125 -126 -147 -148 -157 0
-20 -38 -39 -55 -56 -71 -72 -101 -102 -114 -115 -125 -127 -147 -148 -157 0
-20 -38 -39 -55 -56 -71 -72 -101 -102 -114 -115 -126 -127 -147 -149 -157 0
-20 -38 -39 -55 -56 -71 -72 -101 -102 -114 -115 -126 -127 -148 -149 -158 0
-19 -37 -38 -54 -55 -70 -71 -100 -101 -113 -114 -125 -126 -147 -148 -166 0
-20 -37 -39 -54 -55 -70 -71 -100 -101 -113 -114 -125 -126 -147 -148 -166 0
-20 -38 -39 -54 -56 -70 -71 -100 -101 -113 -114 -125 -126 -147 -148 -166 0
-20 -38 -39 -55 -56 -70 -72 -100 -101 -113 -114 -125 -126 -147 -148 -166 0
-20 -38 -39 -55 -56 -71 -72 -100 -102 -113 -114 -125 -126 -147 -148 -166 0
-20 -38 -39 -55 -56 -71 -72 -101 -102 -113 -115 -125 -126 -147 -148 -166 0
-20 -38 -39 -55 -56 -71 -72 -101 -102 -114 -115 -125 -127 -147 -148 -166 0
-20 -38 -39 -55 -56 -71 -72 -101 -102 -114 -115 -126 -127 -147 -149 -166 0
-20 -38 -39 -55 -56 -71 -72 -101 -102 -114 -115 -126 -127 -148 -149 -167 0
-20 -38 -39 -55 -56 -71 -72 -101 -102 -114 -115 -126 -127 -148 -149 -175 0
-19 -37 -38 -54 -55 -70 -71 -100 -101 -113 -114 -125 -126 -157 -158 -166 0
-20 -37 -39 -54 -55 -70 -71 -100 -101 -113 -114 -125 -126 -157 -158 -166 0
-20 -38 -39 -54 -56 -70 -71 -100 -101 -113 -114 -125 -126 -157 -158 -166 0
-20 -38 -39 -55 -56 -70 -72 -100 -101 -113 -114 -125 -126 -157 -158 -166 0
-20 -38 -39 -55 -56 -71 -72 -100 -102 -113 -114 -125 -126 -157 -158 -166 0
-20 -38 -39 -55 -56 -71 -72 -101 -102 -113 -115 -125 -126 -157 -158 -166 0
-20 -38 -39 -55 -56 -71 -72 -101 -102 -114 -115 -125 -127 -157 -158 -166 0
-20 -38 -39 -55 -56 -71 -72 -101 -102 -114 -115 -126 -127 -157 -159 -166 0
-20 -38 -39 -55 -56 -71 -72 -101 -102 -114 -115 -126 -127 -158 -159 -167 0
-20 -38 -39 -55 -56 -71 -72 -101 -102 -114 -115 -126 -127 -158 -159 -175 0
-20 -38 -39 -55 -56 -71 -72 -101 -102 -114 -115 -126 -127 -167 -168 -175 0
-18 -36 -37 -53 -54 -69 -70 -99 -100 -112 -113 -136 -137 -146 -147 -156 0
-19 -36 -38 -53 -54 -69 -70 -99 -100 -112 -113 -136 -137 -146 -147 -156 0
-20 -36 -39 -53 -54 -69 -70 -99 -100 -112 -113 -136 -137 -146 -147 -156 0
-19 -37 -38 -53 -55 -69 -70 -99 -100 -112 -113 -136 -137 -146 -147 -156 0
-20 -37 -39 -53 -55 -69 -70 -99 -100 -112 -113 -136 -137 -146 -147 -156 0
-20 -38 -39 -53 -56 -69 -70 -99 -100 -112 -113 -136 -137 -146 -147 -156 0
-19 -37 -38 -54 -55 -69 -71 -99 -100 -112 -113 -136 -137 -146 -147 -156 0
-20 -37 -39 -54 -55 -69 -71 -99 -100 -112 -113 -136 -137 -146 -147 -156 0
-20 -38 -39 -54 -56 -69 -71 -99 -100 -112 -113 -136 -137 -146 -147 -156 0
-20 -38 -39 -55 -56 -69 -72 -99 -100 -112 -113 -136 -137 -146 -147 -156 0
-19 -37 -38 -54 -55 -70 -71 -99 -101 -112 -113 -136 -137 -146 -147 -156 0
-20 -37 -39 -54 -55 -70 -71 -99 -101 -112 -113 -136 -137 -146 -147 -156 0
-20 -38 -39 -54 -56 -70 -71 -99 -101 -112 -113 -136 -137 -146 -147 -156 0
-20 -38 -39 -55 -56 -70 -72 -99 -101 -112 -113 -136 -137 -146 -147 -156 0
-20 -38 -39 -55 -56 -71 -72 -99 -102 -112 -113 -136 -137 -146 -147 -156 0
-19 -37 -38 -54 -55 -70 -71 -100 -101 -112 -114 -136 -137 -146 -147 -156 0
-20 -37 -39 -54 -55 -70 -71 -100 -101 -112 -114 -136 -137 -146 -147 -156 0
-20 -38 -39 -54 -56 -70 -71 -100 -101 -112 -114 -136 -137 -146 -147 -156 0
-20 -38 -39 -55 -56 -70 -72 -100 -101 -112 -114 -136 -137 -146 -147 -156 0
-20 -38 -39 -55 -56 -71 -72 -100 -102 -112 -114 -136 -137 -146 -147 -156 0
-20 -38 -39 -55 -56 -71 -72 -101 -102 -112 -115 -136 -137 -146 -147 -156 0
-19 -37 -38 -54 -55 -70 -71 -100 -101 -113 -114 -136 -138 -146 -147 -156 0
-20 -37 -39 -54 -55 -70 -71 -100 -101 -113 -114 -136 -138 -146 -147 -156 0
-20 -38 -39 -54 -56 -70 -71 -100 -101 -113 -114 -136 -138 -146 -147 -156 0
-20 -38 -39 -55 -56 -70 -72 -100 -101 -113 -114 -136 -138 -146 -147 -156 0
-20 -38 -39 -55 -56 -71 -72 -100 -102 -113 -114 -136 -138 -146 -147 -156 0
-20 -38 -39 -55 -56 -71 -72 -101 -102 -113 -115 -136 -138 -146 -147 -156 0
-20 -38 -39 -55 -56 -71 -72 -101 -102 -114 -115 -136 -139 -146 -147 -156 0
-19 -37 -38 -54 -55 -70 -71 -100 -101 -113 -114 -137 -138 -146 -148 -156 0
-20 -37 -39 -54 -55 -70 -71 -100 -101 -113 -114 -137 -138 -146 -148 -156 0
-20 -38 -39 -54 -56 -70 -71 -100 -101 -113 -114 -137 -138 -146 -148 -156 0
-20 -38 -39 -55 -56 -70 -72 -100 -101 -113 -114 -137 -138 -146 -148 -156 0
-20 -38 -39 -55 -56 -71 -72 -100 -102 -113 -114 -137 -138 -146 -148 -156 0
-20 -38 -39 -55 -56 -71 -72 -101 -102 -113 -115 -137 -138 -146 -148 -156 0
-20 -38 -39 -55 -56 -71 -72 -101 -102 -114 -115 -137 -139 -146 -148 -156 0
-20 -38 -39 -55 -56 -71 -72 -101 -102 -114 -115 -138 -139 -146 -149 -156 0
-19 -37 -38 -54 -55 -70 -71 -100 -101 -113 -114 -137 -138 -147 -148 -157 0
-20 -37 -39 -54 -55 -70 -71 -100 -101 -113 -114 -137 -138 -147 -148 -157 0
-20 -38 -39 -54 -56 -70 -71 -100 -101 -113 -114 -137 -138 -147 -148 -157 0
-20 -38 -39 -55 -56 -70 -72 -100 -101 -113 -114 -137 -138 -147 -148 -157 0
-20 -38 -39 -55 -56 -71 -72 -100 -102 -113 -114 -137 -138 -147 -148 -157 0
-20 -38 -39 -55 -56 -71 -72 -101 -102 -113 -115 -137 -138 -147 -148 -157 0
-20 -38 -39 -55 -56 -71 -72 -101 -102 -114 -115 -137 -139 -147 -148 -157 0
-20 -38 -39 -55 -56 -71 -72 -101 -102 -114 -115 -138 -139 -147 -149 -157 0
-20 -38 -39 -55 -56 -71 -72 -101 -102 -114 -115 -138 -139 -148 -149 -158 0
-19 -37 -38 -54 -55 -70 -71 -100 -101 -113 -114 -137 -138 -147 -148 -166 0
-20 -37 -39 -54 -55 -70 -71 -100 -101 -113 -114 -137 -138 -147 -148 -166 0
-20 -38 -39 -54 -56 -70 -71 -100 -101 -113 -114 -137 -138 -147 -148 -166 0
-20 -38 -39 -55 -56 -70 -72 -100 -101 -113 -114 -137 -138 -147 -148 -166 0
-20 -38 -39 -55 -56 -71 -72 -100 -102 -113 -114 -137 -138 -147 -148 -166 0
-20 -38 -39 -55 -56 -71 -72 -101 -102 -113 -115 -137 -138 -147 -148 -166 0
-20 -38 -39 -55 -56 -71 -72 -101 -102 -114 -115 -137 -139 -147 -148 -166 0
-20 -38 -39 -55 -56 -71 -72 -101 -102 -114 -115 -138 -139 -147 -149 -166 0
-20 -38 -39 -55 -56 -71 -72 -101 -102 -114 -115 -138 -139 -148 -149 -167 0
-20 -38 -39 -55 -56 -71 -72 -101 -102 -114 -115 -138 -139 -148 -149 -175 0
-19 -37 -38 -54 -55 -70 -71 -100 -101 -113 -114 -137 -138 -157 -158 -166 0
-20 -37 -39 -54 -55 -70 -71 -100 -101 -113 -114 -137 -138 -157 -158 -166 0
-20 -38 -39 -54 -56 -70 -71 -100 -101 -113 -114 -137 -138 -157 -158 -166 0
-20 -38 -39 -55 -56 -70 -72 -100 -101 -113 -114 -137 -138 -157 -158 -166 0
-20 -38 -39 -55 -56 -71 -72 -100 -102 -113 -114 -137 -138 -157 -158 -166 0
-20 -38 -39 -55 -56 -71 -72 -101 -102 -113 -115 -137 -138 -157 -158 -166 0
-20 -38 -39 -55 -56 -71 -72 -101 -102 -114 -115 -137 -139 -157 -158 -166 0
-20 -38 -39 -55 -56 -71 -72 -101 -102 -114 -115 -138 -139 -157 -159 -166 0
-20 -38 -39 -55 -56 -71 -72 -101 -102 -114 -115 -138 -139 -158 -159 -167 0
-20 -38 -39 -55 -56 -71 -72 -101 -102 -114 -115 -138 -139 -158 -159 -175 0
-20 -38 -39 -55 -56 -71 -72 -101 -102 -114 -115 -138 -139 -167 -168 -175 0
-19 -37 -38 -54 -55 -70 -71 -100 -101 -113 -114 -148 -149 -157 -158 -166 0
-20 -37 -39 -54 -55 -70 -71 -100 -101 -113 -114 -148 -149 -157 -158 -166 0
-20 -38 -39 -54 -56 -70 -71 -100 -101 -113 -114 -148 -149 -157 -158 -166 0
-20 -38 -39 -55 -56 -70 -72 -100 -101 -113 -114 -148 -149 -157 -158 -166 0
-20 -38 -39 -55 -56 -71 -72 -100 -102 -113 -114 -148 -149 -157 -158 -166 0
-20 -38 -39 -55 -56 -71 -72 -101 -102 -113 -115 -148 -149 -157 -158 -166 0
-20 -38 -39 -55 -56 -71 -72 -101 -102 -114 -115 -148 -150 -157 -158 -166 0
-20 -38 -39 -55 -56 -71 -72 -101 -102 -114 -115 -149 -150 -157 -159 -166 0
-20 -38 -39 -55 -56 -71 -72 -101 -102 -114 -115 -149 -150 -158 -159 -167 0
-20 -38 -39 -55 -56 -71 -72 -101 -102 -114 -115 -149 -150 -158 -159 -175 0
-20 -38 -39 -55 -56 -71 -72 -101 -102 -114 -115 -149 -150 -167 -168 -175 0
-20 -38 -39 -55 -56 -71 -72 -101 -102 -114 -115 -159 -160 -167 -168 -175 0
-18 -36 -37 -53 -54 -69 -70 -99 -100 -125 -126 -136 -137 -146 -147 -156 0
-19 -36 -38 -53 -54 -69 -70 -99 -100 -125 -126 -136 -137 -146 -147 -156 0
-20 -36 -39 -53 -54 -69 -70 -99 -100 -125 -126 -136 -137 -146 -147 -156 0
-19 -37 -38 -53 -55 -69 -70 -99 -100 -125 -126 -136 -137 -146 -147 -156 0
-20 -37 -39 -53 -55 -69 -70 -99 -100 -125 -126 -136 -137 -146 -147 -156 0
-20 -38 -39 -53 -56 -69 -70 -99 -100 -125 -126 -136 -137 -146 -147 -156 0
-19 -37 -38 -54 -55 -69 -71 -99 -100 -125 -126 -136 -137 -146 -147 -156 0
-20 -37 -39 -54 -55 -69 -71 -99 -100 -125 -126 -136 -137 -146 -147 -156 0
-20 -38 -39 -54 -56 -69 -71 -99 -100 -125 -126 -136 -137 -146 -147 -156 0
-20 -38 -39 -55 -56 -69 -72 -99 -100 -125 -126 -136 -137 -146 -147 -156 0
-19 -37 -38 -54 -55 -70 -71 -99 -101 -125 -126 -136 -137 -146 -147 -156 0
-20 -37 -39 -54 -55 -70 -71 -99 -101 -125 -126 -136 -137 -146 -147 -156 0
-20 -38 -39 -54 -56 -70 -71 -99 -101 -125 -126 -136 -137 -146 -147 -156 0
-20 -38 -39 -55 -56 -70 -72 -99 -101 -125 -126 -136 -137 -146 -147 -156 0
-20 -38 -39 -55 -56 -71 -72 -99 -102 -125 -126 -136 -137 -146 -147 -156 0
-19 -37 -38 -54 -55 -70 -71 -100 -101 -125 -127 -136 -137 -146 -147 -156 0
-20 -37 -39 -54 -55 -70 -71 -100 -101 -125 -127 -136 -137 -146 -147 -156 0
-20 -38 -39 -54 -56 -70 -71 -100 -101 -125 -127 -136 -137 -146 -147 -156 0
-20 -38 -39 -55 -56 -70 -72 -100 -101 -125 -127 -136 -137 -146 -147 -156 0
-20 -38 -39 -55 -56 -71 -72 -100 -102 -125 -127 -136 -137 -146 -147 -156 0
-20 -38 -39 -55 -56 -71 -72 -101 -102 -125 -128 -136 -137 -146 -147 -156 0
-19 -37 -38 -54 -55 -70 -71 -100 -101 -126 -127 -136 -138 -146 -147 -156 0
-20 -37 -39 -54 -55 -70 -71 -100 -101 -126 -127 -136 -138 -146 -147 -156 0
-20 -38 -39 -54 -56 -70 -71 -100 -101 -126 -127 -136 -138 -146 -147 -156 0
-20 -38 -39 -55 -56 -70 -72 -100 -101 -126 -127 -136 -138 -146 -147 -156 0
-20 -38 -39 -55 -56 -71 -72 -100 -102 -126 -127 -136 -138 -146 -147 -156 0
-20 -38 -39 -55 -56 -71 -72 -101 -102 -126 -128 -136 -138 -146 -147 -156 0
-20 -38 -39 -55 -56 -71 -72 -101 -102 -127 -128 -136 -139 -146 -147 -156 0
-19 -37 -38 -54 -55 -70 -71 -100 -101 -126 -127 -137 -138 -146 -148 -156 0
-20 -37 -39 -54 -55 -70 -71 -100 -101 -126 -127 -137 -138 -146 -148 -156 0
-20 -38 -39 -54 -56 -70 -71 -100 -101 -126 -127 -137 -138 -146 -148 -156 0
-20 -38 -39 -55 -56 -70 -72 -100 -101 -126 -127 -137 -138 -146 -148 -156 0
-20 -38 -39 -55 -56 -71 -72 -100 -102 -126 -127 -137 -138 -146 -148 -156 0
-20 -38 -39 -55 -56 -71 -72 -101 -102 -126 -128 -137 -138 -146 -148 -156 0
-20 -38 -39 -55 -56 -71 -72 -101 -102 -127 -128 -137 -139 -146 -148 -156 0
-20 -38 -39 -55 -56 -71 -72 -101 -102 -127 -128 -138 -139 -146 -149 -156 0
-19 -37 -38 -54 -55 -70 -71 -100 -101 -126 -127 -137 -138 -147 -148 -157 0
-20 -37 -39 -54 -55 -70 -71 -100 -101 -126 -127 -137 -138 -147 -148 -157 0
-20 -38 -39 -54 -56 -70 -71 -100 -101 -126 -127 -137 -138 -147 -148 -157 0
-20 -38 -39 -55 -56 -70 -72 -100 -101 -126 -127 -137 -138 -147 -148 -157 0
-20 -38 -39 -55 -56 -71 -72 -100 -102 -126 -127 -137 -138 -147 -148 -157 0
-20 -38 -39 -55 -56 -71 -72 -101 -102 -126 -128 -137 -138 -147 -148 -157 0
-20 -38 -39 -55 -56 -71 -72 -101 -102 -127 -128 -137 -139 -147 -148 -157 0
-20 -38 -39 -55 -56 -71 -72 -101 -102 -127 -128 -138 -139 -147 -149 -157 0
-20 -38 -39 -55 -56 -71 -72 -101 -102 -127 -128 -138 -139 -148 -149 -158 0
-19 -37 -38 -54 -55 -70 -71 -100 -101 -126 -127 -137 -138 -147 -148 -166 0
-20 -37 -39 -54 -55 -70 -71 -100 -101 -126 -127 -137 -138 -147 -148 -166 0
-20 -38 -39 -54 -56 -70 -71 -100 -101 -126 -127 -137 -138 -147 -148 -166 0
-20 -38 -39 -55 -56 -70 -72 -100 -101 -126 -127 -137 -138 -147 -148 -166 0
-20 -38 -39 -55 -56 -71 -72 -100 -102 -126 -127 -137 -138 -147 -148 -166 0
-20 -38 -39 -55 -56 -71 -72 -101 -102 -126 -128 -137 -138 -147 -148 -166 0
-20 -38 -39 -55 -56 -71 -72 -101 -102 -127 -128 -137 -139 -147 -148 -166 0
-20 -38 -39 -55 -56 -71 -72 -101 -102 -127 -128 -138 -139 -147 -149 -166 0
-20 -38 -39 -55 -56 -71 -72 -101 -102 -127 -128 -138 -139 -148 -149 -167 0
-20 -38 -39 -55 -56 -71 -72 -101 -102 -127 -128 -138 -139 -148 -149 -175 0
-19 -37 -38 -54 -55 -70 -71 -100 -101 -126 -127 -137 -138 -157 -158 -166 0
-20 -37 -39 -54 -55 -70 -71 -100 -101 -126 -127 -137 -138 -157 -158 -166 0
-20 -38 -39 -54 -56 -70 -71 -100 -101 -126 -127 -137 -138 -157 -158 -166 0
-20 -38 -39 -55 -56 -70 -72 -100 -101 -126 -127 -137 -138 -157 -158 -166 0
-20 -38 -39 -55 -56 -71 -72 -100 -102 -126 -127 -137 -138 -157 -158 -166 0
-20 -38 -39 -55 -56 -71 -72 -101 -102 -126 -128 -137 -138 -157 -158 -166 0
-20 -38 -39 -55 -56 -71 -72 -101 -102 -127 -128 -137 -139 -157 -158 -166 0
-20 -38 -39 -55 -56 -71 -72 -101 -102 -127 -128 -138 -139 -157 -159 -166 0
-20 -38 -39 -55 -56 -71 -72 -101 -102 -127 -128 -138 -139 -158 -159 -167 0
-20 -38 -39 -55 -56 -71 -72 -101 -102 -127 -128 -138 -139 -158 -159 -175 0
-20 -38 -39 -55 -56 -71 -72 -101 -102 -127 -128 -138 -139 -167 -168 -175 0
-19 -37 -38 -54 -55 -70 -71 -100 -101 -126 -127 -148 -149 -157 -158 -166 0
-20 -37 -39 -54 -55 -70 -71 -100 -101 -126 -127 -148 -149 -157 -158 -166 0
-20 -38 -39 -54 -56 -70 -71 -100 -101 -126 -127 -148 -149 -157 -158 -166 0
-20 -38 -39 -55 -56 -70 -72 -100 -101 -126 -127 -148 -149 -157 -158 -166 0
-20 -38 -39 -55 -56 -71 -72 -100 -102 -126 -127 -148 -149 -157 -158 -166 0
-20 -38 -39 -55 -56 -71 -72 -101 -102 -126 -128 -148 -149 -157 -158 -166 0
-20 -38 -39 -55 -56 -71 -72 -101 -102 -127 -128 -148 -150 -157 -158 -166 0
-20 -38 -39 -55 -56 -71 -72 -101 -102 -127 -128 -149 -150 -157 -159 -166 0
-20 -38 -39 -55 -56 -71 -72 -101 -102 -127 -128 -149 -150 -158 -159 -167 0
-20 -38 -39 -55 -56 -71 -72 -101 -102 -127 -128 -149 -150 -158 -159 -175 0
-20 -38 -39 -55 -56 -71 -72 -101 -102 -127 -128 -149 -150 -167 -168 -175 0
-20 -38 -39 -55 -56 -71 -72 -101 -102 -127 -128 -159 -160 -167 -168 -175 0
-19 -37 -38 -54 -55 -70 -71 -100 -101 -138 -139 -148 -149 -157 -158 -166 0
-20 -37 -39 -54 -55 -70 -71 -100 -101 -138 -139 -148 -149 -157 -158 -166 0
-20 -38 -39 -54 -56 -70 -71 -100 -101 -138 -139 -148 -149 -157 -158 -166 0
-20 -38 -39 -55 -56 -70 -72 -100 -101 -138 -139 -148 -149 -157 -158 -166 0
-20 -38 -39 -55 -56 -71 -72 -100 -102 -138 -139 -148 -149 -157 -158 -166 0
-20 -38 -39 -55 -56 -71 -72 -101 -102 -138 -140 -148 -149 -157 -158 -166 0
-20 -38 -39 -55 -56 -71 -72 -101 -102 -139 -140 -148 -150 -157 -158 -166 0
-20 -38 -39 -55 -56 -71 -72 -101 -102 -139 -140 -149 -150 -157 -159 -166 0
-20 -38 -39 -55 -56 -71 -72 -101 -102 -139 -140 -149 -150 -158 -159 -167 0
-20 -38 -39 -55 -56 -71 -72 -101 -102 -139 -140 -149 -150 -158 -159 -175 0
-20 -38 -39 -55 -56 -71 -72 -101 -102 -139 -140 -149 -150 -167 -168 -175 0
-20 -38 -39 -55 -56 -71 -72 -101 -102 -139 -140 -159 -160 -167 -168 -175 0
-20 -38 -39 -55 -56 -71 -72 -101 -102 -150 -151 -159 -160 -167 -168 -175 0
-18 -36 -37 -53 -54 -69 -70 -113 -114 -125 -126 -136 -137 -146 -147 -156 0
-19 -36 -38 -53 -54 -69 -70 -113 -114 -125 -126 -136 -137 -146 -147 -156 0
-20 -36 -39 -53 -54 -69 -70 -113 -114 -125 -126 -136 -137 -146 -147 -156 0
-19 -37 -38 -53 -55 -69 -70 -113 -114 -125 -126 -136 -137 -146 -147 -156 0
-20 -37 -39 -53 -55 -69 -70 -113 -114 -125 -126 -136 -137 -146 -147 -156 0
-20 -38 -39 -53 -56 -69 -70 -113 -114 -125 -126 -136 -137 -146 -147 -156 0
-19 -37 -38 -54 -55 -69 -71 -113 -114 -125 -126 -136 -137 -146 -147 -156 0
-20 -37 -39 -54 -55 -69 -71 -113 -114 -125 -126 -136 -137 -146 -147 -156 0
-20 -38 -39 -54 -56 -69 -71 -113 -114 -125 -126 -136 -137 -146 -147 -156 0
-20 -38 -39 -55 -56 -69 -72 -113 -114 -125 -126 -136 -137 -146 -147 -156 0
-19 -37 -38 -54 -55 -70 -71 -113 -115 -125 -126 -136 -137 -146 -147 -156 0
-20 -37 -39 -54 -55 -70 -71 -113 -115 -125 -126 -136 -137 -146 -147 -156 0
-20 -38 -39 -54 -56 -70 -71 -113 -115 -125 -126 -136 -137 -146 -147 -156 0
-20 -38 -39 -55 -56 -70 -72 -113 -115 -125 -126 -136 -137 -146 -147 -156 0
-20 -38 -39 -55 -56 -71 -72 -113 -116 -125 -126 -136 -137 -146 -147 -156 0
-19 -37 -38 -54 -55 -70 -71 -114 -115 -125 -127 -136 -137 -146 -147 -156 0
-20 -37 -39 -54 -55 -70 -71 -114 -115 -125 -127 -136 -137 -146 -147 -156 0
-20 -38 -39 -54 -56 -70 -71 -114 -115 -125 -127 -136 -137 -146 -147 -156 0
-20 -38 -39 -55 -56 -70 -72 -114 -115 -125 -127 -136 -137 -146 -147 -156 0
-20 -38 -39 -55 -56 -71 -72 -114 -116 -125 -127 -136 -137 -146 -147 -156 0
-20 -38 -39 -55 -56 -71 -72 -115 -116 -125 -128 -136 -137 -146 -147 -156 0
-19 -37 -38 -54 -55 -70 -71 -114 -115 -126 -127 -136 -138 -146 -147 -156 0
-20 -37 -39 -54 -55 -70 -71 -114 -115 -126 -127 -136 -138 -146 -147 -156 0
-20 -38 -39 -54 -56 -70 -71 -114 -115 -126 -127 -136 -138 -146 -147 -156 0
-20 -38 -39 -55 -56 -70 -72 -114 -115 -126 -127 -136 -138 -146 -147 -156 0
-20 -38 -39 -55 -56 -71 -72 -114 -116 -126 -127 -136 -138 -146 -147 -156 0
-20 -38 -39 -55 -56 -71 -72 -115 -116 -126 -128 -136 -138 -146 -147 -156 0
-20 -38 -39 -55 -56 -71 -72 -115 -116 -127 -128 -136 -139 -146 -147 -156 0
-19 -37 -38 -54 -55 -70 -71 -114 -115 -126 -127 -137 -138 -146 -148 -156 0
-20 -37 -39 -54 -55 -70 -71 -114 -115 -126 -127 -137 -138 -146 -148 -156 0
-20 -38 -39 -54 -56 -70 -71 -114 -115 -126 -127 -137 -138 -146 -148 -156 0
-20 -38 -39 -55 -56 -70 -72 -114 -115 -126 -127 -137 -138 -146 -148 -156 0
-20 -38 -39 -55 -56 -71 -72 -114 -116 -126 -127 -137 -138 -146 -148 -156 0
-20 -38 -39 -55 -56 -71 -72 -115 -116 -126 -128 -137 -138 -146 -148 -156 0
-20 -38 -39 -55 -56 -71 -72 -115 -116 -127 -128 -137 -139 -146 -148 -156 0
-20 -38 -39 -55 -56 -71 -72 -115 -116 -127 -128 -138 -139 -146 -149 -156 0
-19 -37 -38 -54 -55 -70 -71 -114 -115 -126 -127 -137 -138 -147 -148 -157 0
-20 -37 -39 -54 -55 -70 -71 -114 -115 -126 -127 -137 -138 -147 -148 -157 0
-20 -38 -39 -54 -56 -70 -71 -114 -115 -126 -127 -137 -138 -147 -148 -157 0
-20 -38 -39 -55 -56 -70 -72 -114 -115 -126 -127 -137 -138 -147 -148 -157 0
-20 -38 -39 -55 -56 -71 -72 -114 -116 -126 -127 -137 -138 -147 -148 -157 0
-20 -38 -39 -55 -56 -71 -72 -115 -116 -126 -128 -137 -138 -147 -148 -157 0
-20 -38 -39 -55 -56 -71 -72 -115 -116 -127 -128 -137 -139 -147 -148 -157 0
-20 -38 -39 -55 -56 -71 -72 -115 -116 -127 -128 -138 -139 -147 -149 -157 0
-20 -38 -39 -55 -56 -71 -72 -115 -116 -127 -128 -138 -139 -148 -149 -158 0
-19 -37 -38 -54 -55 -70 -71 -114 -115 -126 -127 -137 -138 -147 -148 -166 0
-20 -37 -39 -54 -55 -70 -71 -114 -115 -126 -127 -137 -138 -147 -148 -166 0
-20 -38 -39 -54 -56 -70 -71 -114 -115 -126 -127 -137 -138 -147 -148 -166 0
-20 -38 -39 -55 -56 -70 -72 -114 -115 -126 -127 -137 -138 -147 -148 -166 0
-20 -38 -39 -55 -56 -71 -72 -114 -116 -126 -127 -137 -138 -147 -148 -166 0
-20 -38 -39 -55 -56 -71 -72 -115 -116 -126 -128 -137 -138 -147 -148 -166 0
-20 -38 -39 -55 -56 -71 -72 -115 -116 -127 -128 -137 -139 -147 -148 -166 0
-20 -38 -39 -55 -56 -71 -72 -115 -116 -127 -128 -138 -139 -147 -149 -166 0
-20 -38 -39 -55 -56 -71 -72 -115 -116 -127 -128 -138 -139 -148 -149 -167 0
-20 -38 -39 -55 -56 -71 -72 -115 -116 -127 -128 -138 -139 -148 -149 -175 0
-19 -37 -38 -54 -55 -70 -71 -114 -115 -126 -127 -137 -138 -157 -158 -166 0
-20 -37 -39 -54 -55 -70 -71 -114 -115 -126 -127 -137 -138 -157 -158 -166 0
-20 -38 -39 -54 -56 -70 -71 -114 -115 -126 -127 -137 -138 -157 -158 -166 0
-20 -38 -39 -55 -56 -70 -72 -114 -115 -126 -127 -137 -138 -157 -158 -166 0
-20 -38 -39 -55 -56 -71 -72 -114 -116 -126 -127 -137 -138 -157 -158 -166 0
-20 -38 -39 -55 -56 -71 -72 -115 -116 -126 -128 -137 -138 -157 -158 -166 0
-20 -38 -39 -55 -56 -71 -72 -115 -116 -127 -128 -137 -139 -157 -158 -166 0
-20 -38 -39 -55 -56 -71 -72 -115 -116 -127 -128 -138 -139 -157 -159 -166 0
-20 -38 -39 -55 -56 -71 -72 -115 -116 -127 -128 -138 -139 -158 -159 -167 0
-20 -38 -39 -55 -56 -71 -72 -115 -116 -127 -128 -138 -139 -158 -159 -175 0
-20 -38 -39 -55 -56 -71 -72 -115 -116 -127 -128 -138 -139 -167 -168 -175 0
-19 -37 -38 -54 -55 -70 -71 -114 -115 -126 -127 -148 -149 -157 -158 -166 0
-20 -37 -39 -54 -55 -70 -71 -114 -115 -126 -127 -148 -149 -157 -158 -166 0
-20 -38 -39 -54 -56 -70 -71 -114 -115 -126 -127 -148 -149 -157 -158 -166 0
-20 -38 -39 -55 -56 -70 -72 -114 -115 -126 -127 -148 -149 -157 -158 -166 0
-20 -38 -39 -55 -56 -71 -72 -114 -116 -126 -127 -148 -149 -157 -158 -166 0
-20 -38 -39 -55 -56 -71 -72 -115 -116 -126 -128 -148 -149 -157 -158 -166 0
-20 -38 -39 -55 -56 -71 -72 -115 -116 -127 -128 -148 -150 -157 -158 -166 0
-20 -38 -39 -55 -56 -71 -72 -115 -116 -127 -128 -149 -150 -157 -159 -166 0
-20 -38 -39 -55 -56 -71 -72 -115 -116 -127 -128 -149 -150 -158 -159 -167 0
-20 -38 -39 -55 -56 -71 -72 -115 -116 -127 -128 -149 -150 -158 -159 -175 0
-20 -38 -39 -55 -56 -71 -72 -115 -116 -127 -128 -149 -150 -167 -168 -175 0
-20 -38 -39 -55 -56 -71 -72 -115 -116 -127 -128 -159 -160 -167 -168 -175 0
-19 -37 -38 -54 -55 -70 -71 -114 -115 -138 -139 -148 -149 -157 -158 -166 0
-20 -37 -39 -54 -55 -70 -71 -114 -115 -138 -139 -148 -149 -157 -158 -166 0
-20 -38 -39 -54 -56 -70 -71 -114 -115 -138 -139 -148 -149 -157 -158 -166 0
-20 -38 -39 -55 -56 -70 -72 -114 -115 -138 -139 -148 -149 -157 -158 -166 0
-20 -38 -39 -55 -56 -71 -72 -114 -116 -138 -139 -148 -149 -157 -158 -166 0
-20 -38 -39 -55 -56 -71 -72 -115 -116 -138 -140 -148 -149 -157 -158 -166 0
-20 -38 -39 -55 -56 -71 -72 -115 -116 -139 -140 -148 -150 -157 -158 -166 0
-20 -38 -39 -55 -56 -71 -72 -115 -116 -139 -140 -149 -150 -157 -159 -166 0
-20 -38 -39 -55 -56 -71 -72 -115 -116 -139 -140 -149 -150 -158 -159 -167 0
-20 -38 -39 -55 -56 -71 -72 -115 -116 -139 -140 -149 -150 -158 -159 -175 0
-20 -38 -39 -55 -56 -71 -72 -115 -116 -139 -140 -149 -150 -167 -168 -175 0
-20 -38 -39 -55 -56 -71 -72 -115 -116 -139 -140 -159 -160 -167 -168 -175 0
-20 -38 -39 -55 -56 -71 -72 -115 -116 -150 -151 -159 -160 -167 -168 -175 0
-19 -37 -38 -54 -55 -70 -71 -127 -128 -138 -139 -148 -149 -157 -158 -166 0
-20 -37 -39 -54 -55 -70 -71 -127 -128 -138 -139 -148 -149 -157 -158 -166 0
-20 -38 -39 -54 -56 -70 -71 -127 -128 -138 -139 -148 -149 -157 -158 -166 0
-20 -38 -39 -55 -56 -70 -72 -127 -128 -138 -139 -148 -149 -157 -158 -166 0
-20 -38 -39 -55 -56 -71 -72 -127 -129 -138 -139 -148 -149 -157 -158 -166 0
-20 -38 -39 -55 -56 -71 -72 -128 -129 -138 -140 -148 -149 -157 -158 -166 0
-20 -38 -39 -55 -56 -71 -72 -128 -129 -139 -140 -148 -150 -157 -158 -166 0
-20 -38 -39 -55 -56 -71 -72 -128 -129 -139 -140 -149 -150 -157 -159 -166 0
-20 -38 -39 -55 -56 -71 -72 -128 -129 -139 -140 -149 -150 -158 -159 -167 0
-20 -38 -39 -55 -56 -71 -72 -128 -129 -139 -140 -149 -150 -158 -159 -175 0
-20 -38 -39 -55 -56 -71 -72 -128 -129 -139 -140 -149 -150 -167 -168 -175 0
-20 -38 -39 -55 -56 -71 -72 -128 -129 -139 -140 -159 -160 -167 -168 -175 0
-20 -38 -39 -55 -56 -71 -72 -128 -129 -150 -151 -159 -160 -167 -168 -175 0
-20 -38 -39 -55 -56 -71 -72 -140 -141 -150 -151 -159 -160 -167 -168 -175 0
-17 -35 -36 -52 -53 -84 -85 -98 -99 -111 -112 -123 -124 -134 -135 -145 0
-18 -35 -37 -52 -53 -84 -85 -98 -99 -111 -112 -123 -124 -134 -135 -145 0
-19 -35 -38 -52 -53 -84 -85 -98 -99 -111 -112 -123 -124 -134 -135 -145 0
-20 -35 -39 -52 -53 -84 -85 -98 -99 -111 -112 -123 -124 -134 -135 -145 0
-18 -36 -37 -52 -54 -84 -85 -98 -99 -111 -112 -123 -124 -134 -135 -145 0
-19 -36 -38 -52 -54 -84 -85 -98 -99 -111 -112 -123 -124 -134 -135 -145 0
-20 -36 -39 -52 -54 -84 -85 -98 -99 -111 -112 -123 -124 -134 -135 -145 0
-19 -37 -38 -52 -55 -84 -85 -98 -99 -111 -112 -123 -124 -134 -135 -145 0
-20 -37 -39 -52 -55 -84 -85 -98 -99 -111 -112 -123 -124 -134 -135 -145 0
-20 -38 -39 -52 -56 -84 -85 -98 -99 -111 -112 -123 -124 -134 -135 -145 0
-18 -36 -37 -53 -54 -84 -86 -98 -99 -111 -112 -123 -124 -134 -135 -145 0
-19 -36 -38 -53 -54 -84 -86 -98 -99 -111 -112 -123 -124 -134 -135 -145 0
-20 -36 -39 -53 -54 -84 -86 -98 -99 -111 -112 -123 -124 -134 -135 -145 0
-19 -37 -38 -53 -55 -84 -86 -98 -99 -111 -112 -123 -124 -134 -135 -145 0
-20 -37 -39 -53 -55 -84 -86 -98 -99 -111 -112 -123 -124 -134 -135 -145 0
-20 -38 -39 -53 -56 -84 -86 -98 -99 -111 -112 -123 -124 -134 -135 -145 0
-19 -37 -38 -54 -55 -84 -87 -98 -99 -111 -112 -123 -124 -134 -135 -145 0
-20 -37 -39 -54 -55 -84 -87 -98 -99 -111 -112 -123 -124 -134 -135 -145 0
-20 -38 -39 -54 -56 -84 -87 -98 -99 -111 -112 -123 -124 -134 -135 -145 0
-20 -38 -39 -55 -56 -84 -88 -98 -99 -111 -112 -123 -124 -134 -135 -145 0
-18 -36 -37 -53 -54 -85 -86 -98 -100 -111 -112 -123 -124 -134 -135 -145 0
-19 -36 -38 -53 -54 -85 -86 -98 -100 -111 -112 -123 -124 -134 -135 -145 0
-20 -36 -39 -53 -54 -85 -86 -98 -100 -111 -112 -123 -124 -134 -135 -145 0
-19 -37 -38 -53 -55 -85 -86 -98 -100 -111 -112 -123 -124 -134 -135 -145 0
-20 -37 -39 -53 -55 -85 -86 -98 -100 -111 -112 -123 -124 -134 -135 -145 0
-20 -38 -39 -53 -56 -85 -86 -98 -100 -111 -112 -123 -124 -134 -135 -145 0
-19 -37 -38 -54 -55 -85 -87 -98 -100 -111 -112 -123 -124 -134 -135 -145 0
-20 -37 -39 -54 -55 -85 -87 -98 -100 -111 -112 -123 -124 -134 -135 -145 0
-20 -38 -39 -54 -56 -85 -87 -98 -100 -111 -112 -123 -124 -134 -135 -145 0
-20 -38 -39 -55 -56 -85 -88 -98 -100 -111 -112 -123 -124 -134 -135 -145 0
-19 -37 -38 -54 -55 -86 -87 -98 -101 -111 -112 -123 -124 -134 -135 -145 0
-20 -37 -39 -54 -55 -86 -87 -98 -101 -111 -112 -123 -124 -134 -135 -145 0
-20 -38 -39 -54 -56 -86 -87 -98 -101 -111 -112 -123 -124 -134 -135 -145 0
-20 -38 -39 -55 -56 -86 -88 -98 -101 -111 -112 -123 -124 -134 -135 -145 0
-20 -38 -39 -55 -56 -87 -88 -98 -102 -111 -112 -123 -124 -134 -135 -145 0
-18 -36 -37 -53 -54 -85 -86 -99 -100 -111 -113 -123 -124 -134 -135 -145 0
-19 -36 -38 -53 -54 -85 -86 -99 -100 -111 -113 -123 -124 -134 -135 -145 0
-20 -36 -39 -53 -54 -85 -86 -99 -100 -111 -113 -123 -124 -134 -135 -145 0
-19 -37 -38 -53 -55 -85 -86 -99 -100 -111 -113 -123 -124 -134 -135 -145 0
-20 -37 -39 -53 -55 -85 -86 -99 -100 -111 -113 -123 -124 -134 -135 -145 0
-20 -38 -39 -53 -56 -85 -86 -99 -100 -111 -113 -123 -124 -134 -135 -145 0
-19 -37 -38 -54 -55 -85 -87 -99 -100 -111 -113 -123 -124 -134 -135 -145 0
-20 -37 -39 -54 -55 -85 -87 -99 -100 -111 -113 -123 -124 -134 -135 -145 0
-20 -38 -39 -54 -56 -85 -87 -99 -100 -111 -113 -123 -124 -134 -135 -145 0
-20 -38 -39 -55 -56 -85 -88 -99 -100 -111 -113 -123 -124 -134 -135 -145 0
-19 -37 -38 -54 -55 -86 -87 -99 -101 -111 -113 -123 -124 -134 -135 -145 0
-20 -37 -39 -54 -55 -86 -87 -99 -101 -111 -113 -123 -124 -134 -135 -145 0
-20 -38 -39 -54 -56 -86 -87 -99 -101 -111 -113 -123 -124 -134 -135 -145 0
-20 -38 -39 -55 -56 -86 -88 -99 -101 -111 -113 -123 -124 -134 -135 -145 0
-20 -38 -39 -55 -56 -87 -88 -99 -102 -111 -113 -123 -124 -134 -135 -145 0
-19 -37 -38 -54 -55 -86 -87 -100 -101 -111 -114 -123 -124 -134 -135 -145 0
-20 -37 -39 -54 -55 -86 -87 -100 -101 -111 -114 -123 -124 -134 -135 -145 0
-20 -38 -39 -54 -56 -86 -87 -100 -101 -111 -114 -123 -124 -134 -135 -145 0
-20 -38 -39 -55 -56 -86 -88 -100 -101 -111 -114 -123 -124 -134 -135 -145 0
-20 -38 -39 -55 -56 -87 -88 -100 -102 -111 -114 -123 -124 -134 -135 -145 0
-20 -38 -39 -55 -56 -87 -88 -101 -102 -111 -115 -123 -124 -134 -135 -145 0
-18 -36 -37 -53 -54 -85 -86 -99 -100 -112 -113 -123 -125 -134 -135 -145 0
-19 -36 -38 -53 -54 -85 -86 -99 -100 -112 -113 -123 -125 -134 -135 -145 0
-20 -36 -39 -53 -54 -85 -86 -99 -100 -112 -113 -123 -125 -134 -135 -145 0
-19 -37 -38 -53 -55 -85 -86 -99 -100 -112 -113 -123 -125 -134 -135 -145 0
-20 -37 -39 -53 -55 -85 -86 -99 -100 -112 -113 -123 -125 -134 -135 -145 0
-20 -38 -39 -53 -56 -85 -86 -99 -100 -112 -113 -123 -125 -134 -135 -145 0
-19 -37 -38 -54 -55 -85 -87 -99 -100 -112 -113 -123 -125 -134 -135 -145 0
-20 -37 -39 -54 -55 -85 -87 -99 -100 -112 -113 -123 -125 -134 -135 -145 0
-20 -38 -39 -54 -56 -85 -87 -99 -100 -112 -113 -123 -125 -134 -135 -145 0
-20 -38 -39 -55 -56 -85 -88 -99 -100 -112 -113 -123 -125 -134 -135 -145 0
-19 -37 -38 -54 -55 -86 -87 -99 -101 -112 -113 -123 -125 -134 -135 -145 0
-20 -37 -39 -54 -55 -86 -87 -99 -101 -112 -113 -123 -125 -134 -135 -145 0
-20 -38 -39 -54 -56 -86 -87 -99 -101 -112 -113 -123 -125 -134 -135 -145 0
-20 -38 -39 -55 -56 -86 -88 -99 -101 -112 -113 -123 -125 -134 -135 -145 0
-20 -38 -39 -55 -56 -87 -88 -99 -102 -112 -113 -123 -125 -134 -135 -145 0
-19 -37 -38 -54 -55 -86 -87 -100 -101 -112 -114 -123 -125 -134 -135 -145 0
-20 -37 -39 -54 -55 -86 -87 -100 -101 -112 -114 -123 -125 -134 -135 -145 0
-20 -38 -39 -54 -56 -86 -87 -100 -101 -112 -114 -123 -125 -134 -135 -145 0
-20 -38 -39 -55 -56 -86 -88 -100 -101 -112 -114 -123 -125 -134 -135 -145 0
-20 -38 -39 -55 -56 -87 -88 -100 -102 -112 -114 -123 -125 -134 -135 -145 0
-20 -38 -39 -55 -56 -87 -88 -101 -102 -112 -115 -123 -125 -134 -135 -145 0
-19 -37 -38 -54 -55 -86 -87 -100 -101 -113 -114 -123 -126 -134 -135 -145 0
-20 -37 -39 -54 -55 -86 -87 -100 -101 -113 -114 -123 -126 -134 -135 -145 0
-20 -38 -39 -54 -56 -86 -87 -100 -101 -113 -114 -123 -126 -134 -135 -145 0
-20 -38 -39 -55 -56 -86 -88 -100 -101 -113 -114 -123 -126 -134 -135 -145 0
-20 -38 -39 -55 -56 -87 -88 -100 -102 -113 -114 -123 -126 -134 -135 -145 0
-20 -38 -39 -55 -56 -87 -88 -101 -102 -113 -115 -123 -126 -134 -135 -145 0
-20 -38 -39 -55 -56 -87 -88 -101 -102 -114 -115 -123 -127 -134 -135 -145 0
-18 -36 -37 -53 -54 -85 -86 -99 -100 -112 -113 -124 -125 -134 -136 -145 0
-19 -36 -38 -53 -54 -85 -86 -99 -100 -112 -113 -124 -125 -134 -136 -145 0
-20 -36 -39 -53 -54 -85 -86 -99 -100 -112 -113 -124 -125 -134 -136 -145 0
-19 -37 -38 -53 -55 -85 -86 -99 -100 -112 -113 -124 -125 -134 -136 -145 0
-20 -37 -39 -53 -55 -85 -86 -99 -100 -112 -113 -124 -125 -134 -136 -145 0
-20 -38 -39 -53 -56 -85 -86 -99 -100 -112 -113 -124 -125 -134 -136 -145 0
-19 -37 -38 -54 -55 -85 -87 -99 -100 -112 -113 -124 -125 -134 -136 -145 0
-20 -37 -39 -54 -55 -85 -87 -99 -100 -112 -113 -124 -125 -134 -136 -145 0
-20 -38 -39 -54 -56 -85 -87 -99 -100 -112 -113 -124 -125 -134 -136 -145 0
-20 -38 -39 -55 -56 -85 -88 -99 -100 -112 -113 -124 -125 -134 -136 -145 0
-19 -37 -38 -54 -55 -86 -87 -99 -101 -112 -113 -124 -125 -134 -136 -145 0
-20 -37 -39 -54 -55 -86 -87 -99 -101 -112 -113 -124 -125 -134 -136 -145 0
-20 -38 -39 -54 -56 -86 -87 -99 -101 -112 -113 -124 -125 -134 -136 -145 0
-20 -38 -39 -55 -56 -86 -88 -99 -101 -112 -113 -124 -125 -134 -136 -145 0
-20 -38 -39 -55 -56 -87 -88 -99 -102 -112 -113 -124 -125 -134 -136 -145 0
-19 -37 -38 -54 -55 -86 -87 -100 -101 -112 -114 -124 -125 -134 -136 -145 0
-20 -37 -39 -54 -55 -86 -87 -100 -101 -112 -114 -124 -125 -134 -136 -145 0
-20 -38 -39 -54 -56 -86 -87 -100 -101 -112 -114 -124 -125 -134 -136 -145 0
-20 -38 -39 -55 -56 -86 -88 -100 -101 -112 -114 -124 -125 -134 -136 -145 0
-20 -38 -39 -55 -56 -87 -88 -100 -102 -112 -114 -124 -125 -134 -136 -145 0
-20 -38 -39 -55 -56 -87 -88 -101 -102 -112 -115 -124 -125 -134 -136 -145 0
-19 -37 -38 -54 -55 -86 -87 -100 -101 -113 -114 -124 -126 -134 -136 -145 0
-20 -37 -39 -54 -55 -86 -87 -100 -101 -113 -114 -124 -126 -134 -136 -145 0
-20 -38 -39 -54 -56 -86 -87 -100 -101 -113 -114 -124 -126 -134 -136 -145 0
-20 -38 -39 -55 -56 -86 -88 -100 -101 -113 -114 -124 -126 -134 -136 -145 0
-20 -38 -39 -55 -56 -87 -88 -100 -102 -113 -114 -124 -126 -134 -136 -145 0
-20 -38 -39 -55 -56 -87 -88 -101 -102 -113 -115 -124 -126 -134 -136 -145 0
-20 -38 -39 -55 -56 -87 -88 -101 -102 -114 -115 -124 -127 -134 -136 -145 0
-19 -37 -38 -54 -55 -86 -87 -100 -101 -113 -114 -125 -126 -134 -137 -145 0
-20 -37 -39 -54 -55 -86 -87 -100 -101 -113 -114 -125 -126 -134 -137 -145 0
-20 -38 -39 -54 -56 -86 -87 -100 -101 -113 -114 -125 -126 -134 -137 -145 0
-20 -38 -39 -55 -56 -86 -88 -100 -101 -113 -114 -125 -126 -134 -137 -145 0
-20 -38 -39 -55 -56 -87 -88 -100 -102 -113 -114 -125 -126 -134 -137 -145 0
-20 -38 -39 -55 -56 -87 -88 -101 -102 -113 -115 -125 -126 -134 -137 -145 0
-20 -38 -39 -55 -56 -87 -88 -101 -102 -114 -115 -125 -127 -134 -137 -145 0
-20 -38 -39 -55 -56 -87 -88 -101 -102 -114 -115 -126 -127 -134 -138 -145 0
-18 -36 -37 -53 -54 -85 -86 -99 -100 -112 -113 -124 -125 -135 -136 -146 0
-19 -36 -38 -53 -54 -85 -86 -99 -100 -112 -113 -124 -125 -135 -136 -146 0
-20 -36 -39 -53 -54 -85 -86 -99 -100 -112 -113 -124 -125 -135 -136 -146 0
-19 -37 -38 -53 -55 -85 -86 -99 -100 -112 -113 -124 -125 -135 -136 -146 0
-20 -37 -39 -53 -55 -85 -86 -99 -100 -112 -113 -124 -125 -135 -136 -146 0
-20 -38 -39 -53 -56 -85 -86 -99 -100 -112 -113 -124 -125 -135 -136 -146 0
-19 -37 -38 -54 -55 -85 -87 -99 -100 -112 -113 -124 -125 -135 -136 -146 0
-20 -37 -39 -54 -55 -85 -87 -99 -100 -112 -113 -124 -125 -135 -136 -146 0
-20 -38 -39 -54 -56 -85 -87 -99 -100 -112 -113 -124 -125 -135 -136 -146 0
-20 -38 -39 -55 -56 -85 -88 -99 -100 -112 -113 -124 -125 -135 -136 -146 0
-19 -37 -38 -54 -55 -86 -87 -99 -101 -112 -113 -124 -125 -135 -136 -146 0
-20 -37 -39 -54 -55 -86 -87 -99 -101 -112 -113 -124 -125 -135 -136 -146 0
-20 -38 -39 -54 -56 -86 -87 -99 -101 -112 -113 -124 -125 -135 -136 -146 0
-20 -38 -39 -55 -56 -86 -88 -99 -101 -112 -113 -124 -125 -135 -136 -146 0
-20 -38 -39 -55 -56 -87 -88 -99 -102 -112 -113 -124 -125 -135 -136 -146 0
-19 -37 -38 -54 -55 -86 -87 -100 -101 -112 -114 -124 -125 -135 -136 -146 0
-20 -37 -39 -54 -55 -86 -87 -100 -101 -112 -114 -124 -125 -135 -136 -146 0
-20 -38 -39 -54 -56 -86 -87 -100 -101 -112 -114 -124 -125 -135 -136 -146 0
-20 -38 -39 -55 -56 -86 -88 -100 -101 -112 -114 -124 -125 -135 -136 -146 0
-20 -38 -39 -55 -56 -87 -88 -100 -102 -112 -114 -124 -125 -135 -136 -146 0
-20 -38 -39 -55 -56 -87 -88 -101 -102 -112 -115 -124 -125 -135 -136 -146 0
-19 -37 -38 -54 -55 -86 -87 -100 -101 -113 -114 -124 -126 -135 -136 -146 0
-20 -37 -39 -54 -55 -86 -87 -100 -101 -113 -114 -124 -126 -135 -136 -146 0
-20 -38 -39 -54 -56 -86 -87 -100 -101 -113 -114 -124 -126 -135 -136 -146 0
-20 -38 -39 -55 -56 -86 -88 -100 -101 -113 -114 -124 -126 -135 -136 -146 0
-20 -38 -39 -55 -56 -87 -88 -100 -102 -113 -114 -124 -126 -135 -136 -146 0
-20 -38 -39 -55 -56 -87 -88 -101 -102 -113 -115 -124 -126 -135 -136 -146 0
-20 -38 -39 -55 -56 -87 -88 -101 -102 -114 -115 -124 -127 -135 -136 -146 0
-19 -37 -38 -54 -55 -86 -87 -100 -101 -113 -114 -125 -126 -135 -137 -146 0
-20 -37 -39 -54 -55 -86 -87 -100 -101 -113 -114 -125 -126 -135 -137 -146 0
-20 -38 -39 -54 -56 -86 -87 -100 -101 -113 -114 -125 -126 -135 -137 -146 0
-20 -38 -39 -55 -56 -86 -88 -100 -101 -113 -114 -125 -126 -135 -137 -146 0
-20 -38 -39 -55 -56 -87 -88 -100 -102 -113 -114 -125 -126 -135 -137 -146 0
-20 -38 -39 -55 -56 -87 -88 -101 -102 -113 -115 -125 -126 -135 -137 -146 0
-20 -38 -39 -55 -56 -87 -88 -101 -102 -114 -115 -125 -127 -135 -137 -146 0
-20 -38 -39 -55 -56 -87 -88 -101 -102 -114 -115 -126 -127 -135 -138 -146 0
-19 -37 -38 -54 -55 -86 -87 -100 -101 -113 -114 -125 -126 -136 -137 -147 0
-20 -37 -39 -54 -55 -86 -87 -100 -101 -113 -114 -125 -126 -136 -137 -147 0
-20 -38 -39 -54 -56 -86 -87 -100 -101 -113 -114 -125 -126 -136 -137 -147 0
-20 -38 -39 -55 -56 -86 -88 -100 -101 -113 -114 -125 -126 -136 -137 -147 0
-20 -38 -39 -55 -56 -87 -88 -100 -102 -113 -114 -125 -126 -136 -137 -147 0
-20 -38 -39 -55 -56 -87 -88 -101 -102 -113 -115 -125 -126 -136 -137 -147 0
-20 -38 -39 -55 -56 -87 -88 -101 -102 -114 -115 -125 -127 -136 -137 -147 0
-20 -38 -39 -55 -56 -87 -88 -101 -102 -114 -115 -126 -127 -136 -138 -147 0
-20 -38 -39 -55 -56 -87 -88 -101 -102 -114 -115 -126 -127 -137 -138 -148 0
-18 -36 -37 -53 -54 -85 -86 -99 -100 -112 -113 -124 -125 -135 -136 -156 0
-19 -36 -38 -53 -54 -85 -86 -99 -100 -112 -113 -124 -125 -135 -136 -156 0
-20 -36 -39 -53 -54 -85 -86 -99 -100 -112 -113 -124 -125 -135 -136 -156 0
-19 -37 -38 -53 -55 -85 -86 -99 -100 -112 -113 -124 -125 -135 -136 -156 0
-20 -37 -39 -53 -55 -85 -86 -99 -100 -112 -113 -124 -125 -135 -136 -156 0
-20 -38 -39 -53 -56 -85 -86 -99 -100 -112 -113 -124 -125 -135 -136 -156 0
-19 -37 -38 -54 -55 -85 -87 -99 -100 -112 -113 -124 -125 -135 -136 -156 0
-20 -37 -39 -54 -55 -85 -87 -99 -100 -112 -113 -124 -125 -135 -136 -156 0
-20 -38 -39 -54 -56 -85 -87 -99 -100 -112 -113 -124 -125 -135 -136 -156 0
-20 -38 -39 -55 -56 -85 -88 -99 -100 -112 -113 -124 -125 -135 -136 -156 0
-19 -37 -38 -54 -55 -86 -87 -99 -101 -112 -113 -124 -125 -135 -136 -156 0
-20 -37 -39 -54 -55 -86 -87 -99 -101 -112 -113 -124 -125 -135 -136 -156 0
-20 -38 -39 -54 -56 -86 -87 -99 -101 -112 -113 -124 -125 -135 -136 -156 0
-20 -38 -39 -55 -56 -86 -88 -99 -101 -112 -113 -124 -125 -135 -136 -156 0
-20 -38 -39 -55 -56 -87 -88 -99 -102 -112 -113 -124 -125 -135 -136 -156 0
-19 -37 -38 -54 -55 -86 -87 -100 -101 -112 -114 -124 -125 -135 -136 -156 0
-20 -37 -39 -54 -55 -86 -87 -100 -101 -112 -114 -124 -125 -135 -136 -156 0
-20 -38 -39 -54 -56 -86 -87 -100 -101 -112 -114 -124 -125 -135 -136 -156 0
-20 -38 -39 -55 -56 -86 -88 -100 -101 -112 -114 -124 -125 -135 -136 -156 0
-20 -38 -39 -55 -56 -87 -88 -100 -102 -112 -114 -124 -125 -135 -136 -156 0
-20 -38 -39 -55 -56 -87 -88 -101 -102 -112 -115 -124 -125 -135 -136 -156 0
-19 -37 -38 -54 -55 -86 -87 -100 -101 -113 -114 -124 -126 -135 -136 -156 0
-20 -37 -39 -54 -55 -86 -87 -100 -101 -113 -114 -124 -126 -135 -136 -156 0
-20 -38 -39 -54 -56 -86 -87 -100 -101 -113 -114 -124 -126 -135 -136 -156 0
-20 -38 -39 -55 -56 -86 -88 -100 -101 -113 -114 -124 -126 -135 -136 -156 0
-20 -38 -39 -55 -56 -87 -88 -100 -102 -113 -114 -124 -126 -135 -136 -156 0
-20 -38 -39 -55 -56 -87 -88 -101 -102 -113 -115 -124 -126 -135 -136 -156 0
-20 -38 -39 -55 -56 -87 -88 -101 -102 -114 -115 -124 -127 -135 -136 -156 0
-19 -37 -38 -54 -55 -86 -87 -100 -101 -113 -114 -125 -126 -135 -137 -156 0
-20 -37 -39 -54 -55 -86 -87 -100 -101 -113 -114 -125 -126 -135 -137 -156 0
-20 -38 -39 -54 -56 -86 -87 -100 -101 -113 -114 -125 -126 -135 -137 -156 0
-20 -38 -39 -55 -56 -86 -88 -100 -101 -113 -114 -125 -126 -135 -137 -156 0
-20 -38 -39 -55 -56 -87 -88 -100 -102 -113 -114 -125 -126 -135 -137 -156 0
-20 -38 -39 -55 -56 -87 -88 -101 -102 -113 -115 -125 -126 -135 -137 -156 0
-20 -38 -39 -55 -56 -87 -88 -101 -102 -114 -115 -125 -127 -135 -137 -156 0
-20 -38 -39 -55 -56 -87 -88 -101 -102 -114 -115 -126 -127 -135 -138 -156 0
-19 -37 -38 -54 -55 -86 -87 -100 -101 -113 -114 -125 -126 -136 -137 -157 0
-20 -37 -39 -54 -55 -86 -87 -100 -101 -113 -114 -125 -126 -136 -137 -157 0
-20 -38 -39 -54 -56 -86 -87 -100 -101 -113 -114 -125 -126 -136 -137 -157 0
-20 -38 -39 -55 -56 -86 -88 -100 -101 -113 -114 -125 -126 -136 -137 -157 0
-20 -38 -39 -55 -56 -87 -88 -100 -102 -113 -114 -125 -126 -136 -137 -157 0
-20 -38 -39 -55 -56 -87 -88 -101 -102 -113 -115 -125 -126 -136 -137 -157 0
-20 -38 -39 -55 -56 -87 -88 -101 -102 -114 -115 -125 -127 -136 -137 -157 0
-20 -38 -39 -55 -56 -87 -88 -101 -102 -114 -115 -126 -127 -136 -138 -157 0
-20 -38 -39 -55 -56 -87 -88 -101 -102 -114 -115 -126 -127 -137 -138 -158 0
-19 -37 -38 -54 -55 -86 -87 -100 -101 -113 -114 -125 -126 -136 -137 -166 0
-20 -37 -39 -54 -55 -86 -87 -100 -101 -113 -114 -125 -126 -136 -137 -166 0
-20 -38 -39 -54 -56 -86 -87 -100 -101 -113 -114 -125 -126 -136 -137 -166 0
-20 -38 -39 -55 -56 -86 -88 -100 -101 -113 -114 -125 -126 -136 -137 -166 0
-20 -38 -39 -55 -56 -87 -88 -100 -102 -113 -114 -125 -126 -136 -137 -166 0
-20 -38 -39 -55 -56 -87 -88 -101 -102 -113 -115 -125 -126 -136 -137 -166 0
-20 -38 -39 -55 -56 -87 -88 -101 -102 -114 -115 -125 -127 -136 -137 -166 0
-20 -38 -39 -55 -56 -87 -88 -101 -102 -114 -115 -126 -127 -136 -138 -166 0
-20 -38 -39 -55 -56 -87 -88 -101 -102 -114 -115 -126 -127 -137 -138 -167 0
-20 -38 -39 -55 -56 -87 -88 -101 -102 -114 -115 -126 -127 -137 -138 -175 0
-18 -36 -37 -53 -54 -85 -86 -99 -100 -112 -113 -124 -125 -146 -147 -156 0
-19 -36 -38 -53 -54 -85 -86 -99 -100 -112 -113 -124 -125 -146 -147 -156 0
-20 -36 -39 -53 -54 -85 -86 -99 -100 -112 -113 -124 -125 -146 -147 -156 0
-19 -37 -38 -53 -55 -85 -86 -99 -100 -112 -113 -124 -125 -146 -147 -156 0
-20 -37 -39 -53 -55 -85 -86 -99 -100 -112 -113 -124 -125 -146 -147 -156 0
-20 -38 -39 -53 -56 -85 -86 -99 -100 -112 -113 -124 -125 -146 -147 -156 0
-19 -37 -38 -54 -55 -85 -87 -99 -100 -112 -113 -124 -125 -146 -147 -156 0
-20 -37 -39 -54 -55 -85 -87 -99 -100 -112 -113 -124 -125 -146 -147 -156 0
-20 -38 -39 -54 -56 -85 -87 -99 -100 -112 -113 -124 -125 -146 -147 -156 0
-20 -38 -39 -55 -56 -85 -88 -99 -100 -112 -113 -124 -125 -146 -147 -156 0
-19 -37 -38 -54 -55 -86 -87 -99 -101 -112 -113 -124 -125 -146 -147 -156 0
-20 -37 -39 -54 -55 -86 -87 -99 -101 -112 -113 -124 -125 -146 -147 -156 0
-20 -38 -39 -54 -56 -86 -87 -99 -101 -112 -113 -124 -125 -146 -147 -156 0
-20 -38 -39 -55 -56 -86 -88 -99 -101 -112 -113 -124 -125 -146 -147 -156 0
-20 -38 -39 -55 -56 -87 -88 -99 -102 -112 -113 -124 -125 -146 -147 -156 0
-19 -37 -38 -54 -55 -86 -87 -100 -101 -112 -114 -124 -125 -146 -147 -156 0
-20 -37 -39 -54 -55 -86 -87 -100 -101 -112 -114 -124 -125 -146 -147 -156 0
-20 -38 -39 -54 -56 -86 -87 -100 -101 -112 -114 -124 -125 -146 -147 -156 0
-20 -38 -39 -55 -56 -86 -88 -100 -101 -112 -114 -124 -125 -146 -147 -156 0
-20 -38 -39 -55 -56 -87 -88 -100 -102 -112 -114 -124 -125 -146 -147 -156 0
-20 -38 -39 -55 -56 -87 -88 -101 -102 -112 -115 -124 -125 -146 -147 -156 0
-19 -37 -38 -54 -55 -86 -87 -100 -101 -113 -114 -124 -126 -146 -147 -156 0
-20 -37 -39 -54 -55 -86 -87 -100 -101 -113 -114 -124 -126 -146 -147 -156 0
-20 -38 -39 -54 -56 -86 -87 -100 -101 -113 -114 -124 -126 -146 -147 -156 0
-20 -38 -39 -55 -56 -86 -88 -100 -101 -113 -114 -124 -126 -146 -147 -156 0
-20 -38 -39 -55 -56 -87 -88 -100 -102 -113 -114 -124 -126 -146 -147 -156 0
-20 -38 -39 -55 -56 -87 -88 -101 -102 -113 -115 -124 -126 -146 -147 -156 0
-20 -38 -39 -55 -56 -87 -88 -101 -102 -114 -115 -124 -127 -146 -147 -156 0
-19 -37 -38 -54 -55 -86 -87 -100 -101 -113 -114 -125 -126 -146 -148 -156 0
-20 -37 -39 -54 -55 -86 -87 -100 -101 -113 -114 -125 -126 -146 -148 -156 0
-20 -38 -39 -54 -56 -86 -87 -100 -101 -113 -114 -125 -126 -146 -148 -156 0
-20 -38 -39 -55 -56 -86 -88 -100 -101 -113 -114 -125 -126 -146 -148 -156 0
-20 -38 -39 -55 -56 -87 -88 -100 -102 -113 -114 -125 -126 -146 -148 -156 0
-20 -38 -39 -55 -56 -87 -88 -101 -102 -113 -115 -125 -126 -146 -148 -156 0
-20 -38 -39 -55 -56 -87 -88 -101 -102 -114 -115 -125 -127 -146 -148 -156 0
-20 -38 -39 -55 -56 -87 -88 -101 -102 -114 -115 -126 -127 -146 -149 -156 0
-19 -37 -38 -54 -55 -86 -87 -100 -101 -113 -114 -125 -126 -147 -148 -157 0
-20 -37 -39 -54 -55 -86 -87 -100 -101 -113 -114 -125 -126 -147 -148 -157 0
-20 -38 -39 -54 -56 -86 -87 -100 -101 -113 -114 -125 -126 -147 -148 -157 0
-20 -38 -39 -55 -56 -86 -88 -100 -101 -113 -114 -125 -126 -147 -148 -157 0
-20 -38 -39 -55 -56 -87 -88 -100 -102 -113 -114 -125 -126 -147 -148 -157 0
-20 -38 -39 -55 -56 -87 -88 -101 -102 -113 -115 -125 -126 -147 -148 -157 0
-20 -38 -39 -55 -56 -87 -88 -101 -102 -114 -115 -125 -127 -147 -148 -157 0
-20 -38 -39 -55 -56 -87 -88 -101 -102 -114 -115 -126 -127 -147 -149 -157 0
-20 -38 -39 -55 -56 -87 -88 -101 -102 -114 -115 -126 -127 -148 -149 -158 0
-19 -37 -38 -54 -55 -86 -87 -100 -101 -113 -114 -125 -126 -147 -148 -166 0
-20 -37 -39 -54 -55 -86 -87 -100 -101 -113 -114 -125 -126 -147 -148 -166 0
-20 -38 -39 -54 -56 -86 -87 -100 -101 -113 -114 -125 -126 -147 -148 -166 0
-20 -38 -39 -55 -56 -86 -88 -100 -101 -113 -114 -125 -126 -147 -148 -166 0
-20 -38 -39 -55 -56 -87 -88 -100 -102 -113 -114 -125 -126 -147 -148 -166 0
-20 -38 -39 -55 -56 -87 -88 -101 -102 -113 -115 -125 -126 -147 -148 -166 0
-20 -38 -39 -55 -56 -87 -88 -101 -102 -114 -115 -125 -127 -147 -148 -166 0
-20 -38 -39 -55 -56 -87 -88 -101 -102 -114 -115 -126 -127 -147 -149 -166 0
-20 -38 -39 -55 -56 -87 -88 -101 -102 -114 -115 -126 -127 -148 -149 -167 0
-20 -38 -39 -55 -56 -87 -88 -101 -102 -114 -115 -126 -127 -148 -149 -175 0
-19 -37 -38 -54 -55 -86 -87 -100 -101 -113 -114 -125 -126 -157 -158 -166 0
-20 -37 -39 -54 -55 -86 -87 -100 -101 -113 -114 -125 -126 -157 -158 -166 0
-20 -38 -39 -54 -56 -86 -87 -100 -101 -113 -114 -125 -126 -157 -158 -166 0
-20 -38 -39 -55 -56 -86 -88 -100 -101 -113 -114 -125 -126 -157 -158 -166 0
-20 -38 -39 -55 -56 -87 -88 -100 -102 -113 -114 -125 -126 -157 -158 -166 0
-20 -38 -39 -55 -56 -87 -88 -101 -102 -113 -115 -125 -126 -157 -158 -166 0
-20 -38 -39 -55 -56 -87 -88 -101 -102 -114 -115 -125 -127 -157 -158 -166 0
-20 -38 -39 -55 -56 -87 -88 -101 -102 -114 -115 -126 -127 -157 -159 -166 0
-20 -38 -39 -55 -56 -87 -88 -101 -102 -114 -115 -126 -127 -158 -159 -167 0
-20 -38 -39 -55 -56 -87 -88 -101 -102 -114 -115 -126 -127 -158 -159 -175 0
-20 -38 -39 -55 -56 -87 -88 -101 -102 -114 -115 -126 -127 -167 -168 -175 0
-18 -36 -37 -53 -54 -85 -86 -99 -100 -112 -113 -136 -137 -146 -147 -156 0
-19 -36 -38 -53 -54 -85 -86 -99 -100 -112 -113 -136 -137 -146 -147 -156 0
-20 -36 -39 -53 -54 -85 -86 -99 -100 -112 -113 -136 -137 -146 -147 -156 0
-19 -37 -38 -53 -55 -85 -86 -99 -100 -112 -113 -136 -137 -146 -147 -156 0
-20 -37 -39 -53 -55 -85 -86 -99 -100 -112 -113 -136 -137 -146 -147 -156 0
-20 -38 -39 -53 -56 -85 -86 -99 -100 -112 -113 -136 -137 -146 -147 -156 0
-19 -37 -38 -54 -55 -85 -87 -99 -100 -112 -113 -136 -137 -146 -147 -156 0
-20 -37 -39 -54 -55 -85 -87 -99 -100 -112 -113 -136 -137 -146 -147 -156 0
-20 -38 -39 -54 -56 -85 -87 -99 -100 -112 -113 -136 -137 -146 -147 -156 0
-20 -38 -39 -55 -56 -85 -88 -99 -100 -112 -113 -136 -137 -146 -147 -156 0
-19 -37 -38 -54 -55 -86 -87 -99 -101 -112 -113 -136 -137 -146 -147 -156 0
-20 -37 -39 -54 -55 -86 -87 -99 -101 -112 -113 -136 -137 -146 -147 -156 0
-20 -38 -39 -54 -56 -86 -87 -99 -101 -112 -113 -136 -137 -146 -147 -156 0
-20 -38 -39 -55 -56 -86 -88 -99 -101 -112 -113 -136 -137 -146 -147 -156 0
-20 -38 -39 -55 -56 -87 -88 -99 -102 -112 -113 -136 -137 -146 -147 -156 0
-19 -37 -38 -54 -55 -86 -87 -100 -101 -112 -114 -136 -137 -146 -147 -156 0
-20 -37 -39 -54 -55 -86 -87 -100 -101 -112 -114 -136 -137 -146 -147 -156 0
-20 -38 -39 -54 -56 -86 -87 -100 -101 -112 -114 -136 -137 -146 -147 -156 0
-20 -38 -39 -55 -56 -86 -88 -100 -101 -112 -114 -136 -137 -146 -147 -156 0
-20 -38 -39 -55 -56 -87 -88 -100 -102 -112 -114 -136 -137 -146 -147 -156 0
-20 -38 -39 -55 -56 -87 -88 -101 -102 -112 -115 -136 -137 -146 -147 -156 0
-19 -37 -38 -54 -55 -86 -87 -100 -101 -113 -114 -136 -138 -146 -147 -156 0
-20 -37 -39 -54 -55 -86 -87 -100 -101 -113 -114 -136 -138 -146 -147 -156 0
-20 -38 -39 -54 -56 -86 -87 -100 -101 -113 -114 -136 -138 -146 -147 -156 0
-20 -38 -39 -55 -56 -86 -88 -100 -101 -113 -114 -136 -138 -146 -147 -156 0
-20 -38 -39 -55 -56 -87 -88 -100 -102 -113 -114 -136 -138 -146 -147 -156 0
-20 -38 -39 -55 -56 -87 -88 -101 -102 -113 -115 -136 -138 -146 -147 -156 0
-20 -38 -39 -55 -56 -87 -88 -101 -102 -114 -115 -136 -139 -146 -147 -156 0
-19 -37 -38 -54 -55 -86 -87 -100 -101 -113 -114 -137 -138 -146 -148 -156 0
-20 -37 -39 -54 -55 -86 -87 -100 -101 -113 -114 -137 -138 -146 -148 -156 0
-20 -38 -39 -54 -56 -86 -87 -100 -101 -113 -114 -137 -138 -146 -148 -156 0
-20 -38 -39 -55 -56 -86 -88 -100 -101 -113 -114 -137 -138 -146 -148 -156 0
-20 -38 -39 -55 -56 -87 -88 -100 -102 -113 -114 -137 -138 -146 -148 -156 0
-20 -38 -39 -55 -56 -87 -88 -101 -102 -113 -115 -137 -138 -146 -148 -156 0
-20 -38 -39 -55 -56 -87 -88 -101 -102 -114 -115 -137 -139 -146 -148 -156 0
-20 -38 -39 -55 -56 -87 -88 -101 -102 -114 -115 -138 -139 -146 -149 -156 0
-19 -37 -38 -54 -55 -86 -87 -100 -101 -113 -114 -137 -138 -147 -148 -157 0
-20 -37 -39 -54 -55 -86 -87 -100 -101 -113 -114 -137 -138 -147 -148 -157 0
-20 -38 -39 -54 -56 -86 -87 -100 -101 -113 -114 -137 -138 -147 -148 -157 0
-20 -38 -39 -55 -56 -86 -88 -100 -101 -113 -114 -137 -138 -147 -148 -157 0
-20 -38 -39 -55 -56 -87 -88 -100 -102 -113 -114 -137 -138 -147 -148 -157 0
-20 -38 -39 -55 -56 -87 -88 -101 -102 -113 -115 -137 -138 -147 -148 -157 0
-20 -38 -39 -55 -56 -87 -88 -101 -102 -114 -115 -137 -139 -147 -148 -157 0
-20 -38 -39 -55 -56 -87 -88 -101 -102 -114 -115 -138 -139 -147 -149 -157 0
-20 -38 -39 -55 -56 -87 -88 -101 -102 -114 -115 -138 -139 -148 -149 -158 0
-19 -37 -38 -54 -55 -86 -87 -100 -101 -113 -114 -137 -138 -147 -148 -166 0
-20 -37 -39 -54 -55 -86 -87 -100 -101 -113 -114 -137 -138 -147 -148 -166 0
-20 -38 -39 -54 -56 -86 -87 -100 -101 -113 -114 -137 -138 -147 -148 -166 0
-20 -38 -39 -55 -56 -86 -88 -100 -101 -113 -114 -137 -138 -147 -148 -166 0
-20 -38 -39 -55 -56 -87 -88 -100 -102 -113 -114 -137 -138 -147 -148 -166 0
-20 -38 -39 -55 -56 -87 -88 -101 -102 -113 -115 -137 -138 -147 -148 -166 0
-20 -38 -39 -55 -56 -87 -88 -101 -102 -114 -115 -137 -139 -147 -148 -166 0
-20 -38 -39 -55 -56 -87 -88 -101 -102 -114 -115 -138 -139 -147 -149 -166 0
-20 -38 -39 -55 -56 -87 -88 -101 -102 -114 -115 -138 -139 -148 -149 -167 0
-20 -38 -39 -55 -56 -87 -88 -101 -102 -114 -115 -138 -139 -148 -149 -175 0
-19 -37 -38 -54 -55 -86 -87 -100 -101 -113 -114 -137 -138 -157 -158 -166 0
-20 -37 -39 -54 -55 -86 -87 -100 -101 -113 -114 -137 -138 -157 -158 -166 0
-20 -38 -39 -54 -56 -86 -87 -100 -101 -113 -114 -137 -138 -157 -158 -166 0
-20 -38 -39 -55 -56 -86 -88 -100 -101 -113 -114 -137 -138 -157 -158 -166 0
-20 -38 -39 -55 -56 -87 -88 -100 -102 -113 -114 -137 -138 -157 -158 -166 0
-20 -38 -39 -55 -56 -87 -88 -101 -102 -113 -115 -137 -138 -157 -158 -166 0
-20 -38 -39 -55 -56 -87 -88 -101 -102 -114 -115 -137 -139 -157 -158 -166 0
-20 -38 -39 -55 -56 -87 -88 -101 -102 -114 -115 -138 -139 -157 -159 -166 0
-20 -38 -39 -55 -56 -87 -88 -101 -102 -114 -115 -138 -139 -158 -159 -167 0
-20 -38 -39 -55 -56 -87 -88 -101 -102 -114 -115 -138 -139 -158 -159 -175 0
-20 -38 -39 -55 -56 -87 -88 -101 -102 -114 -115 -138 -139 -167 -168 -175 0
-19 -37 -38 -54 -55 -86 -87 -100 -101 -113 -114 -148 -149 -157 -158 -166 0
-20 -37 -39 -54 -55 -86 -87 -100 -101 -113 -114 -148 -149 -157 -158 -166 0
-20 -38 -39 -54 -56 -86 -87 -100 -101 -113 -114 -148 -149 -157 -158 -166 0
-20 -38 -39 -55 -56 -86 -88 -100 -101 -113 -114 -148 -149 -157 -158 -166 0
-20 -38 -39 -55 -56 -87 -88 -100 -102 -113 -114 -148 -149 -157 -158 -166 0
-20 -38 -39 -55 -56 -87 -88 -101 -102 -113 -115 -148 -149 -157 -158 -166 0
-20 -38 -39 -55 -56 -87 -88 -101 -102 -114 -115 -148 -150 -157 -158 -166 0
-20 -38 -39 -55 -56 -87 -88 -101 -102 -114 -115 -149 -150 -157 -159 -166 0
-20 -38 -39 -55 -56 -87 -88 -101 -102 -114 -115 -149 -150 -158 -159 -167 0
-20 -38 -39 -55 -56 -87 -88 -101 -102 -114 -115 -149 -150 -158 -159 -175 0
-20 -38 -39 -55 -56 -87 -88 -101 -102 -114 -115 -149 -150 -167 -168 -175 0
-20 -38 -39 -55 -56 -87 -88 -101 -102 -114 -115 -159 -160 -167 -168 -175 0
-18 -36 -37 -53 -54 -85 -86 -99 -100 -125 -126 -136 -137 -146 -147 -156 0
-19 -36 -38 -53 -54 -85 -86 -99 -100 -125 -126 -136 -137 -146 -147 -156 0
-20 -36 -39 -53 -54 -85 -86 -99 -100 -125 -126 -136 -137 -146 -147 -156 0
-19 -37 -38 -53 -55 -85 -86 -99 -100 -125 -126 -136 -137 -146 -147 -156 0
-20 -37 -39 -53 -55 -85 -86 -99 -100 -125 -126 -136 -137 -146 -147 -156 0
-20 -38 -39 -53 -56 -85 -86 -99 -100 -125 -126 -136 -137 -146 -147 -156 0
-19 -37 -38 -54 -55 -85 -87 -99 -100 -125 -126 -136 -137 -146 -147 -156 0
-20 -37 -39 -54 -55 -85 -87 -99 -100 -125 -126 -136 -137 -146 -147 -156 0
-20 -38 -39 -54 -56 -85 -87 -99 -100 -125 -126 -136 -137 -146 -147 -156 0
-20 -38 -39 -55 -56 -85 -88 -99 -100 -125 -126 -136 -137 -146 -147 -156 0
-19 -37 -38 -54 -55 -86 -87 -99 -101 -125 -126 -136 -137 -146 -147 -156 0
-20 -37 -39 -54 -55 -86 -87 -99 -101 -125 -126 -136 -137 -146 -147 -156 0
-20 -38 -39 -54 -56 -86 -87 -99 -101 -125 -126 -136 -137 -146 -147 -156 0
-20 -38 -39 -55 -56 -86 -88 -99 -101 -125 -126 -136 -137 -146 -147 -156 0
-20 -38 -39 -55 -56 -87 -88 -99 -102 -125 -126 -136 -137 -146 -147 -156 0
-19 -37 -38 -54 -55 -86 -87 -100 -101 -125 -127 -136 -137 -146 -147 -156 0
-20 -37 -39 -54 -55 -86 -87 -100 -101 -125 -127 -136 -137 -146 -147 -156 0
-20 -38 -39 -54 -56 -86 -87 -100 -101 -125 -127 -136 -137 -146 -147 -156 0
-20 -38 -39 -55 -56 -86 -88 -100 -101 -125 -127 -136 -137 -146 -147 -156 0
-20 -38 -39 -55 -56 -87 -88 -100 -102 -125 -127 -136 -137 -146 -147 -156 0
-20 -38 -39 -55 -56 -87 -88 -101 -102 -125 -128 -136 -137 -146 -147 -156 0
-19 -37 -38 -54 -55 -86 -87 -100 -101 -126 -127 -136 -138 -146 -147 -156 0
-20 -37 -39 -54 -55 -86 -87 -100 -101 -126 -127 -136 -138 -146 -147 -156 0
-20 -38 -39 -54 -56 -86 -87 -100 -101 -126 -127 -136 -138 -146 -147 -156 0
-20 -38 -39 -55 -56 -86 -88 -100 -101 -126 -127 -136 -138 -146 -147 -156 0
-20 -38 -39 -55 -56 -87 -88 -100 -102 -126 -127 -136 -138 -146 -147 -156 0
-20 -38 -39 -55 -56 -87 -88 -101 -102 -126 -128 -136 -138 -146 -147 -156 0
-20 -38 -39 -55 -56 -87 -88 -101 -102 -127 -128 -136 -139 -146 -147 -156 0
-19 -37 -38 -54 -55 -86 -87 -100 -101 -126 -127 -137 -138 -146 -148 -156 0
-20 -37 -39 -54 -55 -86 -87 -100 -101 -126 -127 -137 -138 -146 -148 -156 0
-20 -38 -39 -54 -56 -86 -87 -100 -101 -126 -127 -137 -138 -146 -148 -156 0
-20 -38 -39 -55 -56 -86 -88 -100 -101 -126 -127 -137 -138 -146 -148 -156 0
-20 -38 -39 -55 -56 -87 -88 -100 -102 -126 -127 -137 -138 -146 -148 -156 0
-20 -38 -39 -55 -56 -87 -88 -101 -102 -126 -128 -137 -138 -146 -148 -156 0
-20 -38 -39 -55 -56 -87 -88 -101 -102 -127 -128 -137 -139 -146 -148 -156 0
-20 -38 -39 -55 -56 -87 -88 -101 -102 -127 -128 -138 -139 -146 -149 -156 0
-19 -37 -38 -54 -55 -86 -87 -100 -101 -126 -127 -137 -138 -147 -148 -157 0
-20 -37 -39 -54 -55 -86 -87 -100 -101 -126 -127 -137 -138 -147 -148 -157 0
-20 -38 -39 -54 -56 -86 -87 -100 -101 -126 -127 -137 -138 -147 -148 -157 0
-20 -38 -39 -55 -56 -86 -88 -100 -101 -126 -127 -137 -138 -147 -148 -157 0
-20 -38 -39 -55 -56 -87 -88 -100 -102 -126 -127 -137 -138 -147 -148 -157 0
-20 -38 -39 -55 -56 -87 -88 -101 -102 -126 -128 -137 -138 -147 -148 -157 0
-20 -38 -39 -55 -56 -87 -88 -101 -102 -127 -128 -137 -139 -147 -148 -157 0
-20 -38 -39 -55 -56 -87 -88 -101 -102 -127 -128 -138 -139 -147 -149 -157 0
-20 -38 -39 -55 -56 -87 -88 -101 -102 -127 -128 -138 -139 -148 -149 -158 0
-19 -37 -38 -54 -55 -86 -87 -100 -101 -126 -127 -137 -138 -147 -148 -166 0
-20 -37 -39 -54 -55 -86 -87 -100 -101 -126 -127 -137 -138 -147 -148 -166 0
-20 -38 -39 -54 -56 -86 -87 -100 -101 -126 -127 -137 -138 -147 -148 -166 0
-20 -38 -39 -55 -56 -86 -88 -100 -101 -126 -127 -137 -138 -147 -148 -166 0
-20 -38 -39 -55 -56 -87 -88 -100 -102 -126 -127 -137 -138 -147 -148 -166 0
-20 -38 -39 -55 -56 -87 -88 -101 -102 -126 -128 -137 -138 -147 -148 -166 0
-20 -38 -39 -55 -56 -87 -88 -101 -102 -127 -128 -137 -139 -147 -148 -166 0
-20 -38 -39 -55 -56 -87 -88 -101 -102 -127 -128 -138 -139 -147 -149 -166 0
-20 -38 -39 -55 -56 -87 -88 -101 -102 -127 -128 -138 -139 -148 -149 -167 0
-20 -38 -39 -55 -56 -87 -88 -101 -102 -127 -128 -138 -139 -148 -149 -175 0
-19 -37 -38 -54 -55 -86 -87 -100 -101 -126 -127 -137 -138 -157 -158 -166 0
-20 -37 -39 -54 -55 -86 -87 -100 -101 -126 -127 -137 -138 -157 -158 -166 0
-20 -38 -39 -54 -56 -86 -87 -100 -101 -126 -127 -137 -138 -157 -158 -166 0
-20 -38 -39 -55 -56 -86 -88 -100 -101 -126 -127 -137 -138 -157 -158 -166 0
-20 -38 -39 -55 -56 -87 -88 -100 -102 -126 -127 -137 -138 -157 -158 -166 0
-20 -38 -39 -55 -56 -87 -88 -101 -102 -126 -128 -137 -138 -157 -158 -166 0
-20 -38 -39 -55 -56 -87 -88 -101 -102 -127 -128 -137 -139 -157 -158 -166 0
-20 -38 -39 -55 -56 -87 -88 -101 -102 -127 -128 -138 -139 -157 -159 -166 0
-20 -38 -39 -55 -56 -87 -88 -101 -102 -127 -128 -138 -139 -158 -159 -167 0
-20 -38 -39 -55 -56 -87 -88 -101 -102 -127 -128 -138 -139 -158 -159 -175 0
-20 -38 -39 -55 -56 -87 -88 -101 -102 -127 -128 -138 -139 -167 -168 -175 0
-19 -37 -38 -54 -55 -86 -87 -100 -101 -126 -127 -148 -149 -157 -158 -166 0
-20 -37 -39 -54 -55 -86 -87 -100 -101 -126 -127 -148 -149 -157 -158 -166 0
-20 -38 -39 -54 -56 -86 -87 -100 -101 -126 -127 -148 -149 -157 -158 -166 0
-20 -38 -39 -55 -56 -86 -88 -100 -101 -126 -127 -148 -149 -157 -158 -166 0
-20 -38 -39 -55 -56 -87 -88 -100 -102 -126 -127 -148 -149 -157 -158 -166 0
-20 -38 -39 -55 -56 -87 -88 -101 -102 -126 -128 -148 -149 -157 -158 -166 0
-20 -38 -39 -55 -56 -87 -88 -101 -102 -127 -128 -148 -150 -157 -158 -166 0
-20 -38 -39 -55 -56 -87 -88 -101 -102 -127 -128 -149 -150 -157 -159 -166 0
-20 -38 -39 -55 -56 -87 -88 -101 -102 -127 -128 -149 -150 -158 -159 -167 0
-20 -38 -39 -55 -56 -87 -88 -101 -102 -127 -128 -149 -150 -158 -159 -175 0
-20 -38 -39 -55 -56 -87 -88 -101 -102 -127 -128 -149 -150 -167 -168 -175 0
-20 -38 -39 -55 -56 -87 -88 -101 -102 -127 -128 -159 -160 -167 -168 -175 0
-19 -37 -38 -54 -55 -86 -87 -100 -101 -138 -139 -148 -149 -157 -158 -166 0
-20 -37 -39 -54 -55 -86 -87 -100 -101 -138 -139 -148 -149 -157 -158 -166 0
-20 -38 -39 -54 -56 -86 -87 -100 -101 -138 -139 -148 -149 -157 -158 -166 0
-20 -38 -39 -55 -56 -86 -88 -100 -101 -138 -139 -148 -149 -157 -158 -166 0
-20 -38 -39 -55 -56 -87 -88 -100 -102 -138 -139 -148 -149 -157 -158 -166 0
-20 -38 -39 -55 -56 -87 -88 -101 -102 -138 -140 -148 -149 -157 -158 -166 0
-20 -38 -39 -55 -56 -87 -88 -101 -102 -139 -140 -148 -150 -157 -158 -166 0
-20 -38 -39 -55 -56 -87 -88 -101 -102 -139 -140 -149 -150 -157 -159 -166 0
-20 -38 -39 -55 -56 -87 -88 -101 -102 -139 -140 -149 -150 -158 -159 -167 0
-20 -38 -39 -55 -56 -87 -88 -101 -102 -139 -140 -149 -150 -158 -159 -175 0
-20 -38 -39 -55 -56 -87 -88 -101 -102 -139 -140 -149 -150 -167 -168 -175 0
-20 -38 -39 -55 -56 -87 -88 -101 -102 -139 -140 -159 -160 -167 -168 -175 0
-20 -38 -39 -55 -56 -87 -88 -101 -102 -150 -151 -159 -160 -167 -168 -175 0
-18 -36 -37 -53 -54 -85 -86 -113 -114 -125 -126 -136 -137 -146 -147 -156 0
-19 -36 -38 -53 -54 -85 -86 -113 -114 -125 -126 -136 -137 -146 -147 -156 0
-20 -36 -39 -53 -54 -85 -86 -113 -114 -125 -126 -136 -137 -146 -147 -156 0
-19 -37 -38 -53 -55 -85 -86 -113 -114 -125 -126 -136 -137 -146 -147 -156 0
-20 -37 -39 -53 -55 -85 -86 -113 -114 -125 -126 -136 -137 -146 -147 -156 0
-20 -38 -39 -53 -56 -85 -86 -113 -114 -125 -126 -136 -137 -146 -147 -156 0
-19 -37 -38 -54 -55 -85 -87 -113 -114 -125 -126 -136 -137 -146 -147 -156 0
-20 -37 -39 -54 -55 -85 -87 -113 -114 -125 -126 -136 -137 -146 -147 -156 0
-20 -38 -39 -54 -56 -85 -87 -113 -114 -125 -126 -136 -137 -146 -147 -156 0
-20 -38 -39 -55 -56 -85 -88 -113 -114 -125 -126 -136 -137 -146 -147 -156 0
-19 -37 -38 -54 -55 -86 -87 -113 -115 -125 -126 -136 -137 -146 -147 -156 0
-20 -37 -39 -54 -55 -86 -87 -113 -115 -125 -126 -136 -137 -146 -147 -156 0
-20 -38 -39 -54 -56 -86 -87 -113 -115 -125 -126 -136 -137 -146 -147 -156 0
-20 -38 -39 -55 -56 -86 -88 -113 -115 -125 -126 -136 -137 -146 -147 -156 0
-20 -38 -39 -55 -56 -87 -88 -113 -116 -125 -126 -136 -137 -146 -147 -156 0
-19 -37 -38 -54 -55 -86 -87 -114 -115 -125 -127 -136 -137 -146 -147 -156 0
-20 -37 -39 -54 -55 -86 -87 -114 -115 -125 -127 -136 -137 -146 -147 -156 0
-20 -38 -39 -54 -56 -86 -87 -114 -115 -125 -127 -136 -137 -146 -147 -156 0
-20 -38 -39 -55 -56 -86 -88 -114 -115 -125 -127 -136 -137 -146 -147 -156 0
-20 -38 -39 -55 -56 -87 -88 -114 -116 -125 -127 -136 -137 -146 -147 -156 0
-20 -38 -39 -55 -56 -87 -88 -115 -116 -125 -128 -136 -137 -146 -147 -156 0
-19 -37 -38 -54 -55 -86 -87 -114 -115 -126 -127 -136 -138 -146 -147 -156 0
-20 -37 -39 -54 -55 -86 -87 -114 -115 -126 -127 -136 -138 -146 -147 -156 0
-20 -38 -39 -54 -56 -86 -87 -114 -115 -126 -127 -136 -138 -146 -147 -156 0
-20 -38 -39 -55 -56 -86 -88 -114 -115 -126 -127 -136 -138 -146 -147 -156 0
-20 -38 -39 -55 -56 -87 -88 -114 -116 -126 -127 -136 -138 -146 -147 -156 0
-20 -38 -39 -55 -56 -87 -88 -115 -116 -126 -128 -136 -138 -146 -147 -156 0
-20 -38 -39 -55 -56 -87 -88 -115 -116 -127 -128 -136 -139 -146 -147 -156 0
-19 -37 -38 -54 -55 -86 -87 -114 -115 -126 -127 -137 -138 -146 -148 -156 0
-20 -37 -39 -54 -55 -86 -87 -114 -115 -126 -127 -137 -138 -146 -148 -156 0
-20 -38 -39 -54 -56 -86 -87 -114 -115 -126 -127 -137 -138 -146 -148 -156 0
-20 -38 -39 -55 -56 -86 -88 -114 -115 -126 -127 -137 -138 -146 -148 -156 0
-20 -38 -39 -55 -56 -87 -88 -114 -116 -126 -127 -137 -138 -146 -148 -156 0
-20 -38 -39 -55 -56 -87 -88 -115 -116 -126 -128 -137 -138 -146 -148 -156 0
-20 -38 -39 -55 -56 -87 -88 -115 -116 -127 -128 -137 -139 -146 -148 -156 0
-20 -38 -39 -55 -56 -87 -88 -115 -116 -127 -128 -138 -139 -146 -149 -156 0
-19 -37 -38 -54 -55 -86 -87 -114 -115 -126 -127 -137 -138 -147 -148 -157 0
-20 -37 -39 -54 -55 -86 -87 -114 -115 -126 -127 -137 -138 -147 -148 -157 0
-20 -38 -39 -54 -56 -86 -87 -114 -115 -126 -127 -137 -138 -147 -148 -157 0
-20 -38 -39 -55 -56 -86 -88 -114 -115 -126 -127 -137 -138 -147 -148 -157 0
-20 -38 -39 -55 -56 -87 -88 -114 -116 -126 -127 -137 -138 -147 -148 -157 0
-20 -38 -39 -55 -56 -87 -88 -115 -116 -126 -128 -137 -138 -147 -148 -157 0
-20 -38 -39 -55 -56 -87 -88 -115 -116 -127 -128 -137 -139 -147 -148 -157 0
-20 -38 -39 -55 -56 -87 -88 -115 -116 -127 -128 -138 -139 -147 -149 -157 0
-20 -38 -39 -55 -56 -87 -88 -115 -116 -127 -128 -138 -139 -148 -149 -158 0
-19 -37 -38 -54 -55 -86 -87 -114 -115 -126 -127 -137 -138 -147 -148 -166 0
-20 -37 -39 -54 -55 -86 -87 -114 -115 -126 -127 -137 -138 -147 -148 -166 0
-20 -38 -39 -54 -56 -86 -87 -114 -115 -126 -127 -137 -138 -147 -148 -166 0
-20 -38 -39 -55 -56 -86 -88 -114 -115 -126 -127 -137 -138 -147 -148 -166 0
-20 -38 -39 -55 -56 -87 -88 -114 -116 -126 -127 -137 -138 -147 -148 -166 0
-20 -38 -39 -55 -56 -87 -88 -115 -116 -126 -128 -137 -138 -147 -148 -166 0
-20 -38 -39 -55 -56 -87 -88 -115 -116 -127 -128 -137 -139 -147 -148 -166 0
-20 -38 -39 -55 -56 -87 -88 -115 -116 -127 -128 -138 -139 -147 -149 -166 0
-20 -38 -39 -55 -56 -87 -88 -115 -116 -127 -128 -138 -139 -148 -149 -167 0
-20 -38 -39 -55 -56 -87 -88 -115 -116 -127 -128 -138 -139 -148 -149 -175 0
-19 -37 -38 -54 -55 -86 -87 -114 -115 -126 -127 -137 -138 -157 -158 -166 0
-20 -37 -39 -54 -55 -86 -87 -114 -115 -126 -127 -137 -138 -157 -158 -166 0
-20 -38 -39 -54 -56 -86 -87 -114 -115 -126 -127 -137 -138 -157 -158 -166 0
-20 -38 -39 -55 -56 -86 -88 -114 -115 -126 -127 -137 -138 -157 -158 -166 0
-20 -38 -39 -55 -56 -87 -88 -114 -116 -126 -127 -137 -138 -157 -158 -166 0
-20 -38 -39 -55 -56 -87 -88 -115 -116 -126 -128 -137 -138 -157 -158 -166 0
-20 -38 -39 -55 -56 -87 -88 -115 -116 -127 -128 -137 -139 -157 -158 -166 0
-20 -38 -39 -55 -56 -87 -88 -115 -116 -127 -128 -138 -139 -157 -159 -166 0
-20 -38 -39 -55 -56 -87 -88 -115 -116 -127 -128 -138 -139 -158 -159 -167 0
-20 -38 -39 -55 -56 -87 -88 -115 -116 -127 -128 -138 -139 -158 -159 -175 0
-20 -38 -39 -55 -56 -87 -88 -115 -116 -127 -128 -138 -139 -167 -168 -175 0
-19 -37 -38 -54 -55 -86 -87 -114 -115 -126 -127 -148 -149 -157 -158 -166 0
-20 -37 -39 -54 -55 -86 -87 -114 -115 -126 -127 -148 -149 -157 -158 -166 0
-20 -38 -39 -54 -56 -86 -87 -114 -115 -126 -127 -148 -149 -157 -158 -166 0
-20 -38 -39 -55 -56 -86 -88 -114 -115 -126 -127 -148 -149 -157 -158 -166 0
-20 -38 -39 -55 -56 -87 -88 -114 -116 -126 -127 -148 -149 -157 -158 -166 0
-20 -38 -39 -55 -56 -87 -88 -115 -116 -126 -128 -148 -149 -157 -158 -166 0
-20 -38 -39 -55 -56 -87 -88 -115 -116 -127 -128 -148 -150 -157 -158 -166 0
-20 -38 -39 -55 -56 -87 -88 -115 -116 -127 -128 -149 -150 -157 -159 -166 0
-20 -38 -39 -55 -56 -87 -88 -115 -116 -127 -128 -149 -150 -158 -159 -167 0
-20 -38 -39 -55 -56 -87 -88 -115 -116 -127 -128 -149 -150 -158 -159 -175 0
-20 -38 -39 -55 -56 -87 -88 -115 -116 -127 -128 -149 -150 -167 -168 -175 0
-20 -38 -39 -55 -56 -87 -88 -115 -116 -127 -128 -159 -160 -167 -168 -175 0
-19 -37 -38 -54 -55 -86 -87 -114 -115 -138 -139 -148 -149 -157 -158 -166 0
-20 -37 -39 -54 -55 -86 -87 -114 -115 -138 -139 -148 -149 -157 -158 -166 0
-20 -38 -39 -54 -56 -86 -87 -114 -115 -138 -139 -148 -149 -157 -158 -166 0
-20 -38 -39 -55 -56 -86 -88 -114 -115 -138 -139 -148 -149 -157 -158 -166 0
-20 -38 -39 -55 -56 -87 -88 -114 -116 -138 -139 -148 -149 -157 -158 -166 0
-20 -38 -39 -55 -56 -87 -88 -115 -116 -138 -140 -148 -149 -157 -158 -166 0
-20 -38 -39 -55 -56 -87 -88 -115 -116 -139 -140 -148 -150 -157 -158 -166 0
-20 -38 -39 -55 -56 -87 -88 -115 -116 -139 -140 -149 -150 -157 -159 -166 0
-20 -38 -39 -55 -56 -87 -88 -115 -116 -139 -140 -149 -150 -158 -159 -167 0
-20 -38 -39 -55 -56 -87 -88 -115 -116 -139 -140 -149 -150 -158 -159 -175 0
-20 -38 -39 -55 -56 -87 -88 -115 -116 -139 -140 -149 -150 -167 -168 -175 0
-20 -38 -39 -55 -56 -87 -88 -115 -116 -139 -140 -159 -160 -167 -168 -175 0
-20 -38 -39 -55 -56 -87 -88 -115 -116 -150 -151 -159 -160 -167 -168 -175 0
-19 -37 -38 -54 -55 -86 -87 -127 -128 -138 -139 -148 -149 -157 -158 -166 0
-20 -37 -39 -54 -55 -86 -87 -127 -128 -138 -139 -148 -149 -157 -158 -166 0
-20 -38 -39 -54 -56 -86 -87 -127 -128 -138 -139 -148 -149 -157 -158 -166 0
-20 -38 -39 -55 -56 -86 -88 -127 -128 -138 -139 -148 -149 -157 -158 -166 0
-20 -38 -39 -55 -56 -87 -88 -127 -129 -138 -139 -148 -149 -157 -158 -166 0
-20 -38 -39 -55 -56 -87 -88 -128 -129 -138 -140 -148 -149 -157 -158 -166 0
-20 -38 -39 -55 -56 -87 -88 -128 -129 -139 -140 -148 -150 -157 -158 -166 0
-20 -38 -39 -55 -56 -87 -88 -128 -129 -139 -140 -149 -150 -157 -159 -166 0
-20 -38 -39 -55 -56 -87 -88 -128 -129 -139 -140 -149 -150 -158 -159 -167 0
-20 -38 -39 -55 -56 -87 -88 -128 -129 -139 -140 -149 -150 -158 -159 -175 0
-20 -38 -39 -55 -56 -87 -88 -128 -129 -139 -140 -149 -150 -167 -168 -175 0
-20 -38 -39 -55 -56 -87 -88 -128 -129 -139 -140 -159 -160 -167 -168 -175 0
-20 -38 -39 -55 -56 -87 -88 -128 -129 -150 -151 -159 -160 -167 -168 -175 0
-20 -38 -39 -55 -56 -87 -88 -140 -141 -150 -151 -159 -160 -167 -168 -175 0
-18 -36 -37 -53 -54 -100 -101 -113 -114 -125 -126 -136 -137 -146 -147 -156 0
-19 -36 -38 -53 -54 -100 -101 -113 -114 -125 -126 -136 -137 -146 -147 -156 0
-20 -36 -39 -53 -54 -100 -101 -113 -114 -125 -126 -136 -137 -146 -147 -156 0
-19 -37 -38 -53 -55 -100 -101 -113 -114 -125 -126 -136 -137 -146 -147 -156 0
-20 -37 -39 -53 -55 -100 -101 -113 -114 -125 -126 -136 -137 -146 -147 -156 0
-20 -38 -39 -53 -56 -100 -101 -113 -114 -125 -126 -136 -137 -146 -147 -156 0
-19 -37 -38 -54 -55 -100 -102 -113 -114 -125 -126 -136 -137 -146 -147 -156 0
-20 -37 -39 -54 -55 -100 -102 -113 -114 -125 -126 -136 -137 -146 -147 -156 0
-20 -38 -39 -54 -56 -100 -102 -113 -114 -125 -126 -136 -137 -146 -147 -156 0
-20 -38 -39 -55 -56 -100 -103 -113 -114 -125 -126 -136 -137 -146 -147 -156 0
-19 -37 -38 -54 -55 -101 -102 -113 -115 -125 -126 -136 -137 -146 -147 -156 0
-20 -37 -39 -54 -55 -101 -102 -113 -115 -125 -126 -136 -137 -146 -147 -156 0
-20 -38 -39 -54 -56 -101 -102 -113 -115 -125 -126 -136 -137 -146 -147 -156 0
-20 -38 -39 -55 -56 -101 -103 -113 -115 -125 -126 -136 -137 -146 -147 -156 0
-20 -38 -39 -55 -56 -102 -103 -113 -116 -125 -126 -136 -137 -146 -147 -156 0
-19 -37 -38 -54 -55 -101 -102 -114 -115 -125 -127 -136 -137 -146 -147 -156 0
-20 -37 -39 -54 -55 -101 -102 -114 -115 -125 -127 -136 -137 -146 -147 -156 0
-20 -38 -39 -54 -56 -101 -102 -114 -115 -125 -127 -136 -137 -146 -147 -156 0
-20 -38 -39 -55 -56 -101 -103 -114 -115 -125 -127 -136 -137 -146 -147 -156 0
-20 -38 -39 -55 -56 -102 -103 -114 -116 -125 -127 -136 -137 -146 -147 -156 0
-20 -38 -39 -55 -56 -102 -103 -115 -116 -125 -128 -136 -137 -146 -147 -156 0
-19 -37 -38 -54 -55 -101 -102 -114 -115 -126 -127 -136 -138 -146 -147 -156 0
-20 -37 -39 -54 -55 -101 -102 -114 -115 -126 -127 -136 -138 -146 -147 -156 0
-20 -38 -39 -54 -56 -101 -102 -114 -115 -126 -127 -136 -138 -146 -147 -156 0
-20 -38 -39 -55 -56 -101 -103 -114 -115 -126 -127 -136 -138 -146 -147 -156 0
-20 -38 -39 -55 -56 -102 -103 -114 -116 -126 -127 -136 -138 -146 -147 -156 0
-20 -38 -39 -55 -56 -102 -103 -115 -116 -126 -128 -136 -138 -146 -147 -156 0
-20 -38 -39 -55 -56 -102 -103 -115 -116 -127 -128 -136 -139 -146 -147 -156 0
-19 -37 -38 -54 -55 -101 -102 -114 -115 -126 -127 -137 -138 -146 -148 -156 0
-20 -37 -39 -54 -55 -101 -102 -114 -115 -126 -127 -137 -138 -146 -148 -156 0
-20 -38 -39 -54 -56 -101 -102 -114 -115 -126 -127 -137 -138 -146 -148 -156 0
-20 -38 -39 -55 -56 -101 -103 -114 -115 -126 -127 -137 -138 -146 -148 -156 0
-20 -38 -39 -55 -56 -102 -103 -114 -116 -126 -127 -137 -138 -146 -148 -156 0
-20 -38 -39 -55 -56 -102 -103 -115 -116 -126 -128 -137 -138 -146 -148 -156 0
-20 -38 -39 -55 -56 -102 -103 -115 -116 -127 -128 -137 -139 -146 -148 -156 0
-20 -38 -39 -55 -56 -102 -103 -115 -116 -127 -128 -138 -139 -146 -149 -156 0
-19 -37 -38 -54 -55 -101 -102 -114 -115 -126 -127 -137 -138 -147 -148 -157 0
-20 -37 -39 -54 -55 -101 -102 -114 -115 -126 -127 -137 -138 -147 -148 -157 0
-20 -38 -39 -54 -56 -101 -102 -114 -115 -126 -127 -137 -138 -147 -148 -157 0
-20 -38 -39 -55 -56 -101 -103 -114 -115 -126 -127 -137 -138 -147 -148 -157 0
-20 -38 -39 -55 -56 -102 -103 -114 -116 -126 -127 -137 -138 -147 -148 -157 0
-20 -38 -39 -55 -56 -102 -103 -115 -116 -126 -128 -137 -138 -147 -148 -157 0
-20 -38 -39 -55 -56 -102 -103 -115 -116 -127 -128 -137 -139 -147 -148 -157 0
-20 -38 -39 -55 -56 -102 -103 -115 -116 -127 -128 -138 -139 -147 -149 -157 0
-20 -38 -39 -55 -56 -102 -103 -115 -116 -127 -128 -138 -139 -148 -149 -158 0
-19 -37 -38 -54 -55 -101 -102 -114 -115 -126 -127 -137 -138 -147 -148 -166 0
-20 -37 -39 -54 -55 -101 -102 -114 -115 -126 -127 -137 -138 -147 -148 -166 0
-20 -38 -39 -54 -56 -101 -102 -114 -115 -126 -127 -137 -138 -147 -148 -166 0
-20 -38 -39 -55 -56 -101 -103 -114 -115 -126 -127 -137 -138 -147 -148 -166 0
-20 -38 -39 -55 -56 -102 -103 -114 -116 -126 -127 -137 -138 -147 -148 -166 0
-20 -38 -39 -55 -56 -102 -103 -115 -116 -126 -128 -137 -138 -147 -148 -166 0
-20 -38 -39 -55 -56 -102 -103 -115 -116 -127 -128 -137 -139 -147 -148 -166 0
-20 -38 -39 -55 -56 -102 -103 -115 -116 -127 -128 -138 -139 -147 -149 -166 0
-20 -38 -39 -55 -56 -102 -103 -115 -116 -127 -128 -138 -139 -148 -149 -167 0
-20 -38 -39 -55 -56 -102 -103 -115 -116 -127 -128 -138 -139 -148 -149 -175 0
-19 -37 -38 -54 -55 -101 -102 -114 -115 -126 -127 -137 -138 -157 -158 -166 0
-20 -37 -39 -54 -55 -101 -102 -114 -115 -126 -127 -137 -138 -157 -158 -166 0
-20 -38 -39 -54 -56 -101 -102 -114 -115 -126 -127 -137 -138 -157 -158 -166 0
-20 -38 -39 -55 -56 -101 -103 -114 -115 -126 -127 -137 -138 -157 -158 -166 0
-20 -38 -39 -55 -56 -102 -103 -114 -116 -126 -127 -137 -138 -157 -158 -166 0
-20 -38 -39 -55 -56 -102 -103 -115 -116 -126 -128 -137 -138 -157 -158 -166 0
-20 -38 -39 -55 -56 -102 -103 -115 -116 -127 -128 -137 -139 -157 -158 -166 0
-20 -38 -39 -55 -56 -102 -103 -115 -116 -127 -128 -138 -139 -157 -159 -166 0
-20 -38 -39 -55 -56 -102 -103 -115 -116 -127 -128 -138 -139 -158 -159 -167 0
-20 -38 -39 -55 -56 -102 -103 -115 -116 -127 -128 -138 -139 -158 -159 -175 0
-20 -38 -39 -55 -56 -102 -103 -115 -116 -127 -128 -138 -139 -167 -168 -175 0
-19 -37 -38 -54 -55 -101 -102 -114 -115 -126 -127 -148 -149 -157 -158 -166 0
-20 -37 -39 -54 -55 -101 -102 -114 -115 -126 -127 -148 -149 -157 -158 -166 0
-20 -38 -39 -54 -56 -101 -102 -114 -115 -126 -127 -148 -149 -157 -158 -166 0
-20 -38 -39 -55 -56 -101 -103 -114 -115 -126 -127 -148 -149 -157 -158 -166 0
-20 -38 -39 -55 -56 -102 -103 -114 -116 -126 -127 -148 -149 -157 -158 -166 0
-20 -38 -39 -55 -56 -102 -103 -115 -116 -126 -128 -148 -149 -157 -158 -166 0
-20 -38 -39 -55 -56 -102 -103 -115 -116 -127 -128 -148 -150 -157 -158 -166 0
-20 -38 -39 -55 -56 -102 -103 -115 -116 -127 -128 -149 -150 -157 -159 -166 0
-20 -38 -39 -55 -56 -102 -103 -115 -116 -127 -128 -149 -150 -158 -159 -167 0
-20 -38 -39 -55 -56 -102 -103 -115 -116 -127 -128 -149 -150 -158 -159 -175 0
-20 -38 -39 -55 -56 -102 -103 -115 -116 -127 -128 -149 -150 -167 -168 -175 0
-20 -38 -39 -55 -56 -102 -103 -115 -116 -127 -128 -159 -160 -167 -168 -175 0
-19 -37 -38 -54 -55 -101 -102 -114 -115 -138 -139 -148 -149 -157 -158 -166 0
-20 -37 -39 -54 -55 -101 -102 -114 -115 -138 -139 -148 -149 -157 -158 -166 0
-20 -38 -39 -54 -56 -101 -102 -114 -115 -138 -139 -148 -149 -157 -158 -166 0
-20 -38 -39 -55 -56 -101 -103 -114 -115 -138 -139 -148 -149 -157 -158 -166 0
-20 -38 -39 -55 -56 -102 -103 -114 -116 -138 -139 -148 -149 -157 -158 -166 0
-20 -38 -39 -55 -56 -102 -103 -115 -116 -138 -140 -148 -149 -157 -158 -166 0
-20 -38 -39 -55 -56 -102 -103 -115 -116 -139 -140 -148 -150 -157 -158 -166 0
-20 -38 -39 -55 -56 -102 -103 -115 -116 -139 -140 -149 -150 -157 -159 -166 0
-20 -38 -39 -55 -56 -102 -103 -115 -116 -139 -140 -149 -150 -158 -159 -167 0
-20 -38 -39 -55 -56 -102 -103 -115 -116 -139 -140 -149 -150 -158 -159 -175 0
-20 -38 -39 -55 -56 -102 -103 -115 -116 -139 -140 -149 -150 -167 -168 -175 0
-20 -38 -39 -55 -56 -102 -103 -115 -116 -139 -140 -159 -160 -167 -168 -175 0
-20 -38 -39 -55 -56 -102 -103 -115 -116 -150 -151 -159 -160 -167 -168 -175 0
-19 -37 -38 -54 -55 -101 -102 -127 -128 -138 -139 -148 -149 -157 -158 -166 0
-20 -37 -39 -54 -55 -101 -102 -127 -128 -138 -139 -148 -149 -157 -158 -166 0
-20 -38 -39 -54 -56 -101 -102 -127 -128 -138 -139 -148 -149 -157 -158 -166 0
-20 -38 -39 -55 -56 -101 -103 -127 -128 -138 -139 -148 -149 -157 -158 -166 0
-20 -38 -39 -55 -56 -102 -103 -127 -129 -138 -139 -148 -149 -157 -158 -166 0
-20 -38 -39 -55 -56 -102 -103 -128 -129 -138 -140 -148 -149 -157 -158 -166 0
-20 -38 -39 -55 -56 -102 -103 -128 -129 -139 -140 -148 -150 -157 -158 -166 0
-20 -38 -39 -55 -56 -102 -103 -128 -129 -139 -140 -149 -150 -157 -159 -166 0
-20 -38 -39 -55 -56 -102 -103 -128 -129 -139 -140 -149 -150 -158 -159 -167 0
-20 -38 -39 -55 -56 -102 -103 -128 -129 -139 -140 -149 -150 -158 -159 -175 0
-20 -38 -39 -55 -56 -102 -103 -128 -129 -139 -140 -149 -150 -167 -168 -175 0
-20 -38 -39 -55 -56 -102 -103 -128 -129 -139 -140 -159 -160 -167 -168 -175 0
-20 -38 -39 -55 -56 -102 -103 -128 -129 -150 -151 -159 -160 -167 -168 -175 0
-20 -38 -39 -55 -56 -102 -103 -140 -141 -150 -151 -159 -160 -167 -168 -175 0
-19 -37 -38 -54 -55 -115 -116 -127 -128 -138 -139 -148 -149 -157 -158 -166 0
-20 -37 -39 -54 -55 -115 -116 -127 -128 -138 -139 -148 -149 -157 -158 -166 0
-20 -38 -39 -54 -56 -115 -116 -127 -128 -138 -139 -148 -149 -157 -158 -166 0
-20 -38 -39 -55 -56 -115 -117 -127 -128 -138 -139 -148 -149 -157 -158 -166 0
-20 -38 -39 -55 -56 -116 -117 -127 -129 -138 -139 -148 -149 -157 -158 -166 0
-20 -38 -39 -55 -56 -116 -117 -128 -129 -138 -140 -148 -149 -157 -158 -166 0
-20 -38 -39 -55 -56 -116 -117 -128 -129 -139 -140 -148 -150 -157 -158 -166 0
-20 -38 -39 -55 -56 -116 -117 -128 -129 -139 -140 -149 -150 -157 -159 -166 0
-20 -38 -39 -55 -56 -116 -117 -128 -129 -139 -140 -149 -150 -158 -159 -167 0
-20 -38 -39 -55 -56 -116 -117 -128 -129 -139 -140 -149 -150 -158 -159 -175 0
-20 -38 -39 -55 -56 -116 -117 -128 -129 -139 -140 -149 -150 -167 -168 -175 0
-20 -38 -39 -55 -56 -116 -117 -128 -129 -139 -140 -159 -160 -167 -168 -175 0
-20 -38 -39 -55 -56 -116 -117 -128 -129 -150 -151 -159 -160 -167 -168 -175 0
-20 -38 -39 -55 -56 -116 -117 -140 -141 -150 -151 -159 -160 -167 -168 -175 0
-20 -38 -39 -55 -56 -129 -130 -140 -141 -150 -151 -159 -160 -167 -168 -175 0
-17 -35 -36 -69 -70 -84 -85 -98 -99 -111 -112 -123 -124 -134 -135 -145 0
-18 -35 -37 -69 -70 -84 -85 -98 -99 -111 -112 -123 -124 -134 -135 -145 0
-19 -35 -38 -69 -70 -84 -85 -98 -99 -111 -112 -123 -124 -134 -135 -145 0
-20 -35 -39 -69 -70 -84 -85 -98 -99 -111 -112 -123 -124 -134 -135 -145 0
-18 -36 -37 -69 -71 -84 -85 -98 -99 -111 -112 -123 -124 -134 -135 -145 0
-19 -36 -38 -69 -71 -84 -85 -98 -99 -111 -112 -123 -124 -134 -135 -145 0
-20 -36 -39 -69 -71 -84 -85 -98 -99 -111 -112 -123 -124 -134 -135 -145 0
-19 -37 -38 -69 -72 -84 -85 -98 -99 -111 -112 -123 -124 -134 -135 -145 0
-20 -37 -39 -69 -72 -84 -85 -98 -99 -111 -112 -123 -124 -134 -135 -145 0
-20 -38 -39 -69 -73 -84 -85 -98 -99 -111 -112 -123 -124 -134 -135 -145 0
-18 -36 -37 -70 -71 -84 -86 -98 -99 -111 -112 -123 -124 -134 -135 -145 0
-19 -36 -38 -70 -71 -84 -86 -98 -99 -111 -112 -123 -124 -134 -135 -145 0
-20 -36 -39 -70 -71 -84 -86 -98 -99 -111 -112 -123 -124 -134 -135 -145 0
-19 -37 -38 -70 -72 -84 -86 -98 -99 -111 -112 -123 -124 -134 -135 -145 0
-20 -37 -39 -70 -72 -84 -86 -98 -99 -111 -112 -123 -124 -134 -135 -145 0
-20 -38 -39 -70 -73 -84 -86 -98 -99 -111 -112 -123 -124 -134 -135 -145 0
-19 -37 -38 -71 -72 -84 -87 -98 -99 -111 -112 -123 -124 -134 -135 -145 0
-20 -37 -39 -71 -72 -84 -87 -98 -99 -111 -112 -123 -124 -134 -135 -145 0
-20 -38 -39 -71 -73 -84 -87 -98 -99 -111 -112 -123 -124 -134 -135 -145 0
-20 -38 -39 -72 -73 -84 -88 -98 -99 -111 -112 -123 -124 -134 -135 -145 0
-18 -36 -37 -70 -71 -85 -86 -98 -100 -111 -112 -123 -124 -134 -135 -145 0
-19 -36 -38 -70 -71 -85 -86 -98 -100 -111 -112 -123 -124 -134 -135 -145 0
-20 -36 -39 -70 -71 -85 -86 -98 -100 -111 -112 -123 -124 -134 -135 -145 0
-19 -37 -38 -70 -72 -85 -86 -98 -100 -111 -112 -123 -124 -134 -135 -145 0
-20 -37 -39 -70 -72 -85 -86 -98 -100 -111 -112 -123 -124 -134 -135 -145 0
-20 -38 -39 -70 -73 -85 -86 -98 -100 -111 -112 -123 -124 -134 -135 -145 0
-19 -37 -38 -71 -72 -85 -87 -98 -100 -111 -112 -123 -124 -134 -135 -145 0
-20 -37 -39 -71 -72 -85 -87 -98 -100 -111 -112 -123 -124 -134 -135 -145 0
-20 -38 -39 -71 -73 -85 -87 -98 -100 -111 -112 -123 -124 -134 -135 -145 0
-20 -38 -39 -72 -73 -85 -88 -98 -100 -111 -112 -123 -124 -134 -135 -145 0
-19 -37 -38 -71 -72 -86 -87 -98 -101 -111 -112 -123 -124 -134 -135 -145 0
-20 -37 -39 -71 -72 -86 -87 -98 -101 -111 -112 -123 -124 -134 -135 -145 0
-20 -38 -39 -71 -73 -86 -87 -98 -101 -111 -112 -123 -124 -134 -135 -145 0
-20 -38 -39 -72 -73 -86 -88 -98 -101 -111 -112 -123 -124 -134 -135 -145 0
-20 -38 -39 -72 -73 -87 -88 -98 -102 -111 -112 -123 -124 -134 -135 -145 0
-18 -36 -37 -70 -71 -85 -86 -99 -100 -111 -113 -123 -124 -134 -135 -145 0
-19 -36 -38 -70 -71 -85 -86 -99 -100 -111 -113 -123 -124 -134 -135 -145 0
-20 -36 -39 -70 -71 -85 -86 -99 -100 -111 -113 -123 -124 -134 -135 -145 0
-19 -37 -38 -70 -72 -85 -86 -99 -100 -111 -113 -123 -124 -134 -135 -145 0
-20 -37 -39 -70 -72 -85 -86 -99 -100 -111 -113 -123 -124 -134 -135 -145 0
-20 -38 -39 -70 -73 -85 -86 -99 -100 -111 -113 -123 -124 -134 -135 -145 0
-19 -37 -38 -71 -72 -85 -87 -99 -100 -111 -113 -123 -124 -134 -135 -145 0
-20 -37 -39 -71 -72 -85 -87 -99 -100 -111 -113 -123 -124 -134 -135 -145 0
-20 -38 -39 -71 -73 -85 -87 -99 -100 -111 -113 -123 -124 -134 -135 -145 0
-20 -38 -39 -72 -73 -85 -88 -99 -100 -111 -113 -123 -124 -134 -135 -145 0
-19 -37 -38 -71 -72 -86 -87 -99 -101 -111 -113 -123 -124 -134 -135 -145 0
-20 -37 -39 -71 -72 -86 -87 -99 -101 -111 -113 -123 -124 -134 -135 -145 0
-20 -38 -39 -71 -73 -86 -87 -99 -101 -111 -113 -123 -124 -134 -135 -145 0
-20 -38 -39 -72 -73 -86 -88 -99 -101 -111 -113 -123 -124 -134 -135 -145 0
-20 -38 -39 -72 -73 -87 -88 -99 -102 -111 -113 -123 -124 -134 -135 -145 0
-19 -37 -38 -71 -72 -86 -87 -100 -101 -111 -114 -123 -124 -134 -135 -145 0
-20 -37 -39 -71 -72 -86 -87 -100 -101 -111 -114 -123 -124 -134 -135 -145 0
-20 -38 -39 -71 -73 -86 -87 -100 -101 -111 -114 -123 -124 -134 -135 -145 0
-20 -38 -39 -72 -73 -86 -88 -100 -101 -111 -114 -123 -124 -134 -135 -145 0
-20 -38 -39 -72 -73 -87 -88 -100 -102 -111 -114 -123 -124 -134 -135 -145 0
-20 -38 -39 -72 -73 -87 -88 -101 -102 -111 -115 -123 -124 -134 -135 -145 0
-18 -36 -37 -70 -71 -85 -86 -99 -100 -112 -113 -123 -125 -134 -135 -145 0
-19 -36 -38 -70 -71 -85 -86 -99 -100 -112 -113 -123 -125 -134 -135 -145 0
-20 -36 -39 -70 -71 -85 -86 -99 -100 -112 -113 -123 -125 -134 -135 -145 0
-19 -37 -38 -70 -72 -85 -86 -99 -100 -112 -113 -123 -125 -134 -135 -145 0
-20 -37 -39 -70 -72 -85 -86 -99 -100 -112 -113 -123 -125 -134 -135 -145 0
-20 -38 -39 -70 -73 -85 -86 -99 -100 -112 -113 -123 -125 -134 -135 -145 0
-19 -37 -38 -71 -72 -85 -87 -99 -100 -112 -113 -123 -125 -134 -135 -145 0
-20 -37 -39 -71 -72 -85 -87 -99 -100 -112 -113 -123 -125 -134 -135 -145 0
-20 -38 -39 -71 -73 -85 -87 -99 -100 -112 -113 -123 -125 -134 -135 -145 0
-20 -38 -39 -72 -73 -85 -88 -99 -100 -112 -113 -123 -125 -134 -135 -145 0
-19 -37 -38 -71 -72 -86 -87 -99 -101 -112 -113 -123 -125 -134 -135 -145 0
-20 -37 -39 -71 -72 -86 -87 -99 -101 -112 -113 -123 -125 -134 -135 -145 0
-20 -38 -39 -71 -73 -86 -87 -99 -101 -112 -113 -123 -125 -134 -135 -145 0
-20 -38 -39 -72 -73 -86 -88 -99 -101 -112 -113 -123 -125 -134 -135 -145 0
-20 -38 -39 -72 -73 -87 -88 -99 -102 -112 -113 -123 -125 -134 -135 -145 0
-19 -37 -38 -71 -72 -86 -87 -100 -101 -112 -114 -123 -125 -134 -135 -145 0
-20 -37 -39 -71 -72 -86 -87 -100 -101 -112 -114 -123 -125 -134 -135 -145 0
-20 -38 -39 -71 -73 -86 -87 -100 -101 -112 -114 -123 -125 -134 -135 -145 0
-20 -38 -39 -72 -73 -86 -88 -100 -101 -112 -114 -123 -125 -134 -135 -145 0
-20 -38 -39 -72 -73 -87 -88 -100 -102 -112 -114 -123 -125 -134 -135 -145 0
-20 -38 -39 -72 -73 -87 -88 -101 -102 -112 -115 -123 -125 -134 -135 -145 0
-19 -37 -38 -71 -72 -86 -87 -100 -101 -113 -114 -123 -126 -134 -135 -145 0
-20 -37 -39 -71 -72 -86 -87 -100 -101 -113 -114 -123 -126 -134 -135 -145 0
-20 -38 -39 -71 -73 -86 -87 -100 -101 -113 -114 -123 -126 -134 -135 -145 0
-20 -38 -39 -72 -73 -86 -88 -100 -101 -113 -114 -123 -126 -134 -135 -145 0
-20 -38 -39 -72 -73 -87 -88 -100 -102 -113 -114 -123 -126 -134 -135 -145 0
-20 -38 -39 -72 -73 -87 -88 -101 -102 -113 -115 -123 -126 -134 -135 -145 0
-20 -38 -39 -72 -73 -87 -88 -101 -102 -114 -115 -123 -127 -134 -135 -145 0
-18 -36 -37 -70 -71 -85 -86 -99 -100 -112 -113 -124 -125 -134 -136 -145 0
-19 -36 -38 -70 -71 -85 -86 -99 -100 -112 -113 -124 -125 -134 -136 -145 0
-20 -36 -39 -70 -71 -85 -86 -99 -100 -112 -113 -124 -125 -134 -136 -145 0
-19 -37 -38 -70 -72 -85 -86 -99 -100 -112 -113 -124 -125 -134 -136 -145 0
-20 -37 -39 -70 -72 -85 -86 -99 -100 -112 -113 -124 -125 -134 -136 -145 0
-20 -38 -39 -70 -73 -85 -86 -99 -100 -112 -113 -124 -125 -134 -136 -145 0
-19 -37 -38 -71 -72 -85 -87 -99 -100 -112 -113 -124 -125 -134 -136 -145 0
-20 -37 -39 -71 -72 -85 -87 -99 -100 -112 -113 -124 -125 -134 -136 -145 0
-20 -38 -39 -71 -73 -85 -87 -99 -100 -112 -113 -124 -125 -134 -136 -145 0
-20 -38 -39 -72 -73 -85 -88 -99 -100 -112 -113 -124 -125 -134 -136 -145 0
-19 -37 -38 -71 -72 -86 -87 -99 -101 -112 -113 -124 -125 -134 -136 -145 0
-20 -37 -39 -71 -72 -86 -87 -99 -101 -112 -113 -124 -125 -134 -136 -145 0
-20 -38 -39 -71 -73 -86 -87 -99 -101 -112 -113 -124 -125 -134 -136 -145 0
-20 -38 -39 -72 -73 -86 -88 -99 -101 -112 -113 -124 -125 -134 -136 -145 0
-20 -38 -39 -72 -73 -87 -88 -99 -102 -112 -113 -124 -125 -134 -136 -145 0
-19 -37 -38 -71 -72 -86 -87 -100 -101 -112 -114 -124 -125 -134 -136 -145 0
-20 -37 -39 -71 -72 -86 -87 -100 -101 -112 -114 -124 -125 -134 -136 -145 0
-20 -38 -39 -71 -73 -86 -87 -100 -101 -112 -114 -124 -125 -134 -136 -145 0
-20 -38 -39 -72 -73 -86 -88 -100 -101 -112 -114 -124 -125 -134 -136 -145 0
-20 -38 -39 -72 -73 -87 -88 -100 -102 -112 -114 -124 -125 -134 -136 -145 0
-20 -38 -39 -72 -73 -87 -88 -101 -102 -112 -115 -124 -125 -134 -136 -145 0
-19 -37 -38 -71 -72 -86 -87 -100 -101 -113 -114 -124 -126 -134 -136 -145 0
-20 -37 -39 -71 -72 -86 -87 -100 -101 -113 -114 -124 -126 -134 -136 -145 0
-20 -38 -39 -71 -73 -86 -87 -100 -101 -113 -114 -124 -126 -134 -136 -145 0
-20 -38 -39 -72 -73 -86 -88 -100 -101 -113 -114 -124 -126 -134 -136 -145 0
-20 -38 -39 -72 -73 -87 -88 -100 -102 -113 -114 -124 -126 -134 -136 -145 0
-20 -38 -39 -72 -73 -87 -88 -101 -102 -113 -115 -124 -126 -134 -136 -145 0
-20 -38 -39 -72 -73 -87 -88 -101 -102 -114 -115 -124 -127 -134 -136 -145 0
-19 -37 -38 -71 -72 -86 -87 -100 -101 -113 -114 -125 -126 -134 -137 -145 0
-20 -37 -39 -71 -72 -86 -87 -100 -101 -113 -114 -125 -126 -134 -137 -145 0
-20 -38 -39 -71 -73 -86 -87 -100 -101 -113 -114 -125 -126 -134 -137 -145 0
-20 -38 -39 -72 -73 -86 -88 -100 -101 -113 -114 -125 -126 -134 -137 -145 0
-20 -38 -39 -72 -73 -87 -88 -100 -102 -113 -114 -125 -126 -134 -137 -145 0
-20 -38 -39 -72 -73 -87 -88 -101 -102 -113 -115 -125 -126 -134 -137 -145 0
-20 -38 -39 -72 -73 -87 -88 -101 -102 -114 -115 -125 -127 -134 -137 -145 0
-20 -38 -39 -72 -73 -87 -88 -101 -102 -114 -115 -126 -127 -134 -138 -145 0
-18 -36 -37 -70 -71 -85 -86 -99 -100 -112 -113 -124 -125 -135 -136 -146 0
-19 -36 -38 -70 -71 -85 -86 -99 -100 -112 -113 -124 -125 -135 -136 -146 0
-20 -36 -39 -70 -71 -85 -86 -99 -100 -112 -113 -124 -125 -135 -136 -146 0
-19 -37 -38 -70 -72 -85 -86 -99 -100 -112 -113 -124 -125 -135 -136 -146 0
-20 -37 -39 -70 -72 -85 -86 -99 -100 -112 -113 -124 -125 -135 -136 -146 0
-20 -38 -39 -70 -73 -85 -86 -99 -100 -112 -113 -124 -125 -135 -136 -146 0
-19 -37 -38 -71 -72 -85 -87 -99 -100 -112 -113 -124 -125 -135 -136 -146 0
-20 -37 -39 -71 -72 -85 -87 -99 -100 -112 -113 -124 -125 -135 -136 -146 0
-20 -38 -39 -71 -73 -85 -87 -99 -100 -112 -113 -124 -125 -135 -136 -146 0
-20 -38 -39 -72 -73 -85 -88 -99 -100 -112 -113 -124 -125 -135 -136 -146 0
-19 -37 -38 -71 -72 -86 -87 -99 -101 -112 -113 -124 -125 -135 -136 -146 0
-20 -37 -39 -71 -72 -86 -87 -99 -101 -112 -113 -124 -125 -135 -136 -146 0
-20 -38 -39 -71 -73 -86 -87 -99 -101 -112 -113 -124 -125 -135 -136 -146 0
-20 -38 -39 -72 -73 -86 -88 -99 -101 -112 -113 -124 -125 -135 -136 -146 0
-20 -38 -39 -72 -73 -87 -88 -99 -102 -112 -113 -124 -125 -135 -136 -146 0
-19 -37 -38 -71 -72 -86 -87 -100 -101 -112 -114 -124 -125 -135 -136 -146 0
-20 -37 -39 -71 -72 -86 -87 -100 -101 -112 -114 -124 -125 -135 -136 -146 0
-20 -38 -39 -71 -73 -86 -87 -100 -101 -112 -114 -124 -125 -135 -136 -146 0
-20 -38 -39 -72 -73 -86 -88 -100 -101 -112 -114 -124 -125 -135 -136 -146 0
-20 -38 -39 -72 -73 -87 -88 -100 -102 -112 -114 -124 -125 -135 -136 -146 0
-20 -38 -39 -72 -73 -87 -88 -101 -102 -112 -115 -124 -125 -135 -136 -146 0
-19 -37 -38 -71 -72 -86 -87 -100 -101 -113 -114 -124 -126 -135 -136 -146 0
-20 -37 -39 -71 -72 -86 -87 -100 -101 -113 -114 -124 -126 -135 -136 -146 0
-20 -38 -39 -71 -73 -86 -87 -100 -101 -113 -114 -124 -126 -135 -136 -146 0
-20 -38 -39 -72 -73 -86 -88 -100 -101 -113 -114 -124 -126 -135 -136 -146 0
-20 -38 -39 -72 -73 -87 -88 -100 -102 -113 -114 -124 -126 -135 -136 -146 0
-20 -38 -39 -72 -73 -87 -88 -101 -102 -113 -115 -124 -126 -135 -136 -146 0
-20 -38 -39 -72 -73 -87 -88 -101 -102 -114 -115 -124 -127 -135 -136 -146 0
-19 -37 -38 -71 -72 -86 -87 -100 -101 -113 -114 -125 -126 -135 -137 -146 0
-20 -37 -39 -71 -72 -86 -87 -100 -101 -113 -114 -125 -126 -135 -137 -146 0
-20 -38 -39 -71 -73 -86 -87 -100 -101 -113 -114 -125 -126 -135 -137 -146 0
-20 -38 -39 -72 -73 -86 -88 -100 -101 -113 -114 -125 -126 -135 -137 -146 0
-20 -38 -39 -72 -73 -87 -88 -100 -102 -113 -114 -125 -126 -135 -137 -146 0
-20 -38 -39 -72 -73 -87 -88 -101 -102 -113 -115 -125 -126 -135 -137 -146 0
-20 -38 -39 -72 -73 -87 -88 -101 -102 -114 -115 -125 -127 -135 -137 -146 0
-20 -38 -39 -72 -73 -87 -88 -101 -102 -114 -115 -126 -127 -135 -138 -146 0
-19 -37 -38 -71 -72 -86 -87 -100 -101 -113 -114 -125 -126 -136 -137 -147 0
-20 -37 -39 -71 -72 -86 -87 -100 -101 -113 -114 -125 -126 -136 -137 -147 0
-20 -38 -39 -71 -73 -86 -87 -100 -101 -113 -114 -125 -126 -136 -137 -147 0
-20 -38 -39 -72 -73 -86 -88 -100 -101 -113 -114 -125 -126 -136 -137 -147 0
-20 -38 -39 -72 -73 -87 -88 -100 -102 -113 -114 -125 -126 -136 -137 -147 0
-20 -38 -39 -72 -73 -87 -88 -101 -102 -113 -115 -125 -126 -136 -137 -147 0
-20 -38 -39 -72 -73 -87 -88 -101 -102 -114 -115 -125 -127 -136 -137 -147 0
-20 -38 -39 -72 -73 -87 -88 -101 -102 -114 -115 -126 -127 -136 -138 -147 0
-20 -38 -39 -72 -73 -87 -88 -101 -102 -114 -115 -126 -127 -137 -138 -148 0
-18 -36 -37 -70 -71 -85 -86 -99 -100 -112 -113 -124 -125 -135 -136 -156 0
-19 -36 -38 -70 -71 -85 -86 -99 -100 -112 -113 -124 -125 -135 -136 -156 0
-20 -36 -39 -70 -71 -85 -86 -99 -100 -112 -113 -124 -125 -135 -136 -156 0
-19 -37 -38 -70 -72 -85 -86 -99 -100 -112 -113 -124 -125 -135 -136 -156 0
-20 -37 -39 -70 -72 -85 -86 -99 -100 -112 -113 -124 -125 -135 -136 -156 0
-20 -38 -39 -70 -73 -85 -86 -99 -100 -112 -113 -124 -125 -135 -136 -156 0
-19 -37 -38 -71 -72 -85 -87 -99 -100 -112 -113 -124 -125 -135 -136 -156 0
-20 -37 -39 -71 -72 -85 -87 -99 -100 -112 -113 -124 -125 -135 -136 -156 0
-20 -38 -39 -71 -73 -85 -87 -99 -100 -112 -113 -124 -125 -135 -136 -156 0
-20 -38 -39 -72 -73 -85 -88 -99 -100 -112 -113 -124 -125 -135 -136 -156 0
-19 -37 -38 -71 -72 -86 -87 -99 -101 -112 -113 -124 -125 -135 -136 -156 0
-20 -37 -39 -71 -72 -86 -87 -99 -101 -112 -113 -124 -125 -135 -136 -156 0
-20 -38 -39 -71 -73 -86 -87 -99 -101 -112 -113 -124 -125 -135 -136 -156 0
-20 -38 -39 -72 -73 -86 -88 -99 -101 -112 -113 -124 -125 -135 -136 -156 0
-20 -38 -39 -72 -73 -87 -88 -99 -102 -112 -113 -124 -125 -135 -136 -156 0
-19 -37 -38 -71 -72 -86 -87 -100 -101 -112 -114 -124 -125 -135 -136 -156 0
-20 -37 -39 -71 -72 -86 -87 -100 -101 -112 -114 -124 -125 -135 -136 -156 0
-20 -38 -39 -71 -73 -86 -87 -100 -101 -112 -114 -124 -125 -135 -136 -156 0
-20 -38 -39 -72 -73 -86 -88 -100 -101 -112 -114 -124 -125 -135 -136 -156 0
-20 -38 -39 -72 -73 -87 -88 -100 -102 -112 -114 -124 -125 -135 -136 -156 0
-20 -38 -39 -72 -73 -87 -88 -101 -102 -112 -115 -124 -125 -135 -136 -156 0
-19 -37 -38 -71 -72 -86 -87 -100 -101 -113 -114 -124 -126 -135 -136 -156 0
-20 -37 -39 -71 -72 -86 -87 -100 -101 -113 -114 -124 -126 -135 -136 -156 0
-20 -38 -39 -71 -73 -86 -87 -100 -101 -113 -114 -124 -126 -135 -136 -156 0
-20 -38 -39 -72 -73 -86 -88 -100 -101 -113 -114 -124 -126 -135 -136 -156 0
-20 -38 -39 -72 -73 -87 -88 -100 -102 -113 -114 -124 -126 -135 -136 -156 0
-20 -38 -39 -72 -73 -87 -88 -101 -102 -113 -115 -124 -126 -135 -136 -156 0
-20 -38 -39 -72 -73 -87 -88 -101 -102 -114 -115 -124 -127 -135 -136 -156 0
-19 -37 -38 -71 -72 -86 -87 -100 -101 -113 -114 -125 -126 -135 -137 -156 0
-20 -37 -39 -71 -72 -86 -87 -100 -101 -113 -114 -125 -126 -135 -137 -156 0
-20 -38 -39 -71 -73 -86 -87 -100 -101 -113 -114 -125 -126 -135 -137 -156 0
-20 -38 -39 -72 -73 -86 -88 -100 -101 -113 -114 -125 -126 -135 -137 -156 0
-20 -38 -39 -72 -73 -87 -88 -100 -102 -113 -114 -125 -126 -135 -137 -156 0
-20 -38 -39 -72 -73 -87 -88 -101 -102 -113 -115 -125 -126 -135 -137 -156 0
-20 -38 -39 -72 -73 -87 -88 -101 -102 -114 -115 -125 -127 -135 -137 -156 0
-20 -38 -39 -72 -73 -87 -88 -101 -102 -114 -115 -126 -127 -135 -138 -156 0
-19 -37 -38 -71 -72 -86 -87 -100 -101 -113 -114 -125 -126 -136 -137 -157 0
-20 -37 -39 -71 -72 -86 -87 -100 -101 -113 -114 -125 -126 -136 -137 -157 0
-20 -38 -39 -71 -73 -86 -87 -100 -101 -113 -114 -125 -126 -136 -137 -157 0
-20 -38 -39 -72 -73 -86 -88 -100 -101 -113 -114 -125 -126 -136 -137 -157 0
-20 -38 -39 -72 -73 -87 -88 -100 -102 -113 -114 -125 -126 -136 -137 -157 0
-20 -38 -39 -72 -73 -87 -88 -101 -102 -113 -115 -125 -126 -136 -137 -157 0
-20 -38 -39 -72 -73 -87 -88 -101 -102 -114 -115 -125 -127 -136 -137 -157 0
-20 -38 -39 -72 -73 -87 -88 -101 -102 -114 -115 -126 -127 -136 -138 -157 0
-20 -38 -39 -72 -73 -87 -88 -101 -102 -114 -115 -126 -127 -137 -138 -158 0
-19 -37 -38 -71 -72 -86 -87 -100 -101 -113 -114 -125 -126 -136 -137 -166 0
-20 -37 -39 -71 -72 -86 -87 -100 -101 -113 -114 -125 -126 -136 -137 -166 0
-20 -38 -39 -71 -73 -86 -87 -100 -101 -113 -114 -125 -126 -136 -137 -166 0
-20 -38 -39 -72 -73 -86 -88 -100 -101 -113 -114 -125 -126 -136 -137 -166 0
-20 -38 -39 -72 -73 -87 -88 -100 -102 -113 -114 -125 -126 -136 -137 -166 0
-20 -38 -39 -72 -73 -87 -88 -101 -102 -113 -115 -125 -126 -136 -137 -166 0
-20 -38 -39 -72 -73 -87 -88 -101 -102 -114 -115 -125 -127 -136 -137 -166 0
-20 -38 -39 -72 -73 -87 -88 -101 -102 -114 -115 -126 -127 -136 -138 -166 0
-20 -38 -39 -72 -73 -87 -88 -101 -102 -114 -115 -126 -127 -137 -138 -167 0
-20 -38 -39 -72 -73 -87 -88 -101 -102 -114 -115 -126 -127 -137 -138 -175 0
-18 -36 -37 -70 -71 -85 -86 -99 -100 -112 -113 -124 -125 -146 -147 -156 0
-19 -36 -38 -70 -71 -85 -86 -99 -100 -112 -113 -124 -125 -146 -147 -156 0
-20 -36 -39 -70 -71 -85 -86 -99 -100 -112 -113 -124 -125 -146 -147 -156 0
-19 -37 -38 -70 -72 -85 -86 -99 -100 -112 -113 -124 -125 -146 -147 -156 0
-20 -37 -39 -70 -72 -85 -86 -99 -100 -112 -113 -124 -125 -146 -147 -156 0
-20 -38 -39 -70 -73 -85 -86 -99 -100 -112 -113 -124 -125 -146 -147 -156 0
-19 -37 -38 -71 -72 -85 -87 -99 -100 -112 -113 -124 -125 -146 -147 -156 0
-20 -37 -39 -71 -72 -85 -87 -99 -100 -112 -113 -124 -125 -146 -147 -156 0
-20 -38 -39 -71 -73 -85 -87 -99 -100 -112 -113 -124 -125 -146 -147 -156 0
-20 -38 -39 -72 -73 -85 -88 -99 -100 -112 -113 -124 -125 -146 -147 -156 0
-19 -37 -38 -71 -72 -86 -87 -99 -101 -112 -113 -124 -125 -146 -147 -156 0
-20 -37 -39 -71 -72 -86 -87 -99 -101 -112 -113 -124 -125 -146 -147 -156 0
-20 -38 -39 -71 -73 -86 -87 -99 -101 -112 -113 -124 -125 -146 -147 -156 0
-20 -38 -39 -72 -73 -86 -88 -99 -101 -112 -113 -124 -125 -146 -147 -156 0
-20 -38 -39 -72 -73 -87 -88 -99 -102 -112 -113 -124 -125 -146 -147 -156 0
-19 -37 -38 -71 -72 -86 -87 -100 -101 -112 -114 -124 -125 -146 -147 -156 0
-20 -37 -39 -71 -72 -86 -87 -100 -101 -112 -114 -124 -125 -146 -147 -156 0
-20 -38 -39 -71 -73 -86 -87 -100 -101 -112 -114 -124 -125 -146 -147 -156 0
-20 -38 -39 -72 -73 -86 -88 -100 -101 -112 -114 -124 -125 -146 -147 -156 0
-20 -38 -39 -72 -73 -87 -88 -100 -102 -112 -114 -124 -125 -146 -147 -156 0
-20 -38 -39 -72 -73 -87 -88 -101 -102 -112 -115 -124 -125 -146 -147 -156 0
-19 -37 -38 -71 -72 -86 -87 -100 -101 -113 -114 -124 -126 -146 -147 -156 0
-20 -37 -39 -71 -72 -86 -87 -100 -101 -113 -114 -124 -126 -146 -147 -156 0
-20 -38 -39 -71 -73 -86 -87 -100 -101 -113 -114 -124 -126 -146 -147 -156 0
-20 -38 -39 -72 -73 -86 -88 -100 -101 -113 -114 -124 -126 -146 -147 -156 0
-20 -38 -39 -72 -73 -87 -88 -100 -102 -113 -114 -124 -126 -146 -147 -156 0
-20 -38 -39 -72 -73 -87 -88 -101 -102 -113 -115 -124 -126 -146 -147 -156 0
-20 -38 -39 -72 -73 -87 -88 -101 -102 -114 -115 -124 -127 -146 -147 -156 0
-19 -37 -38 -71 -72 -86 -87 -100 -101 -113 -114 -125 -126 -146 -148 -156 0
-20 -37 -39 -71 -72 -86 -87 -100 -101 -113 -114 -125 -126 -146 -148 -156 0
-20 -38 -39 -71 -73 -86 -87 -100 -101 -113 -114 -125 -126 -146 -148 -156 0
-20 -38 -39 -72 -73 -86 -88 -100 -101 -113 -114 -125 -126 -146 -148 -156 0
-20 -38 -39 -72 -73 -87 -88 -100 -102 -113 -114 -125 -126 -146 -148 -156 0
-20 -38 -39 -72 -73 -87 -88 -101 -102 -113 -115 -125 -126 -146 -148 -156 0
-20 -38 -39 -72 -73 -87 -88 -101 -102 -114 -115 -125 -127 -146 -148 -156 0
-20 -38 -39 -72 -73 -87 -88 -101 -102 -114 -115 -126 -127 -146 -149 -156 0
-19 -37 -38 -71 -72 -86 -87 -100 -101 -113 -114 -125 -126 -147 -148 -157 0
-20 -37 -39 -71 -72 -86 -87 -100 -101 -113 -114 -125 -126 -147 -148 -157 0
-20 -38 -39 -71 -73 -86 -87 -100 -101 -113 -114 -125 -126 -147 -148 -157 0
-20 -38 -39 -72 -73 -86 -88 -100 -101 -113 -114 -125 -126 -147 -148 -157 0
-20 -38 -39 -72 -73 -87 -88 -100 -102 -113 -114 -125 -126 -147 -148 -157 0
-20 -38 -39 -72 -73 -87 -88 -101 -102 -113 -115 -125 -126 -147 -148 -157 0
-20 -38 -39 -72 -73 -87 -88 -101 -102 -114 -115 -125 -127 -147 -148 -157 0
-20 -38 -39 -72 -73 -87 -88 -101 -102 -114 -115 -126 -127 -147 -149 -157 0
-20 -38 -39 -72 -73 -87 -88 -101 -102 -114 -115 -126 -127 -148 -149 -158 0
-19 -37 -38 -71 -72 -86 -87 -100 -101 -113 -114 -125 -126 -147 -148 -166 0
-20 -37 -39 -71 -72 -86 -87 -100 -101 -113 -114 -125 -126 -147 -148 -166 0
-20 -38 -39 -71 -73 -86 -87 -100 -101 -113 -114 -125 -126 -147 -148 -166 0
-20 -38 -39 -72 -73 -86 -88 -100 -101 -113 -114 -125 -126 -147 -148 -166 0
-20 -38 -39 -72 -73 -87 -88 -100 -102 -113 -114 -125 -126 -147 -148 -166 0
-20 -38 -39 -72 -73 -87 -88 -101 -102 -113 -115 -125 -126 -147 -148 -166 0
-20 -38 -39 -72 -73 -87 -88 -101 -102 -114 -115 -125 -127 -147 -148 -166 0
-20 -38 -39 -72 -73 -87 -88 -101 -102 -114 -115 -126 -127 -147 -149 -166 0
-20 -38 -39 -72 -73 -87 -88 -101 -102 -114 -115 -126 -127 -148 -149 -167 0
-20 -38 -39 -72 -73 -87 -88 -101 -102 -114 -115 -126 -127 -148 -149 -175 0
-19 -37 -38 -71 -72 -86 -87 -100 -101 -113 -114 -125 -126 -157 -158 -166 0
-20 -37 -39 -71 -72 -86 -87 -100 -101 -113 -114 -125 -126 -157 -158 -166 0
-20 -38 -39 -71 -73 -86 -87 -100 -101 -113 -114 -125 -126 -157 -158 -166 0
-20 -38 -39 -72 -73 -86 -88 -100 -101 -113 -114 -125 -126 -157 -158 -166 0
-20 -38 -39 -72 -73 -87 -88 -100 -102 -113 -114 -125 -126 -157 -158 -166 0
-20 -38 -39 -72 -73 -87 -88 -101 -102 -113 -115 -125 -126 -157 -158 -166 0
-20 -38 -39 -72 -73 -87 -88 -101 -102 -114 -115 -125 -127 -157 -158 -166 0
-20 -38 -39 -72 -73 -87 -88 -101 -102 -114 -115 -126 -127 -157 -159 -166 0
-20 -38 -39 -72 -73 -87 -88 -101 -102 -114 -115 -126 -127 -158 -159 -167 0
-20 -38 -39 -72 -73 -87 -88 -101 -102 -114 -115 -126 -127 -158 -159 -175 0
-20 -38 -39 -72 -73 -87 -88 -101 -102 -114 -115 -126 -127 -167 -168 -175 0
-18 -36 -37 -70 -71 -85 -86 -99 -100 -112 -113 -136 -137 -146 -147 -156 0
-19 -36 -38 -70 -71 -85 -86 -99 -100 -112 -113 -136 -137 -146 -147 -156 0
-20 -36 -39 -70 -71 -85 -86 -99 -100 -112 -113 -136 -137 -146 -147 -156 0
-19 -37 -38 -70 -72 -85 -86 -99 -100 -112 -113 -136 -137 -146 -147 -156 0
-20 -37 -39 -70 -72 -85 -86 -99 -100 -112 -113 -136 -137 -146 -147 -156 0
-20 -38 -39 -70 -73 -85 -86 -99 -100 -112 -113 -136 -137 -146 -147 -156 0
-19 -37 -38 -71 -72 -85 -87 -99 -100 -112 -113 -136 -137 -146 -147 -156 0
-20 -37 -39 -71 -72 -85 -87 -99 -100 -112 -113 -136 -137 -146 -147 -156 0
-20 -38 -39 -71 -73 -85 -87 -99 -100 -112 -113 -136 -137 -146 -147 -156 0
-20 -38 -39 -72 -73 -85 -88 -99 -100 -112 -113 -136 -137 -146 -147 -156 0
-19 -37 -38 -71 -72 -86 -87 -99 -101 -112 -113 -136 -137 -146 -147 -156 0
-20 -37 -39 -71 -72 -86 -87 -99 -101 -112 -113 -136 -137 -146 -147 -156 0
-20 -38 -39 -71 -73 -86 -87 -99 -101 -112 -113 -136 -137 -146 -147 -156 0
-20 -38 -39 -72 -73 -86 -88 -99 -101 -112 -113 -136 -137 -146 -147 -156 0
-20 -38 -39 -72 -73 -87 -88 -99 -102 -112 -113 -136 -137 -146 -147 -156 0
-19 -37 -38 -71 -72 -86 -87 -100 -101 -112 -114 -136 -137 -146 -147 -156 0
-20 -37 -39 -71 -72 -86 -87 -100 -101 -112 -114 -136 -137 -146 -147 -156 0
-20 -38 -39 -71 -73 -86 -87 -100 -101 -112 -114 -136 -137 -146 -147 -156 0
-20 -38 -39 -72 -73 -86 -88 -100 -101 -112 -114 -136 -137 -146 -147 -156 0
-20 -38 -39 -72 -73 -87 -88 -100 -102 -112 -114 -136 -137 -146 -147 -156 0
-20 -38 -39 -72 -73 -87 -88 -101 -102 -112 -115 -136 -137 -146 -147 -156 0
-19 -37 -38 -71 -72 -86 -87 -100 -101 -113 -114 -136 -138 -146 -147 -156 0
-20 -37 -39 -71 -72 -86 -87 -100 -101 -113 -114 -136 -138 -146 -147 -156 0
-20 -38 -39 -71 -73 -86 -87 -100 -101 -113 -114 -136 -138 -146 -147 -156 0
-20 -38 -39 -72 -73 -86 -88 -100 -101 -113 -114 -136 -138 -146 -147 -156 0
-20 -38 -39 -72 -73 -87 -88 -100 -102 -113 -114 -136 -138 -146 -147 -156 0
-20 -38 -39 -72 -73 -87 -88 -101 -102 -113 -115 -136 -138 -146 -147 -156 0
-20 -38 -39 -72 -73 -87 -88 -101 -102 -114 -115 -136 -139 -146 -147 -156 0
-19 -37 -38 -71 -72 -86 -87 -100 -101 -113 -114 -137 -138 -146 -148 -156 0
-20 -37 -39 -71 -72 -86 -87 -100 -101 -113 -114 -137 -138 -146 -148 -156 0
-20 -38 -39 -71 -73 -86 -87 -100 -101 -113 -114 -137 -138 -146 -148 -156 0
-20 -38 -39 -72 -73 -86 -88 -100 -101 -113 -114 -137 -138 -146 -148 -156 0
-20 -38 -39 -72 -73 -87 -88 -100 -102 -113 -114 -137 -138 -146 -148 -156 0
-20 -38 -39 -72 -73 -87 -88 -101 -102 -113 -115 -137 -138 -146 -148 -156 0
-20 -38 -39 -72 -73 -87 -88 -101 -102 -114 -115 -137 -139 -146 -148 -156 0
-20 -38 -39 -72 -73 -87 -88 -101 -102 -114 -115 -138 -139 -146 -149 -156 0
-19 -37 -38 -71 -72 -86 -87 -100 -101 -113 -114 -137 -138 -147 -148 -157 0
-20 -37 -39 -71 -72 -86 -87 -100 -101 -113 -114 -137 -138 -147 -148 -157 0
-20 -38 -39 -71 -73 -86 -87 -100 -101 -113 -114 -137 -138 -147 -148 -157 0
-20 -38 -39 -72 -73 -86 -88 -100 -101 -113 -114 -137 -138 -147 -148 -157 0
-20 -38 -39 -72 -73 -87 -88 -100 -102 -113 -114 -137 -138 -147 -148 -157 0
-20 -38 -39 -72 -73 -87 -88 -101 -102 -113 -115 -137 -138 -147 -148 -157 0
-20 -38 -39 -72 -73 -87 -88 -101 -102 -114 -115 -137 -139 -147 -148 -157 0
-20 -38 -39 -72 -73 -87 -88 -101 -102 -114 -115 -138 -139 -147 -149 -157 0
-20 -38 -39 -72 -73 -87 -88 -101 -102 -114 -115 -138 -139 -148 -149 -158 0
-19 -37 -38 -71 -72 -86 -87 -100 -101 -113 -114 -137 -138 -147 -148 -166 0
-20 -37 -39 -71 -72 -86 -87 -100 -101 -113 -114 -137 -138 -147 -148 -166 0
-20 -38 -39 -71 -73 -86 -87 -100 -101 -113 -114 -137 -138 -147 -148 -166 0
-20 -38 -39 -72 -73 -86 -88 -100 -101 -113 -114 -137 -138 -147 -148 -166 0
-20 -38 -39 -72 -73 -87 -88 -100 -102 -113 -114 -137 -138 -147 -148 -166 0
-20 -38 -39 -72 -73 -87 -88 -101 -102 -113 -115 -137 -138 -147 -148 -166 0
-20 -38 -39 -72 -73 -87 -88 -101 -102 -114 -115 -137 -139 -147 -148 -166 0
-20 -38 -39 -72 -73 -87 -88 -101 -102 -114 -115 -138 -139 -147 -149 -166 0
-20 -38 -39 -72 -73 -87 -88 -101 -102 -114 -115 -138 -139 -148 -149 -167 0
-20 -38 -39 -72 -73 -87 -88 -101 -102 -114 -115 -138 -139 -148 -149 -175 0
-19 -37 -38 -71 -72 -86 -87 -100 -101 -113 -114 -137 -138 -157 -158 -166 0
-20 -37 -39 -71 -72 -86 -87 -100 -101 -113 -114 -137 -138 -157 -158 -166 0
-20 -38 -39 -71 -73 -86 -87 -100 -101 -113 -114 -137 -138 -157 -158 -166 0
-20 -38 -39 -72 -73 -86 -88 -100 -101 -113 -114 -137 -138 -157 -158 -166 0
-20 -38 -39 -72 -73 -87 -88 -100 -102 -113 -114 -137 -138 -157 -158 -166 0
-20 -38 -39 -72 -73 -87 -88 -101 -102 -113 -115 -137 -138 -157 -158 -166 0
-20 -38 -39 -72 -73 -87 -88 -101 -102 -114 -115 -137 -139 -157 -158 -166 0
-20 -38 -39 -72 -73 -87 -88 -101 -102 -114 -115 -138 -139 -157 -159 -166 0
-20 -38 -39 -72 -73 -87 -88 -101 -102 -114 -115 -138 -139 -158 -159 -167 0
-20 -38 -39 -72 -73 -87 -88 -101 -102 -114 -115 -138 -139 -158 -159 -175 0
-20 -38 -39 -72 -73 -87 -88 -101 -102 -114 -115 -138 -139 -167 -168 -175 0
-19 -37 -38 -71 -72 -86 -87 -100 -101 -113 -114 -148 -149 -157 -158 -166 0
-20 -37 -39 -71 -72 -86 -87 -100 -101 -113 -114 -148 -149 -157 -158 -166 0
-20 -38 -39 -71 -73 -86 -87 -100 -101 -113 -114 -148 -149 -157 -158 -166 0
-20 -38 -39 -72 -73 -86 -88 -100 -101 -113 -114 -148 -149 -157 -158 -166 0
-20 -38 -39 -72 -73 -87 -88 -100 -102 -113 -114 -148 -149 -157 -158 -166 0
-20 -38 -39 -72 -73 -87 -88 -101 -102 -113 -115 -148 -149 -157 -158 -166 0
-20 -38 -39 -72 -73 -87 -88 -101 -102 -114 -115 -148 -150 -157 -158 -166 0
-20 -38 -39 -72 -73 -87 -88 -101 -102 -114 -115 -149 -150 -157 -159 -166 0
-20 -38 -39 -72 -73 -87 -88 -101 -102 -114 -115 -149 -150 -158 -159 -167 0
-20 -38 -39 -72 -73 -87 -88 -101 -102 -114 -115 -149 -150 -158 -159 -175 0
-20 -38 -39 -72 -73 -87 -88 -101 -102 -114 -115 -149 -150 -167 -168 -175 0
-20 -38 -39 -72 -73 -87 -88 -101 -102 -114 -115 -159 -160 -167 -168 -175 0
-18 -36 -37 -70 -71 -85 -86 -99 -100 -125 -126 -136 -137 -146 -147 -156 0
-19 -36 -38 -70 -71 -85 -86 -99 -100 -125 -126 -136 -137 -146 -147 -156 0
-20 -36 -39 -70 -71 -85 -86 -99 -100 -125 -126 -136 -137 -146 -147 -156 0
-19 -37 -38 -70 -72 -85 -86 -99 -100 -125 -126 -136 -137 -146 -147 -156 0
-20 -37 -39 -70 -72 -85 -86 -99 -100 -125 -126 -136 -137 -146 -147 -156 0
-20 -38 -39 -70 -73 -85 -86 -99 -100 -125 -126 -136 -137 -146 -147 -156 0
-19 -37 -38 -71 -72 -85 -87 -99 -100 -125 -126 -136 -137 -146 -147 -156 0
-20 -37 -39 -71 -72 -85 -87 -99 -100 -125 -126 -136 -137 -146 -147 -156 0
-20 -38 -39 -71 -73 -85 -87 -99 -100 -125 -126 -136 -137 -146 -147 -156 0
-20 -38 -39 -72 -73 -85 -88 -99 -100 -125 -126 -136 -137 -146 -147 -156 0
-19 -37 -38 -71 -72 -86 -87 -99 -101 -125 -126 -136 -137 -146 -147 -156 0
-20 -37 -39 -71 -72 -86 -87 -99 -101 -125 -126 -136 -137 -146 -147 -156 0
-20 -38 -39 -71 -73 -86 -87 -99 -101 -125 -126 -136 -137 -146 -147 -156 0
-20 -38 -39 -72 -73 -86 -88 -99 -101 -125 -126 -136 -137 -146 -147 -156 0
-20 -38 -39 -72 -73 -87 -88 -99 -102 -125 -126 -136 -137 -146 -147 -156 0
-19 -37 -38 -71 -72 -86 -87 -100 -101 -125 -127 -136 -137 -146 -147 -156 0
-20 -37 -39 -71 -72 -86 -87 -100 -101 -125 -127 -136 -137 -146 -147 -156 0
-20 -38 -39 -71 -73 -86 -87 -100 -101 -125 -127 -136 -137 -146 -147 -156 0
-20 -38 -39 -72 -73 -86 -88 -100 -101 -125 -127 -136 -137 -146 -147 -156 0
-20 -38 -39 -72 -73 -87 -88 -100 -102 -125 -127 -136 -137 -146 -147 -156 0
-20 -38 -39 -72 -73 -87 -88 -101 -102 -125 -128 -136 -137 -146 -147 -156 0
-19 -37 -38 -71 -72 -86 -87 -100 -101 -126 -127 -136 -138 -146 -147 -156 0
-20 -37 -39 -71 -72 -86 -87 -100 -101 -126 -127 -136 -138 -146 -147 -156 0
-20 -38 -39 -71 -73 -86 -87 -100 -101 -126 -127 -136 -138 -146 -147 -156 0
-20 -38 -39 -72 -73 -86 -88 -100 -101 -126 -127 -136 -138 -146 -147 -156 0
-20 -38 -39 -72 -73 -87 -88 -100 -102 -126 -127 -136 -138 -146 -147 -156 0
-20 -38 -39 -72 -73 -87 -88 -101 -102 -126 -128 -136 -138 -146 -147 -156 0
-20 -38 -39 -72 -73 -87 -88 -101 -102 -127 -128 -136 -139 -146 -147 -156 0
-19 -37 -38 -71 -72 -86 -87 -100 -101 -126 -127 -137 -138 -146 -148 -156 0
-20 -37 -39 -71 -72 -86 -87 -100 -101 -126 -127 -137 -138 -146 -148 -156 0
-20 -38 -39 -71 -73 -86 -87 -100 -101 -126 -127 -137 -138 -146 -148 -156 0
-20 -38 -39 -72 -73 -86 -88 -100 -101 -126 -127 -137 -138 -146 -148 -156 0
-20 -38 -39 -72 -73 -87 -88 -100 -102 -126 -127 -137 -138 -146 -148 -156 0
-20 -38 -39 -72 -73 -87 -88 -101 -102 -126 -128 -137 -138 -146 -148 -156 0
-20 -38 -39 -72 -73 -87 -88 -101 -102 -127 -128 -137 -139 -146 -148 -156 0
-20 -38 -39 -72 -73 -87 -88 -101 -102 -127 -128 -138 -139 -146 -149 -156 0
-19 -37 -38 -71 -72 -86 -87 -100 -101 -126 -127 -137 -138 -147 -148 -157 0
-20 -37 -39 -71 -72 -86 -87 -100 -101 -126 -127 -137 -138 -147 -148 -157 0
-20 -38 -39 -71 -73 -86 -87 -100 -101 -126 -127 -137 -138 -147 -148 -157 0
-20 -38 -39 -72 -73 -86 -88 -100 -101 -126 -127 -137 -138 -147 -148 -157 0
-20 -38 -39 -72 -73 -87 -88 -100 -102 -126 -127 -137 -138 -147 -148 -157 0
-20 -38 -39 -72 -73 -87 -88 -101 -102 -126 -128 -137 -138 -147 -148 -157 0
-20 -38 -39 -72 -73 -87 -88 -101 -102 -127 -128 -137 -139 -147 -148 -157 0
-20 -38 -39 -72 -73 -87 -88 -101 -102 -127 -128 -138 -139 -147 -149 -157 0
-20 -38 -39 -72 -73 -87 -88 -101 -102 -127 -128 -138 -139 -148 -149 -158 0
-19 -37 -38 -71 -72 -86 -87 -100 -101 -126 -127 -137 -138 -147 -148 -166 0
-20 -37 -39 -71 -72 -86 -87 -100 -101 -126 -127 -137 -138 -147 -148 -166 0
-20 -38 -39 -71 -73 -86 -87 -100 -101 -126 -127 -137 -138 -147 -148 -166 0
-20 -38 -39 -72 -73 -86 -88 -100 -101 -126 -127 -137 -138 -147 -148 -166 0
-20 -38 -39 -72 -73 -87 -88 -100 -102 -126 -127 -137 -138 -147 -148 -166 0
-20 -38 -39 -72 -73 -87 -88 -101 -102 -126 -128 -137 -138 -147 -148 -166 0
-20 -38 -39 -72 -73 -87 -88 -101 -102 -127 -128 -137 -139 -147 -148 -166 0
-20 -38 -39 -72 -73 -87 -88 -101 -102 -127 -128 -138 -139 -147 -149 -166 0
-20 -38 -39 -72 -73 -87 -88 -101 -102 -127 -128 -138 -139 -148 -149 -167 0
-20 -38 -39 -72 -73 -87 -88 -101 -102 -127 -128 -138 -139 -148 -149 -175 0
-19 -37 -38 -71 -72 -86 -87 -100 -101 -126 -127 -137 -138 -157 -158 -166 0
-20 -37 -39 -71 -72 -86 -87 -100 -101 -126 -127 -137 -138 -157 -158 -166 0
-20 -38 -39 -71 -73 -86 -87 -100 -101 -126 -127 -137 -138 -157 -158 -166 0
-20 -38 -39 -72 -73 -86 -88 -100 -101 -126 -127 -137 -138 -157 -158 -166 0
-20 -38 -39 -72 -73 -87 -88 -100 -102 -126 -127 -137 -138 -157 -158 -166 0
-20 -38 -39 -72 -73 -87 -88 -101 -102 -126 -128 -137 -138 -157 -158 -166 0
-20 -38 -39 -72 -73 -87 -88 -101 -102 -127 -128 -137 -139 -157 -158 -166 0
-20 -38 -39 -72 -73 -87 -88 -101 -102 -127 -128 -138 -139 -157 -159 -166 0
-20 -38 -39 -72 -73 -87 -88 -101 -102 -127 -128 -138 -139 -158 -159 -167 0
-20 -38 -39 -72 -73 -87 -88 -101 -102 -127 -128 -138 -139 -158 -159 -175 0
-20 -38 -39 -72 -73 -87 -88 -101 -102 -127 -128 -138 -139 -167 -168 -175 0
-19 -37 -38 -71 -72 -86 -87 -100 -101 -126 -127 -148 -149 -157 -158 -166 0
-20 -37 -39 -71 -72 -86 -87 -100 -101 -126 -127 -148 -149 -157 -158 -166 0
-20 -38 -39 -71 -73 -86 -87 -100 -101 -126 -127 -148 -149 -157 -158 -166 0
-20 -38 -39 -72 -73 -86 -88 -100 -101 -126 -127 -148 -149 -157 -158 -166 0
-20 -38 -39 -72 -73 -87 -88 -100 -102 -126 -127 -148 -149 -157 -158 -166 0
-20 -38 -39 -72 -73 -87 -88 -101 -102 -126 -128 -148 -149 -157 -158 -166 0
-20 -38 -39 -72 -73 -87 -88 -101 -102 -127 -128 -148 -150 -157 -158 -166 0
-20 -38 -39 -72 -73 -87 -88 -101 -102 -127 -128 -149 -150 -157 -159 -166 0
-20 -38 -39 -72 -73 -87 -88 -101 -102 -127 -128 -149 -150 -158 -159 -167 0
-20 -38 -39 -72 -73 -87 -88 -101 -102 -127 -128 -149 -150 -158 -159 -175 0
-20 -38 -39 -72 -73 -87 -88 -101 -102 -127 -128 -149 -150 -167 -168 -175 0
-20 -38 -39 -72 -73 -87 -88 -101 -102 -127 -128 -159 -160 -167 -168 -175 0
-19 -37 -38 -71 -72 -86 -87 -100 -101 -138 -139 -148 -149 -157 -158 -166 0
-20 -37 -39 -71 -72 -86 -87 -100 -101 -138 -139 -148 -149 -157 -158 -166 0
-20 -38 -39 -71 -73 -86 -87 -100 -101 -138 -139 -148 -149 -157 -158 -166 0
-20 -38 -39 -72 -73 -86 -88 -100 -101 -138 -139 -148 -149 -157 -158 -166 0
-20 -38 -39 -72 -73 -87 -88 -100 -102 -138 -139 -148 -149 -157 -158 -166 0
-20 -38 -39 -72 -73 -87 -88 -101 -102 -138 -140 -148 -149 -157 -158 -166 0
-20 -38 -39 -72 -73 -87 -88 -101 -102 -139 -140 -148 -150 -157 -158 -166 0
-20 -38 -39 -72 -73 -87 -88 -101 -102 -139 -140 -149 -150 -157 -159 -166 0
-20 -38 -39 -72 -73 -87 -88 -101 -102 -139 -140 -149 -150 -158 -159 -167 0
-20 -38 -39 -72 -73 -87 -88 -101 -102 -139 -140 -149 -150 -158 -159 -175 0
-20 -38 -39 -72 -73 -87 -88 -101 -102 -139 -140 -149 -150 -167 -168 -175 0
-20 -38 -39 -72 -73 -87 -88 -101 -102 -139 -140 -159 -160 -167 -168 -175 0
-20 -38 -39 -72 -73 -87 -88 -101 -102 -150 -151 -159 -160 -167 -168 -175 0
-18 -36 -37 -70 -71 -85 -86 -113 -114 -125 -126 -136 -137 -146 -147 -156 0
-19 -36 -38 -70 -71 -85 -86 -113 -114 -125 -126 -136 -137 -146 -147 -156 0
-20 -36 -39 -70 -71 -85 -86 -113 -114 -125 -126 -136 -137 -146 -147 -156 0
-19 -37 -38 -70 -72 -85 -86 -113 -114 -125 -126 -136 -137 -146 -147 -156 0
-20 -37 -39 -70 -72 -85 -86 -113 -114 -125 -126 -136 -137 -146 -147 -156 0
-20 -38 -39 -70 -73 -85 -86 -113 -114 -125 -126 -136 -137 -146 -147 -156 0
-19 -37 -38 -71 -72 -85 -87 -113 -114 -125 -126 -136 -137 -146 -147 -156 0
-20 -37 -39 -71 -72 -85 -87 -113 -114 -125 -126 -136 -137 -146 -147 -156 0
-20 -38 -39 -71 -73 -85 -87 -113 -114 -125 -126 -136 -137 -146 -147 -156 0
-20 -38 -39 -72 -73 -85 -88 -113 -114 -125 -126 -136 -137 -146 -147 -156 0
-19 -37 -38 -71 -72 -86 -87 -113 -115 -125 -126 -136 -137 -146 -147 -156 0
-20 -37 -39 -71 -72 -86 -87 -113 -115 -125 -126 -136 -137 -146 -147 -156 0
-20 -38 -39 -71 -73 -86 -87 -113 -115 -125 -126 -136 -137 -146 -147 -156 0
-20 -38 -39 -72 -73 -86 -88 -113 -115 -125 -126 -136 -137 -146 -147 -156 0
-20 -38 -39 -72 -73 -87 -88 -113 -116 -125 -126 -136 -137 -146 -147 -156 0
-19 -37 -38 -71 -72 -86 -87 -114 -115 -125 -127 -136 -137 -146 -147 -156 0
-20 -37 -39 -71 -72 -86 -87 -114 -115 -125 -127 -136 -137 -146 -147 -156 0
-20 -38 -39 -71 -73 -86 -87 -114 -115 -125 -127 -136 -137 -146 -147 -156 0
-20 -38 -39 -72 -73 -86 -88 -114 -115 -125 -127 -136 -137 -146 -147 -156 0
-20 -38 -39 -72 -73 -87 -88 -114 -116 -125 -127 -136 -137 -146 -147 -156 0
-20 -38 -39 -72 -73 -87 -88 -115 -116 -125 -128 -136 -137 -146 -147 -156 0
-19 -37 -38 -71 -72 -86 -87 -114 -115 -126 -127 -136 -138 -146 -147 -156 0
-20 -37 -39 -71 -72 -86 -87 -114 -115 -126 -127 -136 -138 -146 -147 -156 0
-20 -38 -39 -71 -73 -86 -87 -114 -115 -126 -127 -136 -138 -146 -147 -156 0
-20 -38 -39 -72 -73 -86 -88 -114 -115 -126 -127 -136 -138 -146 -147 -156 0
-20 -38 -39 -72 -73 -87 -88 -114 -116 -126 -127 -136 -138 -146 -147 -156 0
-20 -38 -39 -72 -73 -87 -88 -115 -116 -126 -128 -136 -138 -146 -147 -156 0
-20 -38 -39 -72 -73 -87 -88 -115 -116 -127 -128 -136 -139 -146 -147 -156 0
-19 -37 -38 -71 -72 -86 -87 -114 -115 -126 -127 -137 -138 -146 -148 -156 0
-20 -37 -39 -71 -72 -86 -87 -114 -115 -126 -127 -137 -138 -146 -148 -156 0
-20 -38 -39 -71 -73 -86 -87 -114 -115 -126 -127 -137 -138 -146 -148 -156 0
-20 -38 -39 -72 -73 -86 -88 -114 -115 -126 -127 -137 -138 -146 -148 -156 0
-20 -38 -39 -72 -73 -87 -88 -114 -116 -126 -127 -137 -138 -146 -148 -156 0
-20 -38 -39 -72 -73 -87 -88 -115 -116 -126 -128 -137 -138 -146 -148 -156 0
-20 -38 -39 -72 -73 -87 -88 -115 -116 -127 -128 -137 -139 -146 -148 -156 0
-20 -38 -39 -72 -73 -87 -88 -115 -116 -127 -128 -138 -139 -146 -149 -156 0
-19 -37 -38 -71 -72 -86 -87 -114 -115 -126 -127 -137 -138 -147 -148 -157 0
-20 -37 -39 -71 -72 -86 -87 -114 -115 -126 -127 -137 -138 -147 -148 -157 0
-20 -38 -39 -71 -73 -86 -87 -114 -115 -126 -127 -137 -138 -147 -148 -157 0
-20 -38 -39 -72 -73 -86 -88 -114 -115 -126 -127 -137 -138 -147 -148 -157 0
-20 -38 -39 -72 -73 -87 -88 -114 -116 -126 -127 -137 -138 -147 -148 -157 0
-20 -38 -39 -72 -73 -87 -88 -115 -116 -126 -128 -137 -138 -147 -148 -157 0
-20 -38 -39 -72 -73 -87 -88 -115 -116 -127 -128 -137 -139 -147 -148 -157 0
-20 -38 -39 -72 -73 -87 -88 -115 -116 -127 -128 -138 -139 -147 -149 -157 0
-20 -38 -39 -72 -73 -87 -88 -115 -116 -127 -128 -138 -139 -148 -149 -158 0
-19 -37 -38 -71 -72 -86 -87 -114 -115 -126 -127 -137 -138 -147 -148 -166 0
-20 -37 -39 -71 -72 -86 -87 -114 -115 -126 -127 -137 -138 -147 -148 -166 0
-20 -38 -39 -71 -73 -86 -87 -114 -115 -126 -127 -137 -138 -147 -148 -166 0
-20 -38 -39 -72 -73 -86 -88 -114 -115 -126 -127 -137 -138 -147 -148 -166 0
-20 -38 -39 -72 -73 -87 -88 -114 -116 -126 -127 -137 -138 -147 -148 -166 0
-20 -38 -39 -72 -73 -87 -88 -115 -116 -126 -128 -137 -138 -147 -148 -166 0
-20 -38 -39 -72 -73 -87 -88 -115 -116 -127 -128 -137 -139 -147 -148 -166 0
-20 -38 -39 -72 -73 -87 -88 -115 -116 -127 -128 -138 -139 -147 -149 -166 0
-20 -38 -39 -72 -73 -87 -88 -115 -116 -127 -128 -138 -139 -148 -149 -167 0
-20 -38 -39 -72 -73 -87 -88 -115 -116 -127 -128 -138 -139 -148 -149 -175 0
-19 -37 -38 -71 -72 -86 -87 -114 -115 -126 -127 -137 -138 -157 -158 -166 0
-20 -37 -39 -71 -72 -86 -87 -114 -115 -126 -127 -137 -138 -157 -158 -166 0
-20 -38 -39 -71 -73 -86 -87 -114 -115 -126 -127 -137 -138 -157 -158 -166 0
-20 -38 -39 -72 -73 -86 -88 -114 -115 -126 -127 -137 -138 -157 -158 -166 0
-20 -38 -39 -72 -73 -87 -88 -114 -116 -126 -127 -137 -138 -157 -158 -166 0
-20 -38 -39 -72 -73 -87 -88 -115 -116 -126 -128 -137 -138 -157 -158 -166 0
-20 -38 -39 -72 -73 -87 -88 -115 -116 -127 -128 -137 -139 -157 -158 -166 0
-20 -38 -39 -72 -73 -87 -88 -115 -116 -127 -128 -138 -139 -157 -159 -166 0
-20 -38 -39 -72 -73 -87 -88 -115 -116 -127 -128 -138 -139 -158 -159 -167 0
-20 -38 -39 -72 -73 -87 -88 -115 -116 -127 -128 -138 -139 -158 -159 -175 0
-20 -38 -39 -72 -73 -87 -88 -115 -116 -127 -128 -138 -139 -167 -168 -175 0
-19 -37 -38 -71 -72 -86 -87 -114 -115 -126 -127 -148 -149 -157 -158 -166 0
-20 -37 -39 -71 -72 -86 -87 -114 -115 -126 -127 -148 -149 -157 -158 -166 0
-20 -38 -39 -71 -73 -86 -87 -114 -115 -126 -127 -148 -149 -157 -158 -166 0
-20 -38 -39 -72 -73 -86 -88 -114 -115 -126 -127 -148 -149 -157 -158 -166 0
-20 -38 -39 -72 -73 -87 -88 -114 -116 -126 -127 -148 -149 -157 -158 -166 0
-20 -38 -39 -72 -73 -87 -88 -115 -116 -126 -128 -148 -149 -157 -158 -166 0
-20 -38 -39 -72 -73 -87 -88 -115 -116 -127 -128 -148 -150 -157 -158 -166 0
-20 -38 -39 -72 -73 -87 -88 -115 -116 -127 -128 -149 -150 -157 -159 -166 0
-20 -38 -39 -72 -73 -87 -88 -115 -116 -127 -128 -149 -150 -158 -159 -167 0
-20 -38 -39 -72 -73 -87 -88 -115 -116 -127 -128 -149 -150 -158 -159 -175 0
-20 -38 -39 -72 -73 -87 -88 -115 -116 -127 -128 -149 -150 -167 -168 -175 0
-20 -38 -39 -72 -73 -87 -88 -115 -116 -127 -128 -159 -160 -167 -168 -175 0
-19 -37 -38 -71 -72 -86 -87 -114 -115 -138 -139 -148 -149 -157 -158 -166 0
-20 -37 -39 -71 -72 -86 -87 -114 -115 -138 -139 -148 -149 -157 -158 -166 0
-20 -38 -39 -71 -73 -86 -87 -114 -115 -138 -139 -148 -149 -157 -158 -166 0
-20 -38 -39 -72 -73 -86 -88 -114 -115 -138 -139 -148 -149 -157 -158 -166 0
-20 -38 -39 -72 -73 -87 -88 -114 -116 -138 -139 -148 -149 -157 -158 -166 0
-20 -38 -39 -72 -73 -87 -88 -115 -116 -138 -140 -148 -149 -157 -158 -166 0
-20 -38 -39 -72 -73 -87 -88 -115 -116 -139 -140 -148 -150 -157 -158 -166 0
-20 -38 -39 -72 -73 -87 -88 -115 -116 -139 -140 -149 -150 -157 -159 -166 0
-20 -38 -39 -72 -73 -87 -88 -115 -116 -139 -140 -149 -150 -158 -159 -167 0
-20 -38 -39 -72 -73 -87 -88 -115 -116 -139 -140 -149 -150 -158 -159 -175 0
-20 -38 -39 -72 -73 -87 -88 -115 -116 -139 -140 -149 -150 -167 -168 -175 0
-20 -38 -39 -72 -73 -87 -88 -115 -116 -139 -140 -159 -160 -167 -168 -175 0
-20 -38 -39 -72 -73 -87 -88 -115 -116 -150 -151 -159 -160 -167 -168 -175 0
-19 -37 -38 -71 -72 -86 -87 -127 -128 -138 -139 -148 -149 -157 -158 -166 0
-20 -37 -39 -71 -72 -86 -87 -127 -128 -138 -139 -148 -149 -157 -158 -166 0
-20 -38 -39 -71 -73 -86 -87 -127 -128 -138 -139 -148 -149 -157 -158 -166 0
-20 -38 -39 -72 -73 -86 -88 -127 -128 -138 -139 -148 -149 -157 -158 -166 0
-20 -38 -39 -72 -73 -87 -88 -127 -129 -138 -139 -148 -149 -157 -158 -166 0
-20 -38 -39 -72 -73 -87 -88 -128 -129 -138 -140 -148 -149 -157 -158 -166 0
-20 -38 -39 -72 -73 -87 -88 -128 -129 -139 -140 -148 -150 -157 -158 -166 0
-20 -38 -39 -72 -73 -87 -88 -128 -129 -139 -140 -149 -150 -157 -159 -166 0
-20 -38 -39 -72 -73 -87 -88 -128 -129 -139 -140 -149 -150 -158 -159 -167 0
-20 -38 -39 -72 -73 -87 -88 -128 -129 -139 -140 -149 -150 -158 -159 -175 0
-20 -38 -39 -72 -73 -87 -88 -128 -129 -139 -140 -149 -150 -167 -168 -175 0
-20 -38 -39 -72 -73 -87 -88 -128 -129 -139 -140 -159 -160 -167 -168 -175 0
-20 -38 -39 -72 -73 -87 -88 -128 -129 -150 -151 -159 -160 -167 -168 -175 0
-20 -38 -39 -72 -73 -87 -88 -140 -141 -150 -151 -159 -160 -167 -168 -175 0
-18 -36 -37 -70 -71 -100 -101 -113 -114 -125 -126 -136 -137 -146 -147 -156 0
-19 -36 -38 -70 -71 -100 -101 -113 -114 -125 -126 -136 -137 -146 -147 -156 0
-20 -36 -39 -70 -71 -100 -101 -113 -114 -125 -126 -136 -137 -146 -147 -156 0
-19 -37 -38 -70 -72 -100 -101 -113 -114 -125 -126 -136 -137 -146 -147 -156 0
-20 -37 -39 -70 -72 -100 -101 -113 -114 -125 -126 -136 -137 -146 -147 -156 0
-20 -38 -39 -70 -73 -100 -101 -113 -114 -125 -126 -136 -137 -146 -147 -156 0
-19 -37 -38 -71 -72 -100 -102 -113 -114 -125 -126 -136 -137 -146 -147 -156 0
-20 -37 -39 -71 -72 -100 -102 -113 -114 -125 -126 -136 -137 -146 -147 -156 0
-20 -38 -39 -71 -73 -100 -102 -113 -114 -125 -126 -136 -137 -146 -147 -156 0
-20 -38 -39 -72 -73 -100 -103 -113 -114 -125 -126 -136 -137 -146 -147 -156 0
-19 -37 -38 -71 -72 -101 -102 -113 -115 -125 -126 -136 -137 -146 -147 -156 0
-20 -37 -39 -71 -72 -101 -102 -113 -115 -125 -126 -136 -137 -146 -147 -156 0
-20 -38 -39 -71 -73 -101 -102 -113 -115 -125 -126 -136 -137 -146 -147 -156 0
-20 -38 -39 -72 -73 -101 -103 -113 -115 -125 -126 -136 -137 -146 -147 -156 0
-20 -38 -39 -72 -73 -102 -103 -113 -116 -125 -126 -136 -137 -146 -147 -156 0
-19 -37 -38 -71 -72 -101 -102 -114 -115 -125 -127 -136 -137 -146 -147 -156 0
-20 -37 -39 -71 -72 -101 -102 -114 -115 -125 -127 -136 -137 -146 -147 -156 0
-20 -38 -39 -71 -73 -101 -102 -114 -115 -125 -127 -136 -137 -146 -147 -156 0
-20 -38 -39 -72 -73 -101 -103 -114 -115 -125 -127 -136 -137 -146 -147 -156 0
-20 -38 -39 -72 -73 -102 -103 -114 -116 -125 -127 -136 -137 -146 -147 -156 0
-20 -38 -39 -72 -73 -102 -103 -115 -116 -125 -128 -136 -137 -146 -147 -156 0
-19 -37 -38 -71 -72 -101 -102 -114 -115 -126 -127 -136 -138 -146 -147 -156 0
-20 -37 -39 -71 -72 -101 -102 -114 -115 -126 -127 -136 -138 -146 -147 -156 0
-20 -38 -39 -71 -73 -101 -102 -114 -115 -126 -127 -136 -138 -146 -147 -156 0
-20 -38 -39 -72 -73 -101 -103 -114 -115 -126 -127 -136 -138 -146 -147 -156 0
-20 -38 -39 -72 -73 -102 -103 -114 -116 -126 -127 -136 -138 -146 -147 -156 0
-20 -38 -39 -72 -73 -102 -103 -115 -116 -126 -128 -136 -138 -146 -147 -156 0
-20 -38 -39 -72 -73 -102 -103 -115 -116 -127 -128 -136 -139 -146 -147 -156 0
-19 -37 -38 -71 -72 -101 -102 -114 -115 -126 -127 -137 -138 -146 -148 -156 0
-20 -37 -39 -71 -72 -101 -102 -114 -115 -126 -127 -137 -138 -146 -148 -156 0
-20 -38 -39 -71 -73 -101 -102 -114 -115 -126 -127 -137 -138 -146 -148 -156 0
-20 -38 -39 -72 -73 -101 -103 -114 -115 -126 -127 -137 -138 -146 -148 -156 0
-20 -38 -39 -72 -73 -102 -103 -114 -116 -126 -127 -137 -138 -146 -148 -156 0
-20 -38 -39 -72 -73 -102 -103 -115 -116 -126 -128 -137 -138 -146 -148 -156 0
-20 -38 -39 -72 -73 -102 -103 -115 -116 -127 -128 -137 -139 -146 -148 -156 0
-20 -38 -39 -72 -73 -102 -103 -115 -116 -127 -128 -138 -139 -146 -149 -156 0
-19 -37 -38 -71 -72 -101 -102 -114 -115 -126 -127 -137 -138 -147 -148 -157 0
-20 -37 -39 -71 -72 -101 -102 -114 -115 -126 -127 -137 -138 -147 -148 -157 0
-20 -38 -39 -71 -73 -101 -102 -114 -115 -126 -127 -137 -138 -147 -148 -157 0
-20 -38 -39 -72 -73 -101 -103 -114 -115 -126 -127 -137 -138 -147 -148 -157 0
-20 -38 -39 -72 -73 -102 -103 -114 -116 -126 -127 -137 -138 -147 -148 -157 0
-20 -38 -39 -72 -73 -102 -103 -115 -116 -126 -128 -137 -138 -147 -148 -157 0
-20 -38 -39 -72 -73 -102 -103 -115 -116 -127 -128 -137 -139 -147 -148 -157 0
-20 -38 -39 -72 -73 -102 -103 -115 -116 -127 -128 -138 -139 -147 -149 -157 0
-20 -38 -39 -72 -73 -102 -103 -115 -116 -127 -128 -138 -139 -148 -149 -158 0
-19 -37 -38 -71 -72 -101 -102 -114 -115 -126 -127 -137 -138 -147 -148 -166 0
-20 -37 -39 -71 -72 -101 -102 -114 -115 -126 -127 -137 -138 -147 -148 -166 0
-20 -38 -39 -71 -73 -101 -102 -114 -115 -126 -127 -137 -138 -147 -148 -166 0
-20 -38 -39 -72 -73 -101 -103 -114 -115 -126 -127 -137 -138 -147 -148 -166 0
-20 -38 -39 -72 -73 -102 -103 -114 -116 -126 -127 -137 -138 -147 -148 -166 0
-20 -38 -39 -72 -73 -102 -103 -115 -116 -126 -128 -137 -138 -147 -148 -166 0
-20 -38 -39 -72 -73 -102 -103 -115 -116 -127 -128 -137 -139 -147 -148 -166 0
-20 -38 -39 -72 -73 -102 -103 -115 -116 -127 -128 -138 -139 -147 -149 -166 0
-20 -38 -39 -72 -73 -102 -103 -115 -116 -127 -128 -138 -139 -148 -149 -167 0
-20 -38 -39 -72 -73 -102 -103 -115 -116 -127 -128 -138 -139 -148 -149 -175 0
-19 -37 -38 -71 -72 -101 -102 -114 -115 -126 -127 -137 -138 -157 -158 -166 0
-20 -37 -39 -71 -72 -101 -102 -114 -115 -126 -127 -137 -138 -157 -158 -166 0
-20 -38 -39 -71 -73 -101 -102 -114 -115 -126 -127 -137 -138 -157 -158 -166 0
-20 -38 -39 -72 -73 -101 -103 -114 -115 -126 -127 -137 -138 -157 -158 -166 0
-20 -38 -39 -72 -73 -102 -103 -114 -116 -126 -127 -137 -138 -157 -158 -166 0
-20 -38 -39 -72 -73 -102 -103 -115 -116 -126 -128 -137 -138 -157 -158 -166 0
-20 -38 -39 -72 -73 -102 -103 -115 -116 -127 -128 -137 -139 -157 -158 -166 0
-20 -38 -39 -72 -73 -102 -103 -115 -116 -127 -128 -138 -139 -157 -159 -166 0
-20 -38 -39 -72 -73 -102 -103 -115 -116 -127 -128 -138 -139 -158 -159 -167 0
-20 -38 -39 -72 -73 -102 -103 -115 -116 -127 -128 -138 -139 -158 -159 -175 0
-20 -38 -39 -72 -73 -102 -103 -115 -116 -127 -128 -138 -139 -167 -168 -175 0
-19 -37 -38 -71 -72 -101 -102 -114 -115 -126 -127 -148 -149 -157 -158 -166 0
-20 -37 -39 -71 -72 -101 -102 -114 -115 -126 -127 -148 -149 -157 -158 -166 0
-20 -38 -39 -71 -73 -101 -102 -114 -115 -126 -127 -148 -149 -157 -158 -166 0
-20 -38 -39 -72 -73 -101 -103 -114 -115 -126 -127 -148 -149 -157 -158 -166 0
-20 -38 -39 -72 -73 -102 -103 -114 -116 -126 -127 -148 -149 -157 -158 -166 0
-20 -38 -39 -72 -73 -102 -103 -115 -116 -126 -128 -148 -149 -157 -158 -166 0
-20 -38 -39 -72 -73 -102 -103 -115 -116 -127 -128 -148 -150 -157 -158 -166 0
-20 -38 -39 -72 -73 -102 -103 -115 -116 -127 -128 -149 -150 -157 -159 -166 0
-20 -38 -39 -72 -73 -102 -103 -115 -116 -127 -128 -149 -150 -158 -159 -167 0
-20 -38 -39 -72 -73 -102 -103 -115 -116 -127 -128 -149 -150 -158 -159 -175 0
-20 -38 -39 -72 -73 -102 -103 -115 -116 -127 -128 -149 -150 -167 -168 -175 0
-20 -38 -39 -72 -73 -102 -103 -115 -116 -127 -128 -159 -160 -167 -168 -175 0
-19 -37 -38 -71 -72 -101 -102 -114 -115 -138 -139 -148 -149 -157 -158 -166 0
-20 -37 -39 -71 -72 -101 -102 -114 -115 -138 -139 -148 -149 -157 -158 -166 0
-20 -38 -39 -71 -73 -101 -102 -114 -115 -138 -139 -148 -149 -157 -158 -166 0
-20 -38 -39 -72 -73 -101 -103 -114 -115 -138 -139 -148 -149 -157 -158 -166 0
-20 -38 -39 -72 -73 -102 -103 -114 -116 -138 -139 -148 -149 -157 -158 -166 0
-20 -38 -39 -72 -73 -102 -103 -115 -116 -138 -140 -148 -149 -157 -158 -166 0
-20 -38 -39 -72 -73 -102 -103 -115 -116 -139 -140 -148 -150 -157 -158 -166 0
-20 -38 -39 -72 -73 -102 -103 -115 -116 -139 -140 -149 -150 -157 -159 -166 0
-20 -38 -39 -72 -73 -102 -103 -115 -116 -139 -140 -149 -150 -158 -159 -167 0
-20 -38 -39 -72 -73 -102 -103 -115 -116 -139 -140 -149 -150 -158 -159 -175 0
-20 -38 -39 -72 -73 -102 -103 -115 -116 -139 -140 -149 -150 -167 -168 -175 0
-20 -38 -39 -72 -73 -102 -103 -115 -116 -139 -140 -159 -160 -167 -168 -175 0
-20 -38 -39 -72 -73 -102 -103 -115 -116 -150 -151 -159 -160 -167 -168 -175 0
-19 -37 -38 -71 -72 -101 -102 -127 -128 -138 -139 -148 -149 -157 -158 -166 0
-20 -37 -39 -71 -72 -101 -102 -127 -128 -138 -139 -148 -149 -157 -158 -166 0
-20 -38 -39 -71 -73 -101 -102 -127 -128 -138 -139 -148 -149 -157 -158 -166 0
-20 -38 -39 -72 -73 -101 -103 -127 -128 -138 -139 -148 -149 -157 -158 -166 0
-20 -38 -39 -72 -73 -102 -103 -127 -129 -138 -139 -148 -149 -157 -158 -166 0
-20 -38 -39 -72 -73 -102 -103 -128 -129 -138 -140 -148 -149 -157 -158 -166 0
-20 -38 -39 -72 -73 -102 -103 -128 -129 -139 -140 -148 -150 -157 -158 -166 0
-20 -38 -39 -72 -73 -102 -103 -128 -129 -139 -140 -149 -150 -157 -159 -166 0
-20 -38 -39 -72 -73 -102 -103 -128 -129 -139 -140 -149 -150 -158 -159 -167 0
-20 -38 -39 -72 -73 -102 -103 -128 -129 -139 -140 -149 -150 -158 -159 -175 0
-20 -38 -39 -72 -73 -102 -103 -128 -129 -139 -140 -149 -150 -167 -168 -175 0
-20 -38 -39 -72 -73 -102 -103 -128 -129 -139 -140 -159 -160 -167 -168 -175 0
-20 -38 -39 -72 -73 -102 -103 -128 -129 -150 -151 -159 -160 -167 -168 -175 0
-20 -38 -39 -72 -73 -102 -103 -140 -141 -150 -151 -159 -160 -167 -168 -175 0
-19 -37 -38 -71 -72 -115 -116 -127 -128 -138 -139 -148 -149 -157 -158 -166 0
-20 -37 -39 -71 -72 -115 -116 -127 -128 -138 -139 -148 -149 -157 -158 -166 0
-20 -38 -39 -71 -73 -115 -116 -127 -128 -138 -139 -148 -149 -157 -158 -166 0
-20 -38 -39 -72 -73 -115 -117 -127 -128 -138 -139 -148 -149 -157 -158 -166 0
-20 -38 -39 -72 -73 -116 -117 -127 -129 -138 -139 -148 -149 -157 -158 -166 0
-20 -38 -39 -72 -73 -116 -117 -128 -129 -138 -140 -148 -149 -157 -158 -166 0
-20 -38 -39 -72 -73 -116 -117 -128 -129 -139 -140 -148 -150 -157 -158 -166 0
-20 -38 -39 -72 -73 -116 -117 -128 -129 -139 -140 -149 -150 -157 -159 -166 0
-20 -38 -39 -72 -73 -116 -117 -128 -129 -139 -140 -149 -150 -158 -159 -167 0
-20 -38 -39 -72 -73 -116 -117 -128 -129 -139 -140 -149 -150 -158 -159 -175 0
-20 -38 -39 -72 -73 -116 -117 -128 -129 -139 -140 -149 -150 -167 -168 -175 0
-20 -38 -39 -72 -73 -116 -117 -128 -129 -139 -140 -159 -160 -167 -168 -175 0
-20 -38 -39 -72 -73 -116 -117 -128 -129 -150 -151 -159 -160 -167 -168 -175 0
-20 -38 -39 -72 -73 -116 -117 -140 -141 -150 -151 -159 -160 -167 -168 -175 0
-20 -38 -39 -72 -73 -129 -130 -140 -141 -150 -151 -159 -160 -167 -168 -175 0
-18 -36 -37 -86 -87 -100 -101 -113 -114 -125 -126 -136 -137 -146 -147 -156 0
-19 -36 -38 -86 -87 -100 -101 -113 -114 -125 -126 -136 -137 -146 -147 -156 0
-20 -36 -39 -86 -87 -100 -101 -113 -114 -125 -126 -136 -137 -146 -147 -156 0
-19 -37 -38 -86 -88 -100 -101 -113 -114 -125 -126 -136 -137 -146 -147 -156 0
-20 -37 -39 -86 -88 -100 -101 -113 -114 -125 -126 -136 -137 -146 -147 -156 0
-20 -38 -39 -86 -89 -100 -101 -113 -114 -125 -126 -136 -137 -146 -147 -156 0
-19 -37 -38 -87 -88 -100 -102 -113 -114 -125 -126 -136 -137 -146 -147 -156 0
-20 -37 -39 -87 -88 -100 -102 -113 -114 -125 -126 -136 -137 -146 -147 -156 0
-20 -38 -39 -87 -89 -100 -102 -113 -114 -125 -126 -136 -137 -146 -147 -156 0
-20 -38 -39 -88 -89 -100 -103 -113 -114 -125 -126 -136 -137 -146 -147 -156 0
-19 -37 -38 -87 -88 -101 -102 -113 -115 -125 -126 -136 -137 -146 -147 -156 0
-20 -37 -39 -87 -88 -101 -102 -113 -115 -125 -126 -136 -137 -146 -147 -156 0
-20 -38 -39 -87 -89 -101 -102 -113 -115 -125 -126 -136 -137 -146 -147 -156 0
-20 -38 -39 -88 -89 -101 -103 -113 -115 -125 -126 -136 -137 -146 -147 -156 0
-20 -38 -39 -88 -89 -102 -103 -113 -116 -125 -126 -136 -137 -146 -147 -156 0
-19 -37 -38 -87 -88 -101 -102 -114 -115 -125 -127 -136 -137 -146 -147 -156 0
-20 -37 -39 -87 -88 -101 -102 -114 -115 -125 -127 -136 -137 -146 -147 -156 0
-20 -38 -39 -87 -89 -101 -102 -114 -115 -125 -127 -136 -137 -146 -147 -156 0
-20 -38 -39 -88 -89 -101 -103 -114 -115 -125 -127 -136 -137 -146 -147 -156 0
-20 -38 -39 -88 -89 -102 -103 -114 -116 -125 -127 -136 -137 -146 -147 -156 0
-20 -38 -39 -88 -89 -102 -103 -115 -116 -125 -128 -136 -137 -146 -147 -156 0
-19 -37 -38 -87 -88 -101 -102 -114 -115 -126 -127 -136 -138 -146 -147 -156 0
-20 -37 -39 -87 -88 -101 -102 -114 -115 -126 -127 -136 -138 -146 -147 -156 0
-20 -38 -39 -87 -89 -101 -102 -114 -115 -126 -127 -136 -138 -146 -147 -156 0
-20 -38 -39 -88 -89 -101 -103 -114 -115 -126 -127 -136 -138 -146 -147 -156 0
-20 -38 -39 -88 -89 -102 -103 -114 -116 -126 -127 -136 -138 -146 -147 -156 0
-20 -38 -39 -88 -89 -102 -103 -115 -116 -126 -128 -136 -138 -146 -147 -156 0
-20 -38 -39 -88 -89 -102 -103 -115 -116 -127 -128 -136 -139 -146 -147 -156 0
-19 -37 -38 -87 -88 -101 -102 -114 -115 -126 -127 -137 -138 -146 -148 -156 0
-20 -37 -39 -87 -88 -101 -102 -114 -115 -126 -127 -137 -138 -146 -148 -156 0
-20 -38 -39 -87 -89 -101 -102 -114 -115 -126 -127 -137 -138 -146 -148 -156 0
-20 -38 -39 -88 -89 -101 -103 -114 -115 -126 -127 -137 -138 -146 -148 -156 0
-20 -38 -39 -88 -89 -102 -103 -114 -116 -126 -127 -137 -138 -146 -148 -156 0
-20 -38 -39 -88 -89 -102 -103 -115 -116 -126 -128 -137 -138 -146 -148 -156 0
-20 -38 -39 -88 -89 -102 -103 -115 -116 -127 -128 -137 -139 -146 -148 -156 0
-20 -38 -39 -88 -89 -102 -103 -115 -116 -127 -128 -138 -139 -146 -149 -156 0
-19 -37 -38 -87 -88 -101 -102 -114 -115 -126 -127 -137 -138 -147 -148 -157 0
-20 -37 -39 -87 -88 -101 -102 -114 -115 -126 -127 -137 -138 -147 -148 -157 0
-20 -38 -39 -87 -89 -101 -102 -114 -115 -126 -127 -137 -138 -147 -148 -157 0
-20 -38 -39 -88 -89 -101 -103 -114 -115 -126 -127 -137 -138 -147 -148 -157 0
-20 -38 -39 -88 -89 -102 -103 -114 -116 -126 -127 -137 -138 -147 -148 -157 0
-20 -38 -39 -88 -89 -102 -103 -115 -116 -126 -128 -137 -138 -147 -148 -157 0
-20 -38 -39 -88 -89 -102 -103 -115 -116 -127 -128 -137 -139 -147 -148 -157 0
-20 -38 -39 -88 -89 -102 -103 -115 -116 -127 -128 -138 -139 -147 -149 -157 0
-20 -38 -39 -88 -89 -102 -103 -115 -116 -127 -128 -138 -139 -148 -149 -158 0
-19 -37 -38 -87 -88 -101 -102 -114 -115 -126 -127 -137 -138 -147 -148 -166 0
-20 -37 -39 -87 -88 -101 -102 -114 -115 -126 -127 -137 -138 -147 -148 -166 0
-20 -38 -39 -87 -89 -101 -102 -114 -115 -126 -127 -137 -138 -147 -148 -166 0
-20 -38 -39 -88 -89 -101 -103 -114 -115 -126 -127 -137 -138 -147 -148 -166 0
-20 -38 -39 -88 -89 -102 -103 -114 -116 -126 -127 -137 -138 -147 -148 -166 0
-20 -38 -39 -88 -89 -102 -103 -115 -116 -126 -128 -137 -138 -147 -148 -166 0
-20 -38 -39 -88 -89 -102 -103 -115 -116 -127 -128 -137 -139 -147 -148 -166 0
-20 -38 -39 -88 -89 -102 -103 -115 -116 -127 -128 -138 -139 -147 -149 -166 0
-20 -38 -39 -88 -89 -102 -103 -115 -116 -127 -128 -138 -139 -148 -149 -167 0
-20 -38 -39 -88 -89 -102 -103 -115 -116 -127 -128 -138 -139 -148 -149 -175 0
-19 -37 -38 -87 -88 -101 -102 -114 -115 -126 -127 -137 -138 -157 -158 -166 0
-20 -37 -39 -87 -88 -101 -102 -114 -115 -126 -127 -137 -138 -157 -158 -166 0
-20 -38 -39 -87 -89 -101 -102 -114 -115 -126 -127 -137 -138 -157 -158 -166 0
-20 -38 -39 -88 -89 -101 -103 -114 -115 -126 -127 -137 -138 -157 -158 -166 0
-20 -38 -39 -88 -89 -102 -103 -114 -116 -126 -127 -137 -138 -157 -158 -166 0
-20 -38 -39 -88 -89 -102 -103 -115 -116 -126 -128 -137 -138 -157 -158 -166 0
-20 -38 -39 -88 -89 -102 -103 -115 -116 -127 -128 -137 -139 -157 -158 -166 0
-20 -38 -39 -88 -89 -102 -103 -115 -116 -127 -128 -138 -139 -157 -159 -166 0
-20 -38 -39 -88 -89 -102 -103 -115 -116 -127 -128 -138 -139 -158 -159 -167 0
-20 -38 -39 -88 -89 -102 -103 -115 -116 -127 -128 -138 -139 -158 -159 -175 0
-20 -38 -39 -88 -89 -102 -103 -115 -116 -127 -128 -138 -139 -167 -168 -175 0
-19 -37 -38 -87 -88 -101 -102 -114 -115 -126 -127 -148 -149 -157 -158 -166 0
-20 -37 -39 -87 -88 -101 -102 -114 -115 -126 -127 -148 -149 -157 -158 -166 0
-20 -38 -39 -87 -89 -101 -102 -114 -115 -126 -127 -148 -149 -157 -158 -166 0
-20 -38 -39 -88 -89 -101 -103 -114 -115 -126 -127 -148 -149 -157 -158 -166 0
-20 -38 -39 -88 -89 -102 -103 -114 -116 -126 -127 -148 -149 -157 -158 -166 0
-20 -38 -39 -88 -89 -102 -103 -115 -116 -126 -128 -148 -149 -157 -158 -166 0
-20 -38 -39 -88 -89 -102 -103 -115 -116 -127 -128 -148 -150 -157 -158 -166 0
-20 -38 -39 -88 -89 -102 -103 -115 -116 -127 -128 -149 -150 -157 -159 -166 0
-20 -38 -39 -88 -89 -102 -103 -115 -116 -127 -128 -149 -150 -158 -159 -167 0
-20 -38 -39 -88 -89 -102 -103 -115 -116 -127 -128 -149 -150 -158 -159 -175 0
-20 -38 -39 -88 -89 -102 -103 -115 -116 -127 -128 -149 -150 -167 -168 -175 0
-20 -38 -39 -88 -89 -102 -103 -115 -116 -127 -128 -159 -160 -167 -168 -175 0
-19 -37 -38 -87 -88 -101 -102 -114 -115 -138 -139 -148 -149 -157 -158 -166 0
-20 -37 -39 -87 -88 -101 -102 -114 -115 -138 -139 -148 -149 -157 -158 -166 0
-20 -38 -39 -87 -89 -101 -102 -114 -115 -138 -139 -148 -149 -157 -158 -166 0
-20 -38 -39 -88 -89 -101 -103 -114 -115 -138 -139 -148 -149 -157 -158 -166 0
-20 -38 -39 -88 -89 -102 -103 -114 -116 -138 -139 -148 -149 -157 -158 -166 0
-20 -38 -39 -88 -89 -102 -103 -115 -116 -138 -140 -148 -149 -157 -158 -166 0
-20 -38 -39 -88 -89 -102 -103 -115 -116 -139 -140 -148 -150 -157 -158 -166 0
-20 -38 -39 -88 -89 -102 -103 -115 -116 -139 -140 -149 -150 -157 -159 -166 0
-20 -38 -39 -88 -89 -102 -103 -115 -116 -139 -140 -149 -150 -158 -159 -167 0
-20 -38 -39 -88 -89 -102 -103 -115 -116 -139 -140 -149 -150 -158 -159 -175 0
-20 -38 -39 -88 -89 -102 -103 -115 -116 -139 -140 -149 -150 -167 -168 -175 0
-20 -38 -39 -88 -89 -102 -103 -115 -116 -139 -140 -159 -160 -167 -168 -175 0
-20 -38 -39 -88 -89 -102 -103 -115 -116 -150 -151 -159 -160 -167 -168 -175 0
-19 -37 -38 -87 -88 -101 -102 -127 -128 -138 -139 -148 -149 -157 -158 -166 0
-20 -37 -39 -87 -88 -101 -102 -127 -128 -138 -139 -148 -149 -157 -158 -166 0
-20 -38 -39 -87 -89 -101 -102 -127 -128 -138 -139 -148 -149 -157 -158 -166 0
-20 -38 -39 -88 -89 -101 -103 -127 -128 -138 -139 -148 -149 -157 -158 -166 0
-20 -38 -39 -88 -89 -102 -103 -127 -129 -138 -139 -148 -149 -157 -158 -166 0
-20 -38 -39 -88 -89 -102 -103 -128 -129 -138 -140 -148 -149 -157 -158 -166 0
-20 -38 -39 -88 -89 -102 -103 -128 -129 -139 -140 -148 -150 -157 -158 -166 0
-20 -38 -39 -88 -89 -102 -103 -128 -129 -139 -140 -149 -150 -157 -159 -166 0
-20 -38 -39 -88 -89 -102 -103 -128 -129 -139 -140 -149 -150 -158 -159 -167 0
-20 -38 -39 -88 -89 -102 -103 -128 -129 -139 -140 -149 -150 -158 -159 -175 0
-20 -38 -39 -88 -89 -102 -103 -128 -129 -139 -140 -149 -150 -167 -168 -175 0
-20 -38 -39 -88 -89 -102 -103 -128 -129 -139 -140 -159 -160 -167 -168 -175 0
-20 -38 -39 -88 -89 -102 -103 -128 -129 -150 -151 -159 -160 -167 -168 -175 0
-20 -38 -39 -88 -89 -102 -103 -140 -141 -150 -151 -159 -160 -167 -168 -175 0
-19 -37 -38 -87 -88 -115 -116 -127 -128 -138 -139 -148 -149 -157 -158 -166 0
-20 -37 -39 -87 -88 -115 -116 -127 -128 -138 -139 -148 -149 -157 -158 -166 0
-20 -38 -39 -87 -89 -115 -116 -127 -128 -138 -139 -148 -149 -157 -158 -166 0
-20 -38 -39 -88 -89 -115 -117 -127 -128 -138 -139 -148 -149 -157 -158 -166 0
-20 -38 -39 -88 -89 -116 -117 -127 -129 -138 -139 -148 -149 -157 -158 -166 0
-20 -38 -39 -88 -89 -116 -117 -128 -129 -138 -140 -148 -149 -157 -158 -166 0
-20 -38 -39 -88 -89 -116 -117 -128 -129 -139 -140 -148 -150 -157 -158 -166 0
-20 -38 -39 -88 -89 -116 -117 -128 -129 -139 -140 -149 -150 -157 -159 -166 0
-20 -38 -39 -88 -89 -116 -117 -128 -129 -139 -140 -149 -150 -158 -159 -167 0
-20 -38 -39 -88 -89 -116 -117 -128 -129 -139 -140 -149 -150 -158 -159 -175 0
-20 -38 -39 -88 -89 -116 -117 -128 -129 -139 -140 -149 -150 -167 -168 -175 0
-20 -38 -39 -88 -89 -116 -117 -128 -129 -139 -140 -159 -160 -167 -168 -175 0
-20 -38 -39 -88 -89 -116 -117 -128 -129 -150 -151 -159 -160 -167 -168 -175 0
-20 -38 -39 -88 -89 -116 -117 -140 -141 -150 -151 -159 -160 -167 -168 -175 0
-20 -38 -39 -88 -89 -129 -130 -140 -141 -150 -151 -159 -160 -167 -168 -175 0
-19 -37 -38 -102 -103 -115 -116 -127 -128 -138 -139 -148 -149 -157 -158 -166 0
-20 -37 -39 -102 -103 -115 -116 -127 -128 -138 -139 -148 -149 -157 -158 -166 0
-20 -38 -39 -102 -104 -115 -116 -127 -128 -138 -139 -148 -149 -157 -158 -166 0
-20 -38 -39 -103 -104 -115 -117 -127 -128 -138 -139 -148 -149 -157 -158 -166 0
-20 -38 -39 -103 -104 -116 -117 -127 -129 -138 -139 -148 -149 -157 -158 -166 0
-20 -38 -39 -103 -104 -116 -117 -128 -129 -138 -140 -148 -149 -157 -158 -166 0
-20 -38 -39 -103 -104 -116 -117 -128 -129 -139 -140 -148 -150 -157 -158 -166 0
-20 -38 -39 -103 -104 -116 -117 -128 -129 -139 -140 -149 -150 -157 -159 -166 0
-20 -38 -39 -103 -104 -116 -117 -128 -129 -139 -140 -149 -150 -158 -159 -167 0
-20 -38 -39 -103 -104 -116 -117 -128 -129 -139 -140 -149 -150 -158 -159 -175 0
-20 -38 -39 -103 -104 -116 -117 -128 -129 -139 -140 -149 -150 -167 -168 -175 0
-20 -38 -39 -103 -104 -116 -117 -128 -129 -139 -140 -159 -160 -167 -168 -175 0
-20 -38 -39 -103 -104 -116 -117 -128 -129 -150 -151 -159 -160 -167 -168 -175 0
-20 -38 -39 -103 -104 -116 -117 -140 -141 -150 -151 -159 -160 -167 -168 -175 0
-20 -38 -39 -103 -104 -129 -130 -140 -141 -150 -151 -159 -160 -167 -168 -175 0
-20 -38 -39 -117 -118 -129 -130 -140 -141 -150 -151 -159 -160 -167 -168 -175 0
-17 -53 -54 -69 -70 -84 -85 -98 -99 -111 -112 -123 -124 -134 -135 -145 0
-18 -53 -55 -69 -70 -84 -85 -98 -99 -111 -112 -123 -124 -134 -135 -145 0
-19 -53 -56 -69 -70 -84 -85 -98 -99 -111 -112 -123 -124 -134 -135 -145 0
-20 -53 -57 -69 -70 -84 -85 -98 -99 -111 -112 -123 -124 -134 -135 -145 0
-18 -54 -55 -69 -71 -84 -85 -98 -99 -111 -112 -123 -124 -134 -135 -145 0
-19 -54 -56 -69 -71 -84 -85 -98 -99 -111 -112 -123 -124 -134 -135 -145 0
-20 -54 -57 -69 -71 -84 -85 -98 -99 -111 -112 -123 -124 -134 -135 -145 0
-19 -55 -56 -69 -72 -84 -85 -98 -99 -111 -112 -123 -124 -134 -135 -145 0
-20 -55 -57 -69 -72 -84 -85 -98 -99 -111 -112 -123 -124 -134 -135 -145 0
-20 -56 -57 -69 -73 -84 -85 -98 -99 -111 -112 -123 -124 -134 -135 -145 0
-18 -54 -55 -70 -71 -84 -86 -98 -99 -111 -112 -123 -124 -134 -135 -145 0
-19 -54 -56 -70 -71 -84 -86 -98 -99 -111 -112 -123 -124 -134 -135 -145 0
-20 -54 -57 -70 -71 -84 -86 -98 -99 -111 -112 -123 -124 -134 -135 -145 0
-19 -55 -56 -70 -72 -84 -86 -98 -99 -111 -112 -123 -124 -134 -135 -145 0
-20 -55 -57 -70 -72 -84 -86 -98 -99 -111 -112 -123 -124 -134 -135 -145 0
-20 -56 -57 -70 -73 -84 -86 -98 -99 -111 -112 -123 -124 -134 -135 -145 0
-19 -55 -56 -71 -72 -84 -87 -98 -99 -111 -112 -123 -124 -134 -135 -145 0
-20 -55 -57 -71 -72 -84 -87 -98 -99 -111 -112 -123 -124 -134 -135 -145 0
-20 -56 -57 -71 -73 -84 -87 -98 -99 -111 -112 -123 -124 -134 -135 -145 0
-20 -56 -57 -72 -73 -84 -88 -98 -99 -111 -112 -123 -124 -134 -135 -145 0
-18 -54 -55 -70 -71 -85 -86 -98 -100 -111 -112 -123 -124 -134 -135 -145 0
-19 -54 -56 -70 -71 -85 -86 -98 -100 -111 -112 -123 -124 -134 -135 -145 0
-20 -54 -57 -70 -71 -85 -86 -98 -100 -111 -112 -123 -124 -134 -135 -145 0
-19 -55 -56 -70 -72 -85 -86 -98 -100 -111 -112 -123 -124 -134 -135 -145 0
-20 -55 -57 -70 -72 -85 -86 -98 -100 -111 -112 -123 -124 -134 -135 -145 0
-20 -56 -57 -70 -73 -85 -86 -98 -100 -111 -112 -123 -124 -134 -135 -145 0
-19 -55 -56 -71 -72 -85 -87 -98 -100 -111 -112 -123 -124 -134 -135 -145 0
-20 -55 -57 -71 -72 -85 -87 -98 -100 -111 -112 -123 -124 -134 -135 -145 0
-20 -56 -57 -71 -73 -85 -87 -98 -100 -111 -112 -123 -124 -134 -135 -145 0
-20 -56 -57 -72 -73 -85 -88 -98 -100 -111 -112 -123 -124 -134 -135 -145 0
-19 -55 -56 -71 -72 -86 -87 -98 -101 -111 -112 -123 -124 -134 -135 -145 0
-20 -55 -57 -71 -72 -86 -87 -98 -101 -111 -112 -123 -124 -134 -135 -145 0
-20 -56 -57 -71 -73 -86 -87 -98 -101 -111 -112 -123 -124 -134 -135 -145 0
-20 -56 -57 -72 -73 -86 -88 -98 -101 -111 -112 -123 -124 -134 -135 -145 0
-20 -56 -57 -72 -73 -87 -88 -98 -102 -111 -112 -123 -124 -134 -135 -145 0
-18 -54 -55 -70 -71 -85 -86 -99 -100 -111 -113 -123 -124 -134 -135 -145 0
-19 -54 -56 -70 -71 -85 -86 -99 -100 -111 -113 -123 -124 -134 -135 -145 0
-20 -54 -57 -70 -71 -85 -86 -99 -100 -111 -113 -123 -124 -134 -135 -145 0
-19 -55 -56 -70 -72 -85 -86 -99 -100 -111 -113 -123 -124 -134 -135 -145 0
-20 -55 -57 -70 -72 -85 -86 -99 -100 -111 -113 -123 -124 -134 -135 -145 0
-20 -56 -57 -70 -73 -85 -86 -99 -100 -111 -113 -123 -124 -134 -135 -145 0
-19 -55 -56 -71 -72 -85 -87 -99 -100 -111 -113 -123 -124 -134 -135 -145 0
-20 -55 -57 -71 -72 -85 -87 -99 -100 -111 -113 -123 -124 -134 -135 -145 0
-20 -56 -57 -71 -73 -85 -87 -99 -100 -111 -113 -123 -124 -134 -135 -145 0
-20 -56 -57 -72 -73 -85 -88 -99 -100 -111 -113 -123 -124 -134 -135 -145 0
-19 -55 -56 -71 -72 -86 -87 -99 -101 -111 -113 -123 -124 -134 -135 -145 0
-20 -55 -57 -71 -72 -86 -87 -99 -101 -111 -113 -123 -124 -134 -135 -145 0
-20 -56 -57 -71 -73 -86 -87 -99 -101 -111 -113 -123 -124 -134 -135 -145 0
-20 -56 -57 -72 -73 -86 -88 -99 -101 -111 -113 -123 -124 -134 -135 -145 0
-20 -56 -57 -72 -73 -87 -88 -99 -102 -111 -113 -123 -124 -134 -135 -145 0
-19 -55 -56 -71 -72 -86 -87 -100 -101 -111 -114 -123 -124 -134 -135 -145 0
-20 -55 -57 -71 -72 -86 -87 -100 -101 -111 -114 -123 -124 -134 -135 -145 0
-20 -56 -57 -71 -73 -86 -87 -100 -101 -111 -114 -123 -124 -134 -135 -145 0
-20 -56 -57 -72 -73 -86 -88 -100 -101 -111 -114 -123 -124 -134 -135 -145 0
-20 -56 -57 -72 -73 -87 -88 -100 -102 -111 -114 -123 -124 -134 -135 -145 0
-20 -56 -57 -72 -73 -87 -88 -101 -102 -111 -115 -123 -124 -134 -135 -145 0
-18 -54 -55 -70 -71 -85 -86 -99 -100 -112 -113 -123 -125 -134 -135 -145 0
-19 -54 -56 -70 -71 -85 -86 -99 -100 -112 -113 -123 -125 -134 -135 -145 0
-20 -54 -57 -70 -71 -85 -86 -99 -100 -112 -113 -123 -125 -134 -135 -145 0
-19 -55 -56 -70 -72 -85 -86 -99 -100 -112 -113 -123 -125 -134 -135 -145 0
-20 -55 -57 -70 -72 -85 -86 -99 -100 -112 -113 -123 -125 -134 -135 -145 0
-20 -56 -57 -70 -73 -85 -86 -99 -100 -112 -113 -123 -125 -134 -135 -145 0
-19 -55 -56 -71 -72 -85 -87 -99 -100 -112 -113 -123 -125 -134 -135 -145 0
-20 -55 -57 -71 -72 -85 -87 -99 -100 -112 -113 -123 -125 -134 -135 -145 0
-20 -56 -57 -71 -73 -85 -87 -99 -100 -112 -113 -123 -125 -134 -135 -145 0
-20 -56 -57 -72 -73 -85 -88 -99 -100 -112 -113 -123 -125 -134 -135 -145 0
-19 -55 -56 -71 -72 -86 -87 -99 -101 -112 -113 -123 -125 -134 -135 -145 0
-20 -55 -57 -71 -72 -86 -87 -99 -101 -112 -113 -123 -125 -134 -135 -145 0
-20 -56 -57 -71 -73 -86 -87 -99 -101 -112 -113 -123 -125 -134 -135 -145 0
-20 -56 -57 -72 -73 -86 -88 -99 -101 -112 -113 -123 -125 -134 -135 -145 0
-20 -56 -57 -72 -73 -87 -88 -99 -102 -112 -113 -123 -125 -134 -135 -145 0
-19 -55 -56 -71 -72 -86 -87 -100 -101 -112 -114 -123 -125 -134 -135 -145 0
-20 -55 -57 -71 -72 -86 -87 -100 -101 -112 -114 -123 -125 -134 -135 -145 0
-20 -56 -57 -71 -73 -86 -87 -100 -101 -112 -114 -123 -125 -134 -135 -145 0
-20 -56 -57 -72 -73 -86 -88 -100 -101 -112 -114 -123 -125 -134 -135 -145 0
-20 -56 -57 -72 -73 -87 -88 -100 -102 -112 -114 -123 -125 -134 -135 -145 0
-20 -56 -57 -72 -73 -87 -88 -101 -102 -112 -115 -123 -125 -134 -135 -145 0
-19 -55 -56 -71 -72 -86 -87 -100 -101 -113 -114 -123 -126 -134 -135 -145 0
-20 -55 -57 -71 -72 -86 -87 -100 -101 -113 -114 -123 -126 -134 -135 -145 0
-20 -56 -57 -71 -73 -86 -87 -100 -101 -113 -114 -123 -126 -134 -135 -145 0
-20 -56 -57 -72 -73 -86 -88 -100 -101 -113 -114 -123 -126 -134 -135 -145 0
-20 -56 -57 -72 -73 -87 -88 -100 -102 -113 -114 -123 -126 -134 -135 -145 0
-20 -56 -57 -72 -73 -87 -88 -101 -102 -113 -115 -123 -126 -134 -135 -145 0
-20 -56 -57 -72 -73 -87 -88 -101 -102 -114 -115 -123 -127 -134 -135 -145 0
-18 -54 -55 -70 -71 -85 -86 -99 -100 -112 -113 -124 -125 -134 -136 -145 0
-19 -54 -56 -70 -71 -85 -86 -99 -100 -112 -113 -124 -125 -134 -136 -145 0
-20 -54 -57 -70 -71 -85 -86 -99 -100 -112 -113 -124 -125 -134 -136 -145 0
-19 -55 -56 -70 -72 -85 -86 -99 -100 -112 -113 -124 -125 -134 -136 -145 0
-20 -55 -57 -70 -72 -85 -86 -99 -100 -112 -113 -124 -125 -134 -136 -145 0
-20 -56 -57 -70 -73 -85 -86 -99 -100 -112 -113 -124 -125 -134 -136 -145 0
-19 -55 -56 -71 -72 -85 -87 -99 -100 -112 -113 -124 -125 -134 -136 -145 0
-20 -55 -57 -71 -72 -85 -87 -99 -100 -112 -113 -124 -125 -134 -136 -145 0
-20 -56 -57 -71 -73 -85 -87 -99 -100 -112 -113 -124 -125 -134 -136 -145 0
-20 -56 -57 -72 -73 -85 -88 -99 -100 -112 -113 -124 -125 -134 -136 -145 0
-19 -55 -56 -71 -72 -86 -87 -99 -101 -112 -113 -124 -125 -134 -136 -145 0
-20 -55 -57 -71 -72 -86 -87 -99 -101 -112 -113 -124 -125 -134 -136 -145 0
-20 -56 -57 -71 -73 -86 -87 -99 -101 -112 -113 -124 -125 -134 -136 -145 0
-20 -56 -57 -72 -73 -86 -88 -99 -101 -112 -113 -124 -125 -134 -136 -145 0
-20 -56 -57 -72 -73 -87 -88 -99 -102 -112 -113 -124 -125 -134 -136 -145 0
-19 -55 -56 -71 -72 -86 -87 -100 -101 -112 -114 -124 -125 -134 -136 -145 0
-20 -55 -57 -71 -72 -86 -87 -100 -101 -112 -114 -124 -125 -134 -136 -145 0
-20 -56 -57 -71 -73 -86 -87 -100 -101 -112 -114 -124 -125 -134 -136 -145 0
-20 -56 -57 -72 -73 -86 -88 -100 -101 -112 -114 -124 -125 -134 -136 -145 0
-20 -56 -57 -72 -73 -87 -88 -100 -102 -112 -114 -124 -125 -134 -136 -145 0
-20 -56 -57 -72 -73 -87 -88 -101 -102 -112 -115 -124 -125 -134 -136 -145 0
-19 -55 -56 -71 -72 -86 -87 -100 -101 -113 -114 -124 -126 -134 -136 -145 0
-20 -55 -57 -71 -72 -86 -87 -100 -101 -113 -114 -124 -126 -134 -136 -145 0
-20 -56 -57 -71 -73 -86 -87 -100 -101 -113 -114 -124 -126 -134 -136 -145 0
-20 -56 -57 -72 -73 -86 -88 -100 -101 -113 -114 -124 -126 -134 -136 -145 0
-20 -56 -57 -72 -73 -87 -88 -100 -102 -113 -114 -124 -126 -134 -136 -145 0
-20 -56 -57 -72 -73 -87 -88 -101 -102 -113 -115 -124 -126 -134 -136 -145 0
-20 -56 -57 -72 -73 -87 -88 -101 -102 -114 -115 -124 -127 -134 -136 -145 0
-19 -55 -56 -71 -72 -86 -87 -100 -101 -113 -114 -125 -126 -134 -137 -145 0
-20 -55 -57 -71 -72 -86 -87 -100 -101 -113 -114 -125 -126 -134 -137 -145 0
-20 -56 -57 -71 -73 -86 -87 -100 -101 -113 -114 -125 -126 -134 -137 -145 0
-20 -56 -57 -72 -73 -86 -88 -100 -101 -113 -114 -125 -126 -134 -137 -145 0
-20 -56 -57 -72 -73 -87 -88 -100 -102 -113 -114 -125 -126 -134 -137 -145 0
-20 -56 -57 -72 -73 -87 -88 -101 -102 -113 -115 -125 -126 -134 -137 -145 0
-20 -56 -57 -72 -73 -87 -88 -101 -102 -114 -115 -125 -127 -134 -137 -145 0
-20 -56 -57 -72 -73 -87 -88 -101 -102 -114 -115 -126 -127 -134 -138 -145 0
-18 -54 -55 -70 -71 -85 -86 -99 -100 -112 -113 -124 -125 -135 -136 -146 0
-19 -54 -56 -70 -71 -85 -86 -99 -100 -112 -113 -124 -125 -135 -136 -146 0
-20 -54 -57 -70 -71 -85 -86 -99 -100 -112 -113 -124 -125 -135 -136 -146 0
-19 -55 -56 -70 -72 -85 -86 -99 -100 -112 -113 -124 -125 -135 -136 -146 0
-20 -55 -57 -70 -72 -85 -86 -99 -100 -112 -113 -124 -125 -135 -136 -146 0
-20 -56 -57 -70 -73 -85 -86 -99 -100 -112 -113 -124 -125 -135 -136 -146 0
-19 -55 -56 -71 -72 -85 -87 -99 -100 -112 -113 -124 -125 -135 -136 -146 0
-20 -55 -57 -71 -72 -85 -87 -99 -100 -112 -113 -124 -125 -135 -136 -146 0
-20 -56 -57 -71 -73 -85 -87 -99 -100 -112 -113 -124 -125 -135 -136 -146 0
-20 -56 -57 -72 -73 -85 -88 -99 -100 -112 -113 -124 -125 -135 -136 -146 0
-19 -55 -56 -71 -72 -86 -87 -99 -101 -112 -113 -124 -125 -135 -136 -146 0
-20 -55 -57 -71 -72 -86 -87 -99 -101 -112 -113 -124 -125 -135 -136 -146 0
-20 -56 -57 -71 -73 -86 -87 -99 -101 -112 -113 -124 -125 -135 -136 -146 0
-20 -56 -57 -72 -73 -86 -88 -99 -101 -112 -113 -124 -125 -135 -136 -146 0
-20 -56 -57 -72 -73 -87 -88 -99 -102 -112 -113 -124 -125 -135 -136 -146 0
-19 -55 -56 -71 -72 -86 -87 -100 -101 -112 -114 -124 -125 -135 -136 -146 0
-20 -55 -57 -71 -72 -86 -87 -100 -101 -112 -114 -124 -125 -135 -136 -146 0
-20 -56 -57 -71 -73 -86 -87 -100 -101 -112 -114 -124 -125 -135 -136 -146 0
-20 -56 -57 -72 -73 -86 -88 -100 -101 -112 -114 -124 -125 -135 -136 -146 0
-20 -56 -57 -72 -73 -87 -88 -100 -102 -112 -114 -124 -125 -135 -136 -146 0
-20 -56 -57 -72 -73 -87 -88 -101 -102 -112 -115 -124 -125 -135 -136 -146 0
-19 -55 -56 -71 -72 -86 -87 -100 -101 -113 -114 -124 -126 -135 -136 -146 0
-20 -55 -57 -71 -72 -86 -87 -100 -101 -113 -114 -124 -126 -135 -136 -146 0
-20 -56 -57 -71 -73 -86 -87 -100 -101 -113 -114 -124 -126 -135 -136 -146 0
-20 -56 -57 -72 -73 -86 -88 -100 -101 -113 -114 -124 -126 -135 -136 -146 0
-20 -56 -57 -72 -73 -87 -88 -100 -102 -113 -114 -124 -126 -135 -136 -146 0
-20 -56 -57 -72 -73 -87 -88 -101 -102 -113 -115 -124 -126 -135 -136 -146 0
-20 -56 -57 -72 -73 -87 -88 -101 -102 -114 -115 -124 -127 -135 -136 -146 0
-19 -55 -56 -71 -72 -86 -87 -100 -101 -113 -114 -125 -126 -135 -137 -146 0
-20 -55 -57 -71 -72 -86 -87 -100 -101 -113 -114 -125 -126 -135 -137 -146 0
-20 -56 -57 -71 -73 -86 -87 -100 -101 -113 -114 -125 -126 -135 -137 -146 0
-20 -56 -57 -72 -73 -86 -88 -100 -101 -113 -114 -125 -126 -135 -137 -146 0
-20 -56 -57 -72 -73 -87 -88 -100 -102 -113 -114 -125 -126 -135 -137 -146 0
-20 -56 -57 -72 -73 -87 -88 -101 -102 -113 -115 -125 -126 -135 -137 -146 0
-20 -56 -57 -72 -73 -87 -88 -101 -102 -114 -115 -125 -127 -135 -137 -146 0
-20 -56 -57 -72 -73 -87 -88 -101 -102 -114 -115 -126 -127 -135 -138 -146 0
-19 -55 -56 -71 -72 -86 -87 -100 -101 -113 -114 -125 -126 -136 -137 -147 0
-20 -55 -57 -71 -72 -86 -87 -100 -101 -113 -114 -125 -126 -136 -137 -147 0
-20 -56 -57 -71 -73 -86 -87 -100 -101 -113 -114 -125 -126 -136 -137 -147 0
-20 -56 -57 -72 -73 -86 -88 -100 -101 -113 -114 -125 -126 -136 -137 -147 0
-20 -56 -57 -72 -73 -87 -88 -100 -102 -113 -114 -125 -126 -136 -137 -147 0
-20 -56 -57 -72 -73 -87 -88 -101 -102 -113 -115 -125 -126 -136 -137 -147 0
-20 -56 -57 -72 -73 -87 -88 -101 -102 -114 -115 -125 -127 -136 -137 -147 0
-20 -56 -57 -72 -73 -87 -88 -101 -102 -114 -115 -126 -127 -136 -138 -147 0
-20 -56 -57 -72 -73 -87 -88 -101 -102 -114 -115 -126 -127 -137 -138 -148 0
-18 -54 -55 -70 -71 -85 -86 -99 -100 -112 -113 -124 -125 -135 -136 -156 0
-19 -54 -56 -70 -71 -85 -86 -99 -100 -112 -113 -124 -125 -135 -136 -156 0
-20 -54 -57 -70 -71 -85 -86 -99 -100 -112 -113 -124 -125 -135 -136 -156 0
-19 -55 -56 -70 -72 -85 -86 -99 -100 -112 -113 -124 -125 -135 -136 -156 0
-20 -55 -57 -70 -72 -85 -86 -99 -100 -112 -113 -124 -125 -135 -136 -156 0
-20 -56 -57 -70 -73 -85 -86 -99 -100 -112 -113 -124 -125 -135 -136 -156 0
-19 -55 -56 -71 -72 -85 -87 -99 -100 -112 -113 -124 -125 -135 -136 -156 0
-20 -55 -57 -71 -72 -85 -87 -99 -100 -112 -113 -124 -125 -135 -136 -156 0
-20 -56 -57 -71 -73 -85 -87 -99 -100 -112 -113 -124 -125 -135 -136 -156 0
-20 -56 -57 -72 -73 -85 -88 -99 -100 -112 -113 -124 -125 -135 -136 -156 0
-19 -55 -56 -71 -72 -86 -87 -99 -101 -112 -113 -124 -125 -135 -136 -156 0
-20 -55 -57 -71 -72 -86 -87 -99 -101 -112 -113 -124 -125 -135 -136 -156 0
-20 -56 -57 -71 -73 -86 -87 -99 -101 -112 -113 -124 -125 -135 -136 -156 0
-20 -56 -57 -72 -73 -86 -88 -99 -101 -112 -113 -124 -125 -135 -136 -156 0
-20 -56 -57 -72 -73 -87 -88 -99 -102 -112 -113 -124 -125 -135 -136 -156 0
-19 -55 -56 -71 -72 -86 -87 -100 -101 -112 -114 -124 -125 -135 -136 -156 0
-20 -55 -57 -71 -72 -86 -87 -100 -101 -112 -114 -124 -125 -135 -136 -156 0
-20 -56 -57 -71 -73 -86 -87 -100 -101 -112 -114 -124 -125 -135 -136 -156 0
-20 -56 -57 -72 -73 -86 -88 -100 -101 -112 -114 -124 -125 -135 -136 -156 0
-20 -56 -57 -72 -73 -87 -88 -100 -102 -112 -114 -124 -125 -135 -136 -156 0
-20 -56 -57 -72 -73 -87 -88 -101 -102 -112 -115 -124 -125 -135 -136 -156 0
-19 -55 -56 -71 -72 -86 -87 -100 -101 -113 -114 -124 -126 -135 -136 -156 0
-20 -55 -57 -71 -72 -86 -87 -100 -101 -113 -114 -124 -126 -135 -136 -156 0
-20 -56 -57 -71 -73 -86 -87 -100 -101 -113 -114 -124 -126 -135 -136 -156 0
-20 -56 -57 -72 -73 -86 -88 -100 -101 -113 -114 -124 -126 -135 -136 -156 0
-20 -56 -57 -72 -73 -87 -88 -100 -102 -113 -114 -124 -126 -135 -136 -156 0
-20 -56 -57 -72 -73 -87 -88 -101 -102 -113 -115 -124 -126 -135 -136 -156 0
-20 -56 -57 -72 -73 -87 -88 -101 -102 -114 -115 -124 -127 -135 -136 -156 0
-19 -55 -56 -71 -72 -86 -87 -100 -101 -113 -114 -125 -126 -135 -137 -156 0
-20 -55 -57 -71 -72 -86 -87 -100 -101 -113 -114 -125 -126 -135 -137 -156 0
-20 -56 -57 -71 -73 -86 -87 -100 -101 -113 -114 -125 -126 -135 -137 -156 0
-20 -56 -57 -72 -73 -86 -88 -100 -101 -113 -114 -125 -126 -135 -137 -156 0
-20 -56 -57 -72 -73 -87 -88 -100 -102 -113 -114 -125 -126 -135 -137 -156 0
-20 -56 -57 -72 -73 -87 -88 -101 -102 -113 -115 -125 -126 -135 -137 -156 0
-20 -56 -57 -72 -73 -87 -88 -101 -102 -114 -115 -125 -127 -135 -137 -156 0
-20 -56 -57 -72 -73 -87 -88 -101 -102 -114 -115 -126 -127 -135 -138 -156 0
-19 -55 -56 -71 -72 -86 -87 -100 -101 -113 -114 -125 -126 -136 -137 -157 0
-20 -55 -57 -71 -72 -86 -87 -100 -101 -113 -114 -125 -126 -136 -137 -157 0
-20 -56 -57 -71 -73 -86 -87 -100 -101 -113 -114 -125 -126 -136 -137 -157 0
-20 -56 -57 -72 -73 -86 -88 -100 -101 -113 -114 -125 -126 -136 -137 -157 0
-20 -56 -57 -72 -73 -87 -88 -100 -102 -113 -114 -125 -126 -136 -137 -157 0
-20 -56 -57 -72 -73 -87 -88 -101 -102 -113 -115 -125 -126 -136 -137 -157 0
-20 -56 -57 -72 -73 -87 -88 -101 -102 -114 -115 -125 -127 -136 -137 -157 0
-20 -56 -57 -72 -73 -87 -88 -101 -102 -114 -115 -126 -127 -136 -138 -157 0
-20 -56 -57 -72 -73 -87 -88 -101 -102 -114 -115 -126 -127 -137 -138 -158 0
-19 -55 -56 -71 -72 -86 -87 -100 -101 -113 -114 -125 -126 -136 -137 -166 0
-20 -55 -57 -71 -72 -86 -87 -100 -101 -113 -114 -125 -126 -136 -137 -166 0
-20 -56 -57 -71 -73 -86 -87 -100 -101 -113 -114 -125 -126 -136 -137 -166 0
-20 -56 -57 -72 -73 -86 -88 -100 -101 -113 -114 -125 -126 -136 -137 -166 0
-20 -56 -57 -72 -73 -87 -88 -100 -102 -113 -114 -125 -126 -136 -137 -166 0
-20 -56 -57 -72 -73 -87 -88 -101 -102 -113 -115 -125 -126 -136 -137 -166 0
-20 -56 -57 -72 -73 -87 -88 -101 -102 -114 -115 -125 -127 -136 -137 -166 0
-20 -56 -57 -72 -73 -87 -88 -101 -102 -114 -115 -126 -127 -136 -138 -166 0
-20 -56 -57 -72 -73 -87 -88 -101 -102 -114 -115 -126 -127 -137 -138 -167 0
-20 -56 -57 -72 -73 -87 -88 -101 -102 -114 -115 -126 -127 -137 -138 -175 0
-18 -54 -55 -70 -71 -85 -86 -99 -100 -112 -113 -124 -125 -146 -147 -156 0
-19 -54 -56 -70 -71 -85 -86 -99 -100 -112 -113 -124 -125 -146 -147 -156 0
-20 -54 -57 -70 -71 -85 -86 -99 -100 -112 -113 -124 -125 -146 -147 -156 0
-19 -55 -56 -70 -72 -85 -86 -99 -100 -112 -113 -124 -125 -146 -147 -156 0
-20 -55 -57 -70 -72 -85 -86 -99 -100 -112 -113 -124 -125 -146 -147 -156 0
-20 -56 -57 -70 -73 -85 -86 -99 -100 -112 -113 -124 -125 -146 -147 -156 0
-19 -55 -56 -71 -72 -85 -87 -99 -100 -112 -113 -124 -125 -146 -147 -156 0
-20 -55 -57 -71 -72 -85 -87 -99 -100 -112 -113 -124 -125 -146 -147 -156 0
-20 -56 -57 -71 -73 -85 -87 -99 -100 -112 -113 -124 -125 -146 -147 -156 0
-20 -56 -57 -72 -73 -85 -88 -99 -100 -112 -113 -124 -125 -146 -147 -156 0
-19 -55 -56 -71 -72 -86 -87 -99 -101 -112 -113 -124 -125 -146 -147 -156 0
-20 -55 -57 -71 -72 -86 -87 -99 -101 -112 -113 -124 -125 -146 -147 -156 0
-20 -56 -57 -71 -73 -86 -87 -99 -101 -112 -113 -124 -125 -146 -147 -156 0
-20 -56 -57 -72 -73 -86 -88 -99 -101 -112 -113 -124 -125 -146 -147 -156 0
-20 -56 -57 -72 -73 -87 -88 -99 -102 -112 -113 -124 -125 -146 -147 -156 0
-19 -55 -56 -71 -72 -86 -87 -100 -101 -112 -114 -124 -125 -146 -147 -156 0
-20 -55 -57 -71 -72 -86 -87 -100 -101 -112 -114 -124 -125 -146 -147 -156 0
-20 -56 -57 -71 -73 -86 -87 -100 -101 -112 -114 -124 -125 -146 -147 -156 0
-20 -56 -57 -72 -73 -86 -88 -100 -101 -112 -114 -124 -125 -146 -147 -156 0
-20 -56 -57 -72 -73 -87 -88 -100 -102 -112 -114 -124 -125 -146 -147 -156 0
-20 -56 -57 -72 -73 -87 -88 -101 -102 -112 -115 -124 -125 -146 -147 -156 0
-19 -55 -56 -71 -72 -86 -87 -100 -101 -113 -114 -124 -126 -146 -147 -156 0
-20 -55 -57 -71 -72 -86 -87 -100 -101 -113 -114 -124 -126 -146 -147 -156 0
-20 -56 -57 -71 -73 -86 -87 -100 -101 -113 -114 -124 -126 -146 -147 -156 0
-20 -56 -57 -72 -73 -86 -88 -100 -101 -113 -114 -124 -126 -146 -147 -156 0
-20 -56 -57 -72 -73 -87 -88 -100 -102 -113 -114 -124 -126 -146 -147 -156 0
-20 -56 -57 -72 -73 -87 -88 -101 -102 -113 -115 -124 -126 -146 -147 -156 0
-20 -56 -57 -72 -73 -87 -88 -101 -102 -114 -115 -124 -127 -146 -147 -156 0
-19 -55 -56 -71 -72 -86 -87 -100 -101 -113 -114 -125 -126 -146 -148 -156 0
-20 -55 -57 -71 -72 -86 -87 -100 -101 -113 -114 -125 -126 -146 -148 -156 0
-20 -56 -57 -71 -73 -86 -87 -100 -101 -113 -114 -125 -126 -146 -148 -156 0
-20 -56 -57 -72 -73 -86 -88 -100 -101 -113 -114 -125 -126 -146 -148 -156 0
-20 -56 -57 -72 -73 -87 -88 -100 -102 -113 -114 -125 -126 -146 -148 -156 0
-20 -56 -57 -72 -73 -87 -88 -101 -102 -113 -115 -125 -126 -146 -148 -156 0
-20 -56 -57 -72 -73 -87 -88 -101 -102 -114 -115 -125 -127 -146 -148 -156 0
-20 -56 -57 -72 -73 -87 -88 -101 -102 -114 -115 -126 -127 -146 -149 -156 0
-19 -55 -56 -71 -72 -86 -87 -100 -101 -113 -114 -125 -126 -147 -148 -157 0
-20 -55 -57 -71 -72 -86 -87 -100 -101 -113 -114 -125 -126 -147 -148 -157 0
-20 -56 -57 -71 -73 -86 -87 -100 -101 -113 -114 -125 -126 -147 -148 -157 0
-20 -56 -57 -72 -73 -86 -88 -100 -101 -113 -114 -125 -126 -147 -148 -157 0
-20 -56 -57 -72 -73 -87 -88 -100 -102 -113 -114 -125 -126 -147 -148 -157 0
-20 -56 -57 -72 -73 -87 -88 -101 -102 -113 -115 -125 -126 -147 -148 -157 0
-20 -56 -57 -72 -73 -87 -88 -101 -102 -114 -115 -125 -127 -147 -148 -157 0
-20 -56 -57 -72 -73 -87 -88 -101 -102 -114 -115 -126 -127 -147 -149 -157 0
-20 -56 -57 -72 -73 -87 -88 -101 -102 -114 -115 -126 -127 -148 -149 -158 0
-19 -55 -56 -71 -72 -86 -87 -100 -101 -113 -114 -125 -126 -147 -148 -166 0
-20 -55 -57 -71 -72 -86 -87 -100 -101 -113 -114 -125 -126 -147 -148 -166 0
-20 -56 -57 -71 -73 -86 -87 -100 -101 -113 -114 -125 -126 -147 -148 -166 0
-20 -56 -57 -72 -73 -86 -88 -100 -101 -113 -114 -125 -126 -147 -148 -166 0
-20 -56 -57 -72 -73 -87 -88 -100 -102 -113 -114 -125 -126 -147 -148 -166 0
-20 -56 -57 -72 -73 -87 -88 -101 -102 -113 -115 -125 -126 -147 -148 -166 0
-20 -56 -57 -72 -73 -87 -88 -101 -102 -114 -115 -125 -127 -147 -148 -166 0
-20 -56 -57 -72 -73 -87 -88 -101 -102 -114 -115 -126 -127 -147 -149 -166 0
-20 -56 -57 -72 -73 -87 -88 -101 -102 -114 -115 -126 -127 -148 -149 -167 0
-20 -56 -57 -72 -73 -87 -88 -101 -102 -114 -115 -126 -127 -148 -149 -175 0
-19 -55 -56 -71 -72 -86 -87 -100 -101 -113 -114 -125 -126 -157 -158 -166 0
-20 -55 -57 -71 -72 -86 -87 -100 -101 -113 -114 -125 -126 -157 -158 -166 0
-20 -56 -57 -71 -73 -86 -87 -100 -101 -113 -114 -125 -126 -157 -158 -166 0
-20 -56 -57 -72 -73 -86 -88 -100 -101 -113 -114 -125 -126 -157 -158 -166 0
-20 -56 -57 -72 -73 -87 -88 -100 -102 -113 -114 -125 -126 -157 -158 -166 0
-20 -56 -57 -72 -73 -87 -88 -101 -102 -113 -115 -125 -126 -157 -158 -166 0
-20 -56 -57 -72 -73 -87 -88 -101 -102 -114 -115 -125 -127 -157 -158 -166 0
-20 -56 -57 -72 -73 -87 -88 -101 -102 -114 -115 -126 -127 -157 -159 -166 0
-20 -56 -57 -72 -73 -87 -88 -101 -102 -114 -115 -126 -127 -158 -159 -167 0
-20 -56 -57 -72 -73 -87 -88 -101 -102 -114 -115 -126 -127 -158 -159 -175 0
-20 -56 -57 -72 -73 -87 -88 -101 -102 -114 -115 -126 -127 -167 -168 -175 0
-18 -54 -55 -70 -71 -85 -86 -99 -100 -112 -113 -136 -137 -146 -147 -156 0
-19 -54 -56 -70 -71 -85 -86 -99 -100 -112 -113 -136 -137 -146 -147 -156 0
-20 -54 -57 -70 -71 -85 -86 -99 -100 -112 -113 -136 -137 -146 -147 -156 0
-19 -55 -56 -70 -72 -85 -86 -99 -100 -112 -113 -136 -137 -146 -147 -156 0
-20 -55 -57 -70 -72 -85 -86 -99 -100 -112 -113 -136 -137 -146 -147 -156 0
-20 -56 -57 -70 -73 -85 -86 -99 -100 -112 -113 -136 -137 -146 -147 -156 0
-19 -55 -56 -71 -72 -85 -87 -99 -100 -112 -113 -136 -137 -146 -147 -156 0
-20 -55 -57 -71 -72 -85 -87 -99 -100 -112 -113 -136 -137 -146 -147 -156 0
-20 -56 -57 -71 -73 -85 -87 -99 -100 -112 -113 -136 -137 -146 -147 -156 0
-20 -56 -57 -72 -73 -85 -88 -99 -100 -112 -113 -136 -137 -146 -147 -156 0
-19 -55 -56 -71 -72 -86 -87 -99 -101 -112 -113 -136 -137 -146 -147 -156 0
-20 -55 -57 -71 -72 -86 -87 -99 -101 -112 -113 -136 -137 -146 -147 -156 0
-20 -56 -57 -71 -73 -86 -87 -99 -101 -112 -113 -136 -137 -146 -147 -156 0
-20 -56 -57 -72 -73 -86 -88 -99 -101 -112 -113 -136 -137 -146 -147 -156 0
-20 -56 -57 -72 -73 -87 -88 -99 -102 -112 -113 -136 -137 -146 -147 -156 0
-19 -55 -56 -71 -72 -86 -87 -100 -101 -112 -114 -136 -137 -146 -147 -156 0
-20 -55 -57 -71 -72 -86 -87 -100 -101 -112 -114 -136 -137 -146 -147 -156 0
-20 -56 -57 -71 -73 -86 -87 -100 -101 -112 -114 -136 -137 -146 -147 -156 0
-20 -56 -57 -72 -73 -86 -88 -100 -101 -112 -114 -136 -137 -146 -147 -156 0
-20 -56 -57 -72 -73 -87 -88 -100 -102 -112 -114 -136 -137 -146 -147 -156 0
-20 -56 -57 -72 -73 -87 -88 -101 -102 -112 -115 -136 -137 -146 -147 -156 0
-19 -55 -56 -71 -72 -86 -87 -100 -101 -113 -114 -136 -138 -146 -147 -156 0
-20 -55 -57 -71 -72 -86 -87 -100 -101 -113 -114 -136 -138 -146 -147 -156 0
-20 -56 -57 -71 -73 -86 -87 -100 -101 -113 -114 -136 -138 -146 -147 -156 0
-20 -56 -57 -72 -73 -86 -88 -100 -101 -113 -114 -136 -138 -146 -147 -156 0
-20 -56 -57 -72 -73 -87 -88 -100 -102 -113 -114 -136 -138 -146 -147 -156 0
-20 -56 -57 -72 -73 -87 -88 -101 -102 -113 -115 -136 -138 -146 -147 -156 0
-20 -56 -57 -72 -73 -87 -88 -101 -102 -114 -115 -136 -139 -146 -147 -156 0
-19 -55 -56 -71 -72 -86 -87 -100 -101 -113 -114 -137 -138 -146 -148 -156 0
-20 -55 -57 -71 -72 -86 -87 -100 -101 -113 -114 -137 -138 -146 -148 -156 0
-20 -56 -57 -71 -73 -86 -87 -100 -101 -113 -114 -137 -138 -146 -148 -156 0
-20 -56 -57 -72 -73 -86 -88 -100 -101 -113 -114 -137 -138 -146 -148 -156 0
-20 -56 -57 -72 -73 -87 -88 -100 -102 -113 -114 -137 -138 -146 -148 -156 0
-20 -56 -57 -72 -73 -87 -88 -101 -102 -113 -115 -137 -138 -146 -148 -156 0
-20 -56 -57 -72 -73 -87 -88 -101 -102 -114 -115 -137 -139 -146 -148 -156 0
-20 -56 -57 -72 -73 -87 -88 -101 -102 -114 -115 -138 -139 -146 -149 -156 0
-19 -55 -56 -71 -72 -86 -87 -100 -101 -113 -114 -137 -138 -147 -148 -157 0
-20 -55 -57 -71 -72 -86 -87 -100 -101 -113 -114 -137 -138 -147 -148 -157 0
-20 -56 -57 -71 -73 -86 -87 -100 -101 -113 -114 -137 -138 -147 -148 -157 0
-20 -56 -57 -72 -73 -86 -88 -100 -101 -113 -114 -137 -138 -147 -148 -157 0
-20 -56 -57 -72 -73 -87 -88 -100 -102 -113 -114 -137 -138 -147 -148 -157 0
-20 -56 -57 -72 -73 -87 -88 -101 -102 -113 -115 -137 -138 -147 -148 -157 0
-20 -56 -57 -72 -73 -87 -88 -101 -102 -114 -115 -137 -139 -147 -148 -157 0
-20 -56 -57 -72 -73 -87 -88 -101 -102 -114 -115 -138 -139 -147 -149 -157 0
-20 -56 -57 -72 -73 -87 -88 -101 -102 -114 -115 -138 -139 -148 -149 -158 0
-19 -55 -56 -71 -72 -86 -87 -100 -101 -113 -114 -137 -138 -147 -148 -166 0
-20 -55 -57 -71 -72 -86 -87 -100 -101 -113 -114 -137 -138 -147 -148 -166 0
-20 -56 -57 -71 -73 -86 -87 -100 -101 -113 -114 -137 -138 -147 -148 -166 0
-20 -56 -57 -72 -73 -86 -88 -100 -101 -113 -114 -137 -138 -147 -148 -166 0
-20 -56 -57 -72 -73 -87 -88 -100 -102 -113 -114 -137 -138 -147 -148 -166 0
-20 -56 -57 -72 -73 -87 -88 -101 -102 -113 -115 -137 -138 -147 -148 -166 0
-20 -56 -57 -72 -73 -87 -88 -101 -102 -114 -115 -137 -139 -147 -148 -166 0
-20 -56 -57 -72 -73 -87 -88 -101 -102 -114 -115 -138 -139 -147 -149 -166 0
-20 -56 -57 -72 -73 -87 -88 -101 -102 -114 -115 -138 -139 -148 -149 -167 0
-20 -56 -57 -72 -73 -87 -88 -101 -102 -114 -115 -138 -139 -148 -149 -175 0
-19 -55 -56 -71 -72 -86 -87 -100 -101 -113 -114 -137 -138 -157 -158 -166 0
-20 -55 -57 -71 -72 -86 -87 -100 -101 -113 -114 -137 -138 -157 -158 -166 0
-20 -56 -57 -71 -73 -86 -87 -100 -101 -113 -114 -137 -138 -157 -158 -166 0
-20 -56 -57 -72 -73 -86 -88 -100 -101 -113 -114 -137 -138 -157 -158 -166 0
-20 -56 -57 -72 -73 -87 -88 -100 -102 -113 -114 -137 -138 -157 -158 -166 0
-20 -56 -57 -72 -73 -87 -88 -101 -102 -113 -115 -137 -138 -157 -158 -166 0
-20 -56 -57 -72 -73 -87 -88 -101 -102 -114 -115 -137 -139 -157 -158 -166 0
-20 -56 -57 -72 -73 -87 -88 -101 -102 -114 -115 -138 -139 -157 -159 -166 0
-20 -56 -57 -72 -73 -87 -88 -101 -102 -114 -115 -138 -139 -158 -159 -167 0
-20 -56 -57 -72 -73 -87 -88 -101 -102 -114 -115 -138 -139 -158 -159 -175 0
-20 -56 -57 -72 -73 -87 -88 -101 -102 -114 -115 -138 -139 -167 -168 -175 0
-19 -55 -56 -71 -72 -86 -87 -100 -101 -113 -114 -148 -149 -157 -158 -166 0
-20 -55 -57 -71 -72 -86 -87 -100 -101 -113 -114 -148 -149 -157 -158 -166 0
-20 -56 -57 -71 -73 -86 -87 -100 -101 -113 -114 -148 -149 -157 -158 -166 0
-20 -56 -57 -72 -73 -86 -88 -100 -101 -113 -114 -148 -149 -157 -158 -166 0
-20 -56 -57 -72 -73 -87 -88 -100 -102 -113 -114 -148 -149 -157 -158 -166 0
-20 -56 -57 -72 -73 -87 -88 -101 -102 -113 -115 -148 -149 -157 -158 -166 0
-20 -56 -57 -72 -73 -87 -88 -101 -102 -114 -115 -148 -150 -157 -158 -166 0
-20 -56 -57 -72 -73 -87 -88 -101 -102 -114 -115 -149 -150 -157 -159 -166 0
-20 -56 -57 -72 -73 -87 -88 -101 -102 -114 -115 -149 -150 -158 -159 -167 0
-20 -56 -57 -72 -73 -87 -88 -101 -102 -114 -115 -149 -150 -158 -159 -175 0
-20 -56 -57 -72 -73 -87 -88 -101 -102 -114 -115 -149 -150 -167 -168 -175 0
-20 -56 -57 -72 -73 -87 -88 -101 -102 -114 -115 -159 -160 -167 -168 -175 0
-18 -54 -55 -70 -71 -85 -86 -99 -100 -125 -126 -136 -137 -146 -147 -156 0
-19 -54 -56 -70 -71 -85 -86 -99 -100 -125 -126 -136 -137 -146 -147 -156 0
-20 -54 -57 -70 -71 -85 -86 -99 -100 -125 -126 -136 -137 -146 -147 -156 0
-19 -55 -56 -70 -72 -85 -86 -99 -100 -125 -126 -136 -137 -146 -147 -156 0
-20 -55 -57 -70 -72 -85 -86 -99 -100 -125 -126 -136 -137 -146 -147 -156 0
-20 -56 -57 -70 -73 -85 -86 -99 -100 -125 -126 -136 -137 -146 -147 -156 0
-19 -55 -56 -71 -72 -85 -87 -99 -100 -125 -126 -136 -137 -146 -147 -156 0
-20 -55 -57 -71 -72 -85 -87 -99 -100 -125 -126 -136 -137 -146 -147 -156 0
-20 -56 -57 -71 -73 -85 -87 -99 -100 -125 -126 -136 -137 -146 -147 -156 0
-20 -56 -57 -72 -73 -85 -88 -99 -100 -125 -126 -136 -137 -146 -147 -156 0
-19 -55 -56 -71 -72 -86 -87 -99 -101 -125 -126 -136 -137 -146 -147 -156 0
-20 -55 -57 -71 -72 -86 -87 -99 -101 -125 -126 -136 -137 -146 -147 -156 0
-20 -56 -57 -71 -73 -86 -87 -99 -101 -125 -126 -136 -137 -146 -147 -156 0
-20 -56 -57 -72 -73 -86 -88 -99 -101 -125 -126 -136 -137 -146 -147 -156 0
-20 -56 -57 -72 -73 -87 -88 -99 -102 -125 -126 -136 -137 -146 -147 -156 0
-19 -55 -56 -71 -72 -86 -87 -100 -101 -125 -127 -136 -137 -146 -147 -156 0
-20 -55 -57 -71 -72 -86 -87 -100 -101 -125 -127 -136 -137 -146 -147 -156 0
-20 -56 -57 -71 -73 -86 -87 -100 -101 -125 -127 -136 -137 -146 -147 -156 0
-20 -56 -57 -72 -73 -86 -88 -100 -101 -125 -127 -136 -137 -146 -147 -156 0
-20 -56 -57 -72 -73 -87 -88 -100 -102 -125 -127 -136 -137 -146 -147 -156 0
-20 -56 -57 -72 -73 -87 -88 -101 -102 -125 -128 -136 -137 -146 -147 -156 0
-19 -55 -56 -71 -72 -86 -87 -100 -101 -126 -127 -136 -138 -146 -147 -156 0
-20 -55 -57 -71 -72 -86 -87 -100 -101 -126 -127 -136 -138 -146 -147 -156 0
-20 -56 -57 -71 -73 -86 -87 -100 -101 -126 -127 -136 -138 -146 -147 -156 0
-20 -56 -57 -72 -73 -86 -88 -100 -101 -126 -127 -136 -138 -146 -147 -156 0
-20 -56 -57 -72 -73 -87 -88 -100 -102 -126 -127 -136 -138 -146 -147 -156 0
-20 -56 -57 -72 -73 -87 -88 -101 -102 -126 -128 -136 -138 -146 -147 -156 0
-20 -56 -57 -72 -73 -87 -88 -101 -102 -127 -128 -136 -139 -146 -147 -156 0
-19 -55 -56 -71 -72 -86 -87 -100 -101 -126 -127 -137 -138 -146 -148 -156 0
-20 -55 -57 -71 -72 -86 -87 -100 -101 -126 -127 -137 -138 -146 -148 -156 0
-20 -56 -57 -71 -73 -86 -87 -100 -101 -126 -127 -137 -138 -146 -148 -156 0
-20 -56 -57 -72 -73 -86 -88 -100 -101 -126 -127 -137 -138 -146 -148 -156 0
-20 -56 -57 -72 -73 -87 -88 -100 -102 -126 -127 -137 -138 -146 -148 -156 0
-20 -56 -57 -72 -73 -87 -88 -101 -102 -126 -128 -137 -138 -146 -148 -156 0
-20 -56 -57 -72 -73 -87 -88 -101 -102 -127 -128 -137 -139 -146 -148 -156 0
-20 -56 -57 -72 -73 -87 -88 -101 -102 -127 -128 -138 -139 -146 -149 -156 0
-19 -55 -56 -71 -72 -86 -87 -100 -101 -126 -127 -137 -138 -147 -148 -157 0
-20 -55 -57 -71 -72 -86 -87 -100 -101 -126 -127 -137 -138 -147 -148 -157 0
-20 -56 -57 -71 -73 -86 -87 -100 -101 -126 -127 -137 -138 -147 -148 -157 0
-20 -56 -57 -72 -73 -86 -88 -100 -101 -126 -127 -137 -138 -147 -148 -157 0
-20 -56 -57 -72 -73 -87 -88 -100 -102 -126 -127 -137 -138 -147 -148 -157 0
-20 -56 -57 -72 -73 -87 -88 -101 -102 -126 -128 -137 -138 -147 -148 -157 0
-20 -56 -57 -72 -73 -87 -88 -101 -102 -127 -128 -137 -139 -147 -148 -157 0
-20 -56 -57 -72 -73 -87 -88 -101 -102 -127 -128 -138 -139 -147 -149 -157 0
-20 -56 -57 -72 -73 -87 -88 -101 -102 -127 -128 -138 -139 -148 -149 -158 0
-19 -55 -56 -71 -72 -86 -87 -100 -101 -126 -127 -137 -138 -147 -148 -166 0
-20 -55 -57 -71 -72 -86 -87 -100 -101 -126 -127 -137 -138 -147 -148 -166 0
-20 -56 -57 -71 -73 -86 -87 -100 -101 -126 -127 -137 -138 -147 -148 -166 0
-20 -56 -57 -72 -73 -86 -88 -100 -101 -126 -127 -137 -138 -147 -148 -166 0
-20 -56 -57 -72 -73 -87 -88 -100 -102 -126 -127 -137 -138 -147 -148 -166 0
-20 -56 -57 -72 -73 -87 -88 -101 -102 -126 -128 -137 -138 -147 -148 -166 0
-20 -56 -57 -72 -73 -87 -88 -101 -102 -127 -128 -137 -139 -147 -148 -166 0
-20 -56 -57 -72 -73 -87 -88 -101 -102 -127 -128 -138 -139 -147 -149 -166 0
-20 -56 -57 -72 -73 -87 -88 -101 -102 -127 -128 -138 -139 -148 -149 -167 0
-20 -56 -57 -72 -73 -87 -88 -101 -102 -127 -128 -138 -139 -148 -149 -175 0
-19 -55 -56 -71 -72 -86 -87 -100 -101 -126 -127 -137 -138 -157 -158 -166 0
-20 -55 -57 -71 -72 -86 -87 -100 -101 -126 -127 -137 -138 -157 -158 -166 0
-20 -56 -57 -71 -73 -86 -87 -100 -101 -126 -127 -137 -138 -157 -158 -166 0
-20 -56 -57 -72 -73 -86 -88 -100 -101 -126 -127 -137 -138 -157 -158 -166 0
-20 -56 -57 -72 -73 -87 -88 -100 -102 -126 -127 -137 -138 -157 -158 -166 0
-20 -56 -57 -72 -73 -87 -88 -101 -102 -126 -128 -137 -138 -157 -158 -166 0
-20 -56 -57 -72 -73 -87 -88 -101 -102 -127 -128 -137 -139 -157 -158 -166 0
-20 -56 -57 -72 -73 -87 -88 -101 -102 -127 -128 -138 -139 -157 -159 -166 0
-20 -56 -57 -72 -73 -87 -88 -101 -102 -127 -128 -138 -139 -158 -159 -167 0
-20 -56 -57 -72 -73 -87 -88 -101 -102 -127 -128 -138 -139 -158 -159 -175 0
-20 -56 -57 -72 -73 -87 -88 -101 -102 -127 -128 -138 -139 -167 -168 -175 0
-19 -55 -56 -71 -72 -86 -87 -100 -101 -126 -127 -148 -149 -157 -158 -166 0
-20 -55 -57 -71 -72 -86 -87 -100 -101 -126 -127 -148 -149 -157 -158 -166 0
-20 -56 -57 -71 -73 -86 -87 -100 -101 -126 -127 -148 -149 -157 -158 -166 0
-20 -56 -57 -72 -73 -86 -88 -100 -101 -126 -127 -148 -149 -157 -158 -166 0
-20 -56 -57 -72 -73 -87 -88 -100 -102 -126 -127 -148 -149 -157 -158 -166 0
-20 -56 -57 -72 -73 -87 -88 -101 -102 -126 -128 -148 -149 -157 -158 -166 0
-20 -56 -57 -72 -73 -87 -88 -101 -102 -127 -128 -148 -150 -157 -158 -166 0
-20 -56 -57 -72 -73 -87 -88 -101 -102 -127 -128 -149 -150 -157 -159 -166 0
-20 -56 -57 -72 -73 -87 -88 -101 -102 -127 -128 -149 -150 -158 -159 -167 0
-20 -56 -57 -72 -73 -87 -88 -101 -102 -127 -128 -149 -150 -158 -159 -175 0
-20 -56 -57 -72 -73 -87 -88 -101 -102 -127 -128 -149 -150 -167 -168 -175 0
-20 -56 -57 -72 -73 -87 -88 -101 -102 -127 -128 -159 -160 -167 -168 -175 0
-19 -55 -56 -71 -72 -86 -87 -100 -101 -138 -139 -148 -149 -157 -158 -166 0
-20 -55 -57 -71 -72 -86 -87 -100 -101 -138 -139 -148 -149 -157 -158 -166 0
-20 -56 -57 -71 -73 -86 -87 -100 -101 -138 -139 -148 -149 -157 -158 -166 0
-20 -56 -57 -72 -73 -86 -88 -100 -101 -138 -139 -148 -149 -157 -158 -166 0
-20 -56 -57 -72 -73 -87 -88 -100 -102 -138 -139 -148 -149 -157 -158 -166 0
-20 -56 -57 -72 -73 -87 -88 -101 -102 -138 -140 -148 -149 -157 -158 -166 0
-20 -56 -57 -72 -73 -87 -88 -101 -102 -139 -140 -148 -150 -157 -158 -166 0
-20 -56 -57 -72 -73 -87 -88 -101 -102 -139 -140 -149 -150 -157 -159 -166 0
-20 -56 -57 -72 -73 -87 -88 -101 -102 -139 -140 -149 -150 -158 -159 -167 0
-20 -56 -57 -72 -73 -87 -88 -101 -102 -139 -140 -149 -150 -158 -159 -175 0
-20 -56 -57 -72 -73 -87 -88 -101 -102 -139 -140 -149 -150 -167 -168 -175 0
-20 -56 -57 -72 -73 -87 -88 -101 -102 -139 -140 -159 -160 -167 -168 -175 0
-20 -56 -57 -72 -73 -87 -88 -101 -102 -150 -151 -159 -160 -167 -168 -175 0
-18 -54 -55 -70 -71 -85 -86 -113 -114 -125 -126 -136 -137 -146 -147 -156 0
-19 -54 -56 -70 -71 -85 -86 -113 -114 -125 -126 -136 -137 -146 -147 -156 0
-20 -54 -57 -70 -71 -85 -86 -113 -114 -125 -126 -136 -137 -146 -147 -156 0
-19 -55 -56 -70 -72 -85 -86 -113 -114 -125 -126 -136 -137 -146 -147 -156 0
-20 -55 -57 -70 -72 -85 -86 -113 -114 -125 -126 -136 -137 -146 -147 -156 0
-20 -56 -57 -70 -73 -85 -86 -113 -114 -125 -126 -136 -137 -146 -147 -156 0
-19 -55 -56 -71 -72 -85 -87 -113 -114 -125 -126 -136 -137 -146 -147 -156 0
-20 -55 -57 -71 -72 -85 -87 -113 -114 -125 -126 -136 -137 -146 -147 -156 0
-20 -56 -57 -71 -73 -85 -87 -113 -114 -125 -126 -136 -137 -146 -147 -156 0
-20 -56 -57 -72 -73 -85 -88 -113 -114 -125 -126 -136 -137 -146 -147 -156 0
-19 -55 -56 -71 -72 -86 -87 -113 -115 -125 -126 -136 -137 -146 -147 -156 0
-20 -55 -57 -71 -72 -86 -87 -113 -115 -125 -126 -136 -137 -146 -147 -156 0
-20 -56 -57 -71 -73 -86 -87 -113 -115 -125 -126 -136 -137 -146 -147 -156 0
-20 -56 -57 -72 -73 -86 -88 -113 -115 -125 -126 -136 -137 -146 -147 -156 0
-20 -56 -57 -72 -73 -87 -88 -113 -116 -125 -126 -136 -137 -146 -147 -156 0
-19 -55 -56 -71 -72 -86 -87 -114 -115 -125 -127 -136 -137 -146 -147 -156 0
-20 -55 -57 -71 -72 -86 -87 -114 -115 -125 -127 -136 -137 -146 -147 -156 0
-20 -56 -57 -71 -73 -86 -87 -114 -115 -125 -127 -136 -137 -146 -147 -156 0
-20 -56 -57 -72 -73 -86 -88 -114 -115 -125 -127 -136 -137 -146 -147 -156 0
-20 -56 -57 -72 -73 -87 -88 -114 -116 -125 -127 -136 -137 -146 -147 -156 0
-20 -56 -57 -72 -73 -87 -88 -115 -116 -125 -128 -136 -137 -146 -147 -156 0
-19 -55 -56 -71 -72 -86 -87 -114 -115 -126 -127 -136 -138 -146 -147 -156 0
-20 -55 -57 -71 -72 -86 -87 -114 -115 -126 -127 -136 -138 -146 -147 -156 0
-20 -56 -57 -71 -73 -86 -87 -114 -115 -126 -127 -136 -138 -146 -147 -156 0
-20 -56 -57 -72 -73 -86 -88 -114 -115 -126 -127 -136 -138 -146 -147 -156 0
-20 -56 -57 -72 -73 -87 -88 -114 -116 -126 -127 -136 -138 -146 -147 -156 0
-20 -56 -57 -72 -73 -87 -88 -115 -116 -126 -128 -136 -138 -146 -147 -156 0
-20 -56 -57 -72 -73 -87 -88 -115 -116 -127 -128 -136 -139 -146 -147 -156 0
-19 -55 -56 -71 -72 -86 -87 -114 -115 -126 -127 -137 -138 -146 -148 -156 0
-20 -55 -57 -71 -72 -86 -87 -114 -115 -126 -127 -137 -138 -146 -148 -156 0
-20 -56 -57 -71 -73 -86 -87 -114 -115 -126 -127 -137 -138 -146 -148 -156 0
-20 -56 -57 -72 -73 -86 -88 -114 -115 -126 -127 -137 -138 -146 -148 -156 0
-20 -56 -57 -72 -73 -87 -88 -114 -116 -126 -127 -137 -138 -146 -148 -156 0
-20 -56 -57 -72 -73 -87 -88 -115 -116 -126 -128 -137 -138 -146 -148 -156 0
-20 -56 -57 -72 -73 -87 -88 -115 -116 -127 -128 -137 -139 -146 -148 -156 0
-20 -56 -57 -72 -73 -87 -88 -115 -116 -127 -128 -138 -139 -146 -149 -156 0
-19 -55 -56 -71 -72 -86 -87 -114 -115 -126 -127 -137 -138 -147 -148 -157 0
-20 -55 -57 -71 -72 -86 -87 -114 -115 -126 -127 -137 -138 -147 -148 -157 0
-20 -56 -57 -71 -73 -86 -87 -114 -115 -126 -127 -137 -138 -147 -148 -157 0
-20 -56 -57 -72 -73 -86 -88 -114 -115 -126 -127 -137 -138 -147 -148 -157 0
-20 -56 -57 -72 -73 -87 -88 -114 -116 -126 -127 -137 -138 -147 -148 -157 0
-20 -56 -57 -72 -73 -87 -88 -115 -116 -126 -128 -137 -138 -147 -148 -157 0
-20 -56 -57 -72 -73 -87 -88 -115 -116 -127 -128 -137 -139 -147 -148 -157 0
-20 -56 -57 -72 -73 -87 -88 -115 -116 -127 -128 -138 -139 -147 -149 -157 0
-20 -56 -57 -72 -73 -87 -88 -115 -116 -127 -128 -138 -139 -148 -149 -158 0
-19 -55 -56 -71 -72 -86 -87 -114 -115 -126 -127 -137 -138 -147 -148 -166 0
-20 -55 -57 -71 -72 -86 -87 -114 -115 -126 -127 -137 -138 -147 -148 -166 0
-20 -56 -57 -71 -73 -86 -87 -114 -115 -126 -127 -137 -138 -147 -148 -166 0
-20 -56 -57 -72 -73 -86 -88 -114 -115 -126 -127 -137 -138 -147 -148 -166 0
-20 -56 -57 -72 -73 -87 -88 -114 -116 -126 -127 -137 -138 -147 -148 -166 0
-20 -56 -57 -72 -73 -87 -88 -115 -116 -126 -128 -137 -138 -147 -148 -166 0
-20 -56 -57 -72 -73 -87 -88 -115 -116 -127 -128 -137 -139 -147 -148 -166 0
-20 -56 -57 -72 -73 -87 -88 -115 -116 -127 -128 -138 -139 -147 -149 -166 0
-20 -56 -57 -72 -73 -87 -88 -115 -116 -127 -128 -138 -139 -148 -149 -167 0
-20 -56 -57 -72 -73 -87 -88 -115 -116 -127 -128 -138 -139 -148 -149 -175 0
-19 -55 -56 -71 -72 -86 -87 -114 -115 -126 -127 -137 -138 -157 -158 -166 0
-20 -55 -57 -71 -72 -86 -87 -114 -115 -126 -127 -137 -138 -157 -158 -166 0
-20 -56 -57 -71 -73 -86 -87 -114 -115 -126 -127 -137 -138 -157 -158 -166 0
-20 -56 -57 -72 -73 -86 -88 -114 -115 -126 -127 -137 -138 -157 -158 -166 0
-20 -56 -57 -72 -73 -87 -88 -114 -116 -126 -127 -137 -138 -157 -158 -166 0
-20 -56 -57 -72 -73 -87 -88 -115 -116 -126 -128 -137 -138 -157 -158 -166 0
-20 -56 -57 -72 -73 -87 -88 -115 -116 -127 -128 -137 -139 -157 -158 -166 0
-20 -56 -57 -72 -73 -87 -88 -115 -116 -127 -128 -138 -139 -157 -159 -166 0
-20 -56 -57 -72 -73 -87 -88 -115 -116 -127 -128 -138 -139 -158 -159 -167 0
-20 -56 -57 -72 -73 -87 -88 -115 -116 -127 -128 -138 -139 -158 -159 -175 0
-20 -56 -57 -72 -73 -87 -88 -115 -116 -127 -128 -138 -139 -167 -168 -175 0
-19 -55 -56 -71 -72 -86 -87 -114 -115 -126 -127 -148 -149 -157 -158 -166 0
-20 -55 -57 -71 -72 -86 -87 -114 -115 -126 -127 -148 -149 -157 -158 -166 0
-20 -56 -57 -71 -73 -86 -87 -114 -115 -126 -127 -148 -149 -157 -158 -166 0
-20 -56 -57 -72 -73 -86 -88 -114 -115 -126 -127 -148 -149 -157 -158 -166 0
-20 -56 -57 -72 -73 -87 -88 -114 -116 -126 -127 -148 -149 -157 -158 -166 0
-20 -56 -57 -72 -73 -87 -88 -115 -116 -126 -128 -148 -149 -157 -158 -166 0
-20 -56 -57 -72 -73 -87 -88 -115 -116 -127 -128 -148 -150 -157 -158 -166 0
-20 -56 -57 -72 -73 -87 -88 -115 -116 -127 -128 -149 -150 -157 -159 -166 0
-20 -56 -57 -72 -73 -87 -88 -115 -116 -127 -128 -149 -150 -158 -159 -167 0
-20 -56 -57 -72 -73 -87 -88 -115 -116 -127 -128 -149 -150 -158 -159 -175 0
-20 -56 -57 -72 -73 -87 -88 -115 -116 -127 -128 -149 -150 -167 -168 -175 0
-20 -56 -57 -72 -73 -87 -88 -115 -116 -127 -128 -159 -160 -167 -168 -175 0
-19 -55 -56 -71 -72 -86 -87 -114 -115 -138 -139 -148 -149 -157 -158 -166 0
-20 -55 -57 -71 -72 -86 -87 -114 -115 -138 -139 -148 -149 -157 -158 -166 0
-20 -56 -57 -71 -73 -86 -87 -114 -115 -138 -139 -148 -149 -157 -158 -166 0
-20 -56 -57 -72 -73 -86 -88 -114 -115 -138 -139 -148 -149 -157 -158 -166 0
-20 -56 -57 -72 -73 -87 -88 -114 -116 -138 -139 -148 -149 -157 -158 -166 0
-20 -56 -57 -72 -73 -87 -88 -115 -116 -138 -140 -148 -149 -157 -158 -166 0
-20 -56 -57 -72 -73 -87 -88 -115 -116 -139 -140 -148 -150 -157 -158 -166 0
-20 -56 -57 -72 -73 -87 -88 -115 -116 -139 -140 -149 -150 -157 -159 -166 0
-20 -56 -57 -72 -73 -87 -88 -115 -116 -139 -140 -149 -150 -158 -159 -167 0
-20 -56 -57 -72 -73 -87 -88 -115 -116 -139 -140 -149 -150 -158 -159 -175 0
-20 -56 -57 -72 -73 -87 -88 -115 -116 -139 -140 -149 -150 -167 -168 -175 0
-20 -56 -57 -72 -73 -87 -88 -115 -116 -139 -140 -159 -160 -167 -168 -175 0
-20 -56 -57 -72 -73 -87 -88 -115 -116 -150 -151 -159 -160 -167 -168 -175 0
-19 -55 -56 -71 -72 -86 -87 -127 -128 -138 -139 -148 -149 -157 -158 -166 0
-20 -55 -57 -71 -72 -86 -87 -127 -128 -138 -139 -148 -149 -157 -158 -166 0
-20 -56 -57 -71 -73 -86 -87 -127 -128 -138 -139 -148 -149 -157 -158 -166 0
-20 -56 -57 -72 -73 -86 -88 -127 -128 -138 -139 -148 -149 -157 -158 -166 0
-20 -56 -57 -72 -73 -87 -88 -127 -129 -138 -139 -148 -149 -157 -158 -166 0
-20 -56 -57 -72 -73 -87 -88 -128 -129 -138 -140 -148 -149 -157 -158 -166 0
-20 -56 -57 -72 -73 -87 -88 -128 -129 -139 -140 -148 -150 -157 -158 -166 0
-20 -56 -57 -72 -73 -87 -88 -128 -129 -139 -140 -149 -150 -157 -159 -166 0
-20 -56 -57 -72 -73 -87 -88 -128 -129 -139 -140 -149 -150 -158 -159 -167 0
-20 -56 -57 -72 -73 -87 -88 -128 -129 -139 -140 -149 -150 -158 -159 -175 0
-20 -56 -57 -72 -73 -87 -88 -128 -129 -139 -140 -149 -150 -167 -168 -175 0
-20 -56 -57 -72 -73 -87 -88 -128 -129 -139 -140 -159 -160 -167 -168 -175 0
-20 -56 -57 -72 -73 -87 -88 -128 -129 -150 -151 -159 -160 -167 -168 -175 0
-20 -56 -57 -72 -73 -87 -88 -140 -141 -150 -151 -159 -160 -167 -168 -175 0
-18 -54 -55 -70 -71 -100 -101 -113 -114 -125 -126 -136 -137 -146 -147 -156 0
-19 -54 -56 -70 -71 -100 -101 -113 -114 -125 -126 -136 -137 -146 -147 -156 0
-20 -54 -57 -70 -71 -100 -101 -113 -114 -125 -126 -136 -137 -146 -147 -156 0
-19 -55 -56 -70 -72 -100 -101 -113 -114 -125 -126 -136 -137 -146 -147 -156 0
-20 -55 -57 -70 -72 -100 -101 -113 -114 -125 -126 -136 -137 -146 -147 -156 0
-20 -56 -57 -70 -73 -100 -101 -113 -114 -125 -126 -136 -137 -146 -147 -156 0
-19 -55 -56 -71 -72 -100 -102 -113 -114 -125 -126 -136 -137 -146 -147 -156 0
-20 -55 -57 -71 -72 -100 -102 -113 -114 -125 -126 -136 -137 -146 -147 -156 0
-20 -56 -57 -71 -73 -100 -102 -113 -114 -125 -126 -136 -137 -146 -147 -156 0
-20 -56 -57 -72 -73 -100 -103 -113 -114 -125 -126 -136 -137 -146 -147 -156 0
-19 -55 -56 -71 -72 -101 -102 -113 -115 -125 -126 -136 -137 -146 -147 -156 0
-20 -55 -57 -71 -72 -101 -102 -113 -115 -125 -126 -136 -137 -146 -147 -156 0
-20 -56 -57 -71 -73 -101 -102 -113 -115 -125 -126 -136 -137 -146 -147 -156 0
-20 -56 -57 -72 -73 -101 -103 -113 -115 -125 -126 -136 -137 -146 -147 -156 0
-20 -56 -57 -72 -73 -102 -103 -113 -116 -125 -126 -136 -137 -146 -147 -156 0
-19 -55 -56 -71 -72 -101 -102 -114 -115 -125 -127 -136 -137 -146 -147 -156 0
-20 -55 -57 -71 -72 -101 -102 -114 -115 -125 -127 -136 -137 -146 -147 -156 0
-20 -56 -57 -71 -73 -101 -102 -114 -115 -125 -127 -136 -137 -146 -147 -156 0
-20 -56 -57 -72 -73 -101 -103 -114 -115 -125 -127 -136 -137 -146 -147 -156 0
-20 -56 -57 -72 -73 -102 -103 -114 -116 -125 -127 -136 -137 -146 -147 -156 0
-20 -56 -57 -72 -73 -102 -103 -115 -116 -125 -128 -136 -137 -146 -147 -156 0
-19 -55 -56 -71 -72 -101 -102 -114 -115 -126 -127 -136 -138 -146 -147 -156 0
-20 -55 -57 -71 -72 -101 -102 -114 -115 -126 -127 -136 -138 -146 -147 -156 0
-20 -56 -57 -71 -73 -101 -102 -114 -115 -126 -127 -136 -138 -146 -147 -156 0
-20 -56 -57 -72 -73 -101 -103 -114 -115 -126 -127 -136 -138 -146 -147 -156 0
-20 -56 -57 -72 -73 -102 -103 -114 -116 -126 -127 -136 -138 -146 -147 -156 0
-20 -56 -57 -72 -73 -102 -103 -115 -116 -126 -128 -136 -138 -146 -147 -156 0
-20 -56 -57 -72 -73 -102 -103 -115 -116 -127 -128 -136 -139 -146 -147 -156 0
-19 -55 -56 -71 -72 -101 -102 -114 -115 -126 -127 -137 -138 -146 -148 -156 0
-20 -55 -57 -71 -72 -101 -102 -114 -115 -126 -127 -137 -138 -146 -148 -156 0
-20 -56 -57 -71 -73 -101 -102 -114 -115 -126 -127 -137 -138 -146 -148 -156 0
-20 -56 -57 -72 -73 -101 -103 -114 -115 -126 -127 -137 -138 -146 -148 -156 0
-20 -56 -57 -72 -73 -102 -103 -114 -116 -126 -127 -137 -138 -146 -148 -156 0
-20 -56 -57 -72 -73 -102 -103 -115 -116 -126 -128 -137 -138 -146 -148 -156 0
-20 -56 -57 -72 -73 -102 -103 -115 -116 -127 -128 -137 -139 -146 -148 -156 0
-20 -56 -57 -72 -73 -102 -103 -115 -116 -127 -128 -138 -139 -146 -149 -156 0
-19 -55 -56 -71 -72 -101 -102 -114 -115 -126 -127 -137 -138 -147 -148 -157 0
-20 -55 -57 -71 -72 -101 -102 -114 -115 -126 -127 -137 -138 -147 -148 -157 0
-20 -56 -57 -71 -73 -101 -102 -114 -115 -126 -127 -137 -138 -147 -148 -157 0
-20 -56 -57 -72 -73 -101 -103 -114 -115 -126 -127 -137 -138 -147 -148 -157 0
-20 -56 -57 -72 -73 -102 -103 -114 -116 -126 -127 -137 -138 -147 -148 -157 0
-20 -56 -57 -72 -73 -102 -103 -115 -116 -126 -128 -137 -138 -147 -148 -157 0
-20 -56 -57 -72 -73 -102 -103 -115 -116 -127 -128 -137 -139 -147 -148 -157 0
-20 -56 -57 -72 -73 -102 -103 -115 -116 -127 -128 -138 -139 -147 -149 -157 0
-20 -56 -57 -72 -73 -102 -103 -115 -116 -127 -128 -138 -139 -148 -149 -158 0
-19 -55 -56 -71 -72 -101 -102 -114 -115 -126 -127 -137 -138 -147 -148 -166 0
-20 -55 -57 -71 -72 -101 -102 -114 -115 -126 -127 -137 -138 -147 -148 -166 0
-20 -56 -57 -71 -73 -101 -102 -114 -115 -126 -127 -137 -138 -147 -148 -166 0
-20 -56 -57 -72 -73 -101 -103 -114 -115 -126 -127 -137 -138 -147 -148 -166 0
-20 -56 -57 -72 -73 -102 -103 -114 -116 -126 -127 -137 -138 -147 -148 -166 0
-20 -56 -57 -72 -73 -102 -103 -115 -116 -126 -128 -137 -138 -147 -148 -166 0
-20 -56 -57 -72 -73 -102 -103 -115 -116 -127 -128 -137 -139 -147 -148 -166 0
-20 -56 -57 -72 -73 -102 -103 -115 -116 -127 -128 -138 -139 -147 -149 -166 0
-20 -56 -57 -72 -73 -102 -103 -115 -116 -127 -128 -138 -139 -148 -149 -167 0
-20 -56 -57 -72 -73 -102 -103 -115 -116 -127 -128 -138 -139 -148 -149 -175 0
-19 -55 -56 -71 -72 -101 -102 -114 -115 -126 -127 -137 -138 -157 -158 -166 0
-20 -55 -57 -71 -72 -101 -102 -114 -115 -126 -127 -137 -138 -157 -158 -166 0
-20 -56 -57 -71 -73 -101 -102 -114 -115 -126 -127 -137 -138 -157 -158 -166 0
-20 -56 -57 -72 -73 -101 -103 -114 -115 -126 -127 -137 -138 -157 -158 -166 0
-20 -56 -57 -72 -73 -102 -103 -114 -116 -126 -127 -137 -138 -157 -158 -166 0
-20 -56 -57 -72 -73 -102 -103 -115 -116 -126 -128 -137 -138 -157 -158 -166 0
-20 -56 -57 -72 -73 -102 -103 -115 -116 -127 -128 -137 -139 -157 -158 -166 0
-20 -56 -57 -72 -73 -102 -103 -115 -116 -127 -128 -138 -139 -157 -159 -166 0
-20 -56 -57 -72 -73 -102 -103 -115 -116 -127 -128 -138 -139 -158 -159 -167 0
-20 -56 -57 -72 -73 -102 -103 -115 -116 -127 -128 -138 -139 -158 -159 -175 0
-20 -56 -57 -72 -73 -102 -103 -115 -116 -127 -128 -138 -139 -167 -168 -175 0
-19 -55 -56 -71 -72 -101 -102 -114 -115 -126 -127 -148 -149 -157 -158 -166 0
-20 -55 -57 -71 -72 -101 -102 -114 -115 -126 -127 -148 -149 -157 -158 -166 0
-20 -56 -57 -71 -73 -101 -102 -114 -115 -126 -127 -148 -149 -157 -158 -166 0
-20 -56 -57 -72 -73 -101 -103 -114 -115 -126 -127 -148 -149 -157 -158 -166 0
-20 -56 -57 -72 -73 -102 -103 -114 -116 -126 -127 -148 -149 -157 -158 -166 0
-20 -56 -57 -72 -73 -102 -103 -115 -116 -126 -128 -148 -149 -157 -158 -166 0
-20 -56 -57 -72 -73 -102 -103 -115 -116 -127 -128 -148 -150 -157 -158 -166 0
-20 -56 -57 -72 -73 -102 -103 -115 -116 -127 -128 -149 -150 -157 -159 -166 0
-20 -56 -57 -72 -73 -102 -103 -115 -116 -127 -128 -149 -150 -158 -159 -167 0
-20 -56 -57 -72 -73 -102 -103 -115 -116 -127 -128 -149 -150 -158 -159 -175 0
-20 -56 -57 -72 -73 -102 -103 -115 -116 -127 -128 -149 -150 -167 -168 -175 0
-20 -56 -57 -72 -73 -102 -103 -115 -116 -127 -128 -159 -160 -167 -168 -175 0
-19 -55 -56 -71 -72 -101 -102 -114 -115 -138 -139 -148 -149 -157 -158 -166 0
-20 -55 -57 -71 -72 -101 -102 -114 -115 -138 -139 -148 -149 -157 -158 -166 0
-20 -56 -57 -71 -73 -101 -102 -114 -115 -138 -139 -148 -149 -157 -158 -166 0
-20 -56 -57 -72 -73 -101 -103 -114 -115 -138 -139 -148 -149 -157 -158 -166 0
-20 -56 -57 -72 -73 -102 -103 -114 -116 -138 -139 -148 -149 -157 -158 -166 0
-20 -56 -57 -72 -73 -102 -103 -115 -116 -138 -140 -148 -149 -157 -158 -166 0
-20 -56 -57 -72 -73 -102 -103 -115 -116 -139 -140 -148 -150 -157 -158 -166 0
-20 -56 -57 -72 -73 -102 -103 -115 -116 -139 -140 -149 -150 -157 -159 -166 0
-20 -56 -57 -72 -73 -102 -103 -115 -116 -139 -140 -149 -150 -158 -159 -167 0
-20 -56 -57 -72 -73 -102 -103 -115 -116 -139 -140 -149 -150 -158 -159 -175 0
-20 -56 -57 -72 -73 -102 -103 -115 -116 -139 -140 -149 -150 -167 -168 -175 0
-20 -56 -57 -72 -73 -102 -103 -115 -116 -139 -140 -159 -160 -167 -168 -175 0
-20 -56 -57 -72 -73 -102 -103 -115 -116 -150 -151 -159 -160 -167 -168 -175 0
-19 -55 -56 -71 -72 -101 -102 -127 -128 -138 -139 -148 -149 -157 -158 -166 0
-20 -55 -57 -71 -72 -101 -102 -127 -128 -138 -139 -148 -149 -157 -158 -166 0
-20 -56 -57 -71 -73 -101 -102 -127 -128 -138 -139 -148 -149 -157 -158 -166 0
-20 -56 -57 -72 -73 -101 -103 -127 -128 -138 -139 -148 -149 -157 -158 -166 0
-20 -56 -57 -72 -73 -102 -103 -127 -129 -138 -139 -148 -149 -157 -158 -166 0
-20 -56 -57 -72 -73 -102 -103 -128 -129 -138 -140 -148 -149 -157 -158 -166 0
-20 -56 -57 -72 -73 -102 -103 -128 -129 -139 -140 -148 -150 -157 -158 -166 0
-20 -56 -57 -72 -73 -102 -103 -128 -129 -139 -140 -149 -150 -157 -159 -166 0
-20 -56 -57 -72 -73 -102 -103 -128 -129 -139 -140 -149 -150 -158 -159 -167 0
-20 -56 -57 -72 -73 -102 -103 -128 -129 -139 -140 -149 -150 -158 -159 -175 0
-20 -56 -57 -72 -73 -102 -103 -128 -129 -139 -140 -149 -150 -167 -168 -175 0
-20 -56 -57 -72 -73 -102 -103 -128 -129 -139 -140 -159 -160 -167 -168 -175 0
-20 -56 -57 -72 -73 -102 -103 -128 -129 -150 -151 -159 -160 -167 -168 -175 0
-20 -56 -57 -72 -73 -102 -103 -140 -141 -150 -151 -159 -160 -167 -168 -175 0
-19 -55 -56 -71 -72 -115 -116 -127 -128 -138 -139 -148 -149 -157 -158 -166 0
-20 -55 -57 -71 -72 -115 -116 -127 -128 -138 -139 -148 -149 -157 -158 -166 0
-20 -56 -57 -71 -73 -115 -116 -127 -128 -138 -139 -148 -149 -157 -158 -166 0
-20 -56 -57 -72 -73 -115 -117 -127 -128 -138 -139 -148 -149 -157 -158 -166 0
-20 -56 -57 -72 -73 -116 -117 -127 -129 -138 -139 -148 -149 -157 -158 -166 0
-20 -56 -57 -72 -73 -116 -117 -128 -129 -138 -140 -148 -149 -157 -158 -166 0
-20 -56 -57 -72 -73 -116 -117 -128 -129 -139 -140 -148 -150 -157 -158 -166 0
-20 -56 -57 -72 -73 -116 -117 -128 -129 -139 -140 -149 -150 -157 -159 -166 0
-20 -56 -57 -72 -73 -116 -117 -128 -129 -139 -140 -149 -150 -158 -159 -167 0
-20 -56 -57 -72 -73 -116 -117 -128 -129 -139 -140 -149 -150 -158 -159 -175 0
-20 -56 -57 -72 -73 -116 -117 -128 -129 -139 -140 -149 -150 -167 -168 -175 0
-20 -56 -57 -72 -73 -116 -117 -128 -129 -139 -140 -159 -160 -167 -168 -175 0
-20 -56 -57 -72 -73 -116 -117 -128 -129 -150 -151 -159 -160 -167 -168 -175 0
-20 -56 -57 -72 -73 -116 -117 -140 -141 -150 -151 -159 -160 -167 -168 -175 0
-20 -56 -57 -72 -73 -129 -130 -140 -141 -150 -151 -159 -160 -167 -168 -175 0
-18 -54 -55 -86 -87 -100 -101 -113 -114 -125 -126 -136 -137 -146 -147 -156 0
-19 -54 -56 -86 -87 -100 -101 -113 -114 -125 -126 -136 -137 -146 -147 -156 0
-20 -54 -57 -86 -87 -100 -101 -113 -114 -125 -126 -136 -137 -146 -147 -156 0
-19 -55 -56 -86 -88 -100 -101 -113 -114 -125 -126 -136 -137 -146 -147 -156 0
-20 -55 -57 -86 -88 -100 -101 -113 -114 -125 -126 -136 -137 -146 -147 -156 0
-20 -56 -57 -86 -89 -100 -101 -113 -114 -125 -126 -136 -137 -146 -147 -156 0
-19 -55 -56 -87 -88 -100 -102 -113 -114 -125 -126 -136 -137 -146 -147 -156 0
-20 -55 -57 -87 -88 -100 -102 -113 -114 -125 -126 -136 -137 -146 -147 -156 0
-20 -56 -57 -87 -89 -100 -102 -113 -114 -125 -126 -136 -137 -146 -147 -156 0
-20 -56 -57 -88 -89 -100 -103 -113 -114 -125 -126 -136 -137 -146 -147 -156 0
-19 -55 -56 -87 -88 -101 -102 -113 -115 -125 -126 -136 -137 -146 -147 -156 0
-20 -55 -57 -87 -88 -101 -102 -113 -115 -125 -126 -136 -137 -146 -147 -156 0
-20 -56 -57 -87 -89 -101 -102 -113 -115 -125 -126 -136 -137 -146 -147 -156 0
-20 -56 -57 -88 -89 -101 -103 -113 -115 -125 -126 -136 -137 -146 -147 -156 0
-20 -56 -57 -88 -89 -102 -103 -113 -116 -125 -126 -136 -137 -146 -147 -156 0
-19 -55 -56 -87 -88 -101 -102 -114 -115 -125 -127 -136 -137 -146 -147 -156 0
-20 -55 -57 -87 -88 -101 -102 -114 -115 -125 -127 -136 -137 -146 -147 -156 0
-20 -56 -57 -87 -89 -101 -102 -114 -115 -125 -127 -136 -137 -146 -147 -156 0
-20 -56 -57 -88 -89 -101 -103 -114 -115 -125 -127 -136 -137 -146 -147 -156 0
-20 -56 -57 -88 -89 -102 -103 -114 -116 -125 -127 -136 -137 -146 -147 -156 0
-20 -56 -57 -88 -89 -102 -103 -115 -116 -125 -128 -136 -137 -146 -147 -156 0
-19 -55 -56 -87 -88 -101 -102 -114 -115 -126 -127 -136 -138 -146 -147 -156 0
-20 -55 -57 -87 -88 -101 -102 -114 -115 -126 -127 -136 -138 -146 -147 -156 0
-20 -56 -57 -87 -89 -101 -102 -114 -115 -126 -127 -136 -138 -146 -147 -156 0
-20 -56 -57 -88 -89 -101 -103 -114 -115 -126 -127 -136 -138 -146 -147 -156 0
-20 -56 -57 -88 -89 -102 -103 -114 -116 -126 -127 -136 -138 -146 -147 -156 0
-20 -56 -57 -88 -89 -102 -103 -115 -116 -126 -128 -136 -138 -146 -147 -156 0
-20 -56 -57 -88 -89 -102 -103 -115 -116 -127 -128 -136 -139 -146 -147 -156 0
-19 -55 -56 -87 -88 -101 -102 -114 -115 -126 -127 -137 -138 -146 -148 -156 0
-20 -55 -57 -87 -88 -101 -102 -114 -115 -126 -127 -137 -138 -146 -148 -156 0
-20 -56 -57 -87 -89 -101 -102 -114 -115 -126 -127 -137 -138 -146 -148 -156 0
-20 -56 -57 -88 -89 -101 -103 -114 -115 -126 -127 -137 -138 -146 -148 -156 0
-20 -56 -57 -88 -89 -102 -103 -114 -116 -126 -127 -137 -138 -146 -148 -156 0
-20 -56 -57 -88 -89 -102 -103 -115 -116 -126 -128 -137 -138 -146 -148 -156 0
-20 -56 -57 -88 -89 -102 -103 -115 -116 -127 -128 -137 -139 -146 -148 -156 0
-20 -56 -57 -88 -89 -102 -103 -115 -116 -127 -128 -138 -139 -146 -149 -156 0
-19 -55 -56 -87 -88 -101 -102 -114 -115 -126 -127 -137 -138 -147 -148 -157 0
-20 -55 -57 -87 -88 -101 -102 -114 -115 -126 -127 -137 -138 -147 -148 -157 0
-20 -56 -57 -87 -89 -101 -102 -114 -115 -126 -127 -137 -138 -147 -148 -157 0
-20 -56 -57 -88 -89 -101 -103 -114 -115 -126 -127 -137 -138 -147 -148 -157 0
-20 -56 -57 -88 -89 -102 -103 -114 -116 -126 -127 -137 -138 -147 -148 -157 0
-20 -56 -57 -88 -89 -102 -103 -115 -116 -126 -128 -137 -138 -147 -148 -157 0
-20 -56 -57 -88 -89 -102 -103 -115 -116 -127 -128 -137 -139 -147 -148 -157 0
-20 -56 -57 -88 -89 -102 -103 -115 -116 -127 -128 -138 -139 -147 -149 -157 0
-20 -56 -57 -88 -89 -102 -103 -115 -116 -127 -128 -138 -139 -148 -149 -158 0
-19 -55 -56 -87 -88 -101 -102 -114 -115 -126 -127 -137 -138 -147 -148 -166 0
-20 -55 -57 -87 -88 -101 -102 -114 -115 -126 -127 -137 -138 -147 -148 -166 0
-20 -56 -57 -87 -89 -101 -102 -114 -115 -126 -127 -137 -138 -147 -148 -166 0
-20 -56 -57 -88 -89 -101 -103 -114 -115 -126 -127 -137 -138 -147 -148 -166 0
-20 -56 -57 -88 -89 -102 -103 -114 -116 -126 -127 -137 -138 -147 -148 -166 0
-20 -56 -57 -88 -89 -102 -103 -115 -116 -126 -128 -137 -138 -147 -148 -166 0
-20 -56 -57 -88 -89 -102 -103 -115 -116 -127 -128 -137 -139 -147 -148 -166 0
-20 -56 -57 -88 -89 -102 -103 -115 -116 -127 -128 -138 -139 -147 -149 -166 0
-20 -56 -57 -88 -89 -102 -103 -115 -116 -127 -128 -138 -139 -148 -149 -167 0
-20 -56 -57 -88 -89 -102 -103 -115 -116 -127 -128 -138 -139 -148 -149 -175 0
-19 -55 -56 -87 -88 -101 -102 -114 -115 -126 -127 -137 -138 -157 -158 -166 0
-20 -55 -57 -87 -88 -101 -102 -114 -115 -126 -127 -137 -138 -157 -158 -166 0
-20 -56 -57 -87 -89 -101 -102 -114 -115 -126 -127 -137 -138 -157 -158 -166 0
-20 -56 -57 -88 -89 -101 -103 -114 -115 -126 -127 -137 -138 -157 -158 -166 0
-20 -56 -57 -88 -89 -102 -103 -114 -116 -126 -127 -137 -138 -157 -158 -166 0
-20 -56 -57 -88 -89 -102 -103 -115 -116 -126 -128 -137 -138 -157 -158 -166 0
-20 -56 -57 -88 -89 -102 -103 -115 -116 -127 -128 -137 -139 -157 -158 -166 0
-20 -56 -57 -88 -89 -102 -103 -115 -116 -127 -128 -138 -139 -157 -159 -166 0
-20 -56 -57 -88 -89 -102 -103 -115 -116 -127 -128 -138 -139 -158 -159 -167 0
-20 -56 -57 -88 -89 -102 -103 -115 -116 -127 -128 -138 -139 -158 -159 -175 0
-20 -56 -57 -88 -89 -102 -103 -115 -116 -127 -128 -138 -139 -167 -168 -175 0
-19 -55 -56 -87 -88 -101 -102 -114 -115 -126 -127 -148 -149 -157 -158 -166 0
-20 -55 -57 -87 -88 -101 -102 -114 -115 -126 -127 -148 -149 -157 -158 -166 0
-20 -56 -57 -87 -89 -101 -102 -114 -115 -126 -127 -148 -149 -157 -158 -166 0
-20 -56 -57 -88 -89 -101 -103 -114 -115 -126 -127 -148 -149 -157 -158 -166 0
-20 -56 -57 -88 -89 -102 -103 -114 -116 -126 -127 -148 -149 -157 -158 -166 0
-20 -56 -57 -88 -89 -102 -103 -115 -116 -126 -128 -148 -149 -157 -158 -166 0
-20 -56 -57 -88 -89 -102 -103 -115 -116 -127 -128 -148 -150 -157 -158 -166 0
-20 -56 -57 -88 -89 -102 -103 -115 -116 -127 -128 -149 -150 -157 -159 -166 0
-20 -56 -57 -88 -89 -102 -103 -115 -116 -127 -128 -149 -150 -158 -159 -167 0
-20 -56 -57 -88 -89 -102 -103 -115 -116 -127 -128 -149 -150 -158 -159 -175 0
-20 -56 -57 -88 -89 -102 -103 -115 -116 -127 -128 -149 -150 -167 -168 -175 0
-20 -56 -57 -88 -89 -102 -103 -115 -116 -127 -128 -159 -160 -167 -168 -175 0
-19 -55 -56 -87 -88 -101 -102 -114 -115 -138 -139 -148 -149 -157 -158 -166 0
-20 -55 -57 -87 -88 -101 -102 -114 -115 -138 -139 -148 -149 -157 -158 -166 0
-20 -56 -57 -87 -89 -101 -102 -114 -115 -138 -139 -148 -149 -157 -158 -166 0
-20 -56 -57 -88 -89 -101 -103 -114 -115 -138 -139 -148 -149 -157 -158 -166 0
-20 -56 -57 -88 -89 -102 -103 -114 -116 -138 -139 -148 -149 -157 -158 -166 0
-20 -56 -57 -88 -89 -102 -103 -115 -116 -138 -140 -148 -149 -157 -158 -166 0
-20 -56 -57 -88 -89 -102 -103 -115 -116 -139 -140 -148 -150 -157 -158 -166 0
-20 -56 -57 -88 -89 -102 -103 -115 -116 -139 -140 -149 -150 -157 -159 -166 0
-20 -56 -57 -88 -89 -102 -103 -115 -116 -139 -140 -149 -150 -158 -159 -167 0
-20 -56 -57 -88 -89 -102 -103 -115 -116 -139 -140 -149 -150 -158 -159 -175 0
-20 -56 -57 -88 -89 -102 -103 -115 -116 -139 -140 -149 -150 -167 -168 -175 0
-20 -56 -57 -88 -89 -102 -103 -115 -116 -139 -140 -159 -160 -167 -168 -175 0
-20 -56 -57 -88 -89 -102 -103 -115 -116 -150 -151 -159 -160 -167 -168 -175 0
-19 -55 -56 -87 -88 -101 -102 -127 -128 -138 -139 -148 -149 -157 -158 -166 0
-20 -55 -57 -87 -88 -101 -102 -127 -128 -138 -139 -148 -149 -157 -158 -166 0
-20 -56 -57 -87 -89 -101 -102 -127 -128 -138 -139 -148 -149 -157 -158 -166 0
-20 -56 -57 -88 -89 -101 -103 -127 -128 -138 -139 -148 -149 -157 -158 -166 0
-20 -56 -57 -88 -89 -102 -103 -127 -129 -138 -139 -148 -149 -157 -158 -166 0
-20 -56 -57 -88 -89 -102 -103 -128 -129 -138 -140 -148 -149 -157 -158 -166 0
-20 -56 -57 -88 -89 -102 -103 -128 -129 -139 -140 -148 -150 -157 -158 -166 0
-20 -56 -57 -88 -89 -102 -103 -128 -129 -139 -140 -149 -150 -157 -159 -166 0
-20 -56 -57 -88 -89 -102 -103 -128 -129 -139 -140 -149 -150 -158 -159 -167 0
-20 -56 -57 -88 -89 -102 -103 -128 -129 -139 -140 -149 -150 -158 -159 -175 0
-20 -56 -57 -88 -89 -102 -103 -128 -129 -139 -140 -149 -150 -167 -168 -175 0
-20 -56 -57 -88 -89 -102 -103 -128 -129 -139 -140 -159 -160 -167 -168 -175 0
-20 -56 -57 -88 -89 -102 -103 -128 -129 -150 -151 -159 -160 -167 -168 -175 0
-20 -56 -57 -88 -89 -102 -103 -140 -141 -150 -151 -159 -160 -167 -168 -175 0
-19 -55 -56 -87 -88 -115 -116 -127 -128 -138 -139 -148 -149 -157 -158 -166 0
-20 -55 -57 -87 -88 -115 -116 -127 -128 -138 -139 -148 -149 -157 -158 -166 0
-20 -56 -57 -87 -89 -115 -116 -127 -128 -138 -139 -148 -149 -157 -158 -166 0
-20 -56 -57 -88 -89 -115 -117 -127 -128 -138 -139 -148 -149 -157 -158 -166 0
-20 -56 -57 -88 -89 -116 -117 -127 -129 -138 -139 -148 -149 -157 -158 -166 0
-20 -56 -57 -88 -89 -116 -117 -128 -129 -138 -140 -148 -149 -157 -158 -166 0
-20 -56 -57 -88 -89 -116 -117 -128 -129 -139 -140 -148 -150 -157 -158 -166 0
-20 -56 -57 -88 -89 -116 -117 -128 -129 -139 -140 -149 -150 -157 -159 -166 0
-20 -56 -57 -88 -89 -116 -117 -128 -129 -139 -140 -149 -150 -158 -159 -167 0
-20 -56 -57 -88 -89 -116 -117 -128 -129 -139 -140 -149 -150 -158 -159 -175 0
-20 -56 -57 -88 -89 -116 -117 -128 -129 -139 -140 -149 -150 -167 -168 -175 0
-20 -56 -57 -88 -89 -116 -117 -128 -129 -139 -140 -159 -160 -167 -168 -175 0
-20 -56 -57 -88 -89 -116 -117 -128 -129 -150 -151 -159 -160 -167 -168 -175 0
-20 -56 -57 -88 -89 -116 -117 -140 -141 -150 -151 -159 -160 -167 -168 -175 0
-20 -56 -57 -88 -89 -129 -130 -140 -141 -150 -151 -159 -160 -167 -168 -175 0
-19 -55 -56 -102 -103 -115 -116 -127 -128 -138 -139 -148 -149 -157 -158 -166 0
-20 -55 -57 -102 -103 -115 -116 -127 -128 -138 -139 -148 -149 -157 -158 -166 0
-20 -56 -57 -102 -104 -115 -116 -127 -128 -138 -139 -148 -149 -157 -158 -166 0
-20 -56 -57 -103 -104 -115 -117 -127 -128 -138 -139 -148 -149 -157 -158 -166 0
-20 -56 -57 -103 -104 -116 -117 -127 -129 -138 -139 -148 -149 -157 -158 -166 0
-20 -56 -57 -103 -104 -116 -117 -128 -129 -138 -140 -148 -149 -157 -158 -166 0
-20 -56 -57 -103 -104 -116 -117 -128 -129 -139 -140 -148 -150 -157 -158 -166 0
-20 -56 -57 -103 -104 -116 -117 -128 -129 -139 -140 -149 -150 -157 -159 -166 0
-20 -56 -57 -103 -104 -116 -117 -128 -129 -139 -140 -149 -150 -158 -159 -167 0
-20 -56 -57 -103 -104 -116 -117 -128 -129 -139 -140 -149 -150 -158 -159 -175 0
-20 -56 -57 -103 -104 -116 -117 -128 -129 -139 -140 -149 -150 -167 -168 -175 0
-20 -56 -57 -103 -104 -116 -117 -128 -129 -139 -140 -159 -160 -167 -168 -175 0
-20 -56 -57 -103 -104 -116 -117 -128 -129 -150 -151 -159 -160 -167 -168 -175 0
-20 -56 -57 -103 -104 -116 -117 -140 -141 -150 -151 -159 -160 -167 -168 -175 0
-20 -56 -57 -103 -104 -129 -130 -140 -141 -150 -151 -159 -160 -167 -168 -175 0
-20 -56 -57 -117 -118 -129 -130 -140 -141 -150 -151 -159 -160 -167 -168 -175 0
-18 -71 -72 -86 -87 -100 -101 -113 -114 -125 -126 -136 -137 -146 -147 -156 0
-19 -71 -73 -86 -87 -100 -101 -113 -114 -125 -126 -136 -137 -146 -147 -156 0
-20 -71 -74 -86 -87 -100 -101 -113 -114 -125 -126 -136 -137 -146 -147 -156 0
-19 -72 -73 -86 -88 -100 -101 -113 -114 -125 -126 -136 -137 -146 -147 -156 0
-20 -72 -74 -86 -88 -100 -101 -113 -114 -125 -126 -136 -137 -146 -147 -156 0
-20 -73 -74 -86 -89 -100 -101 -113 -114 -125 -126 -136 -137 -146 -147 -156 0
-19 -72 -73 -87 -88 -100 -102 -113 -114 -125 -126 -136 -137 -146 -147 -156 0
-20 -72 -74 -87 -88 -100 -102 -113 -114 -125 -126 -136 -137 -146 -147 -156 0
-20 -73 -74 -87 -89 -100 -102 -113 -114 -125 -126 -136 -137 -146 -147 -156 0
-20 -73 -74 -88 -89 -100 -103 -113 -114 -125 -126 -136 -137 -146 -147 -156 0
-19 -72 -73 -87 -88 -101 -102 -113 -115 -125 -126 -136 -137 -146 -147 -156 0
-20 -72 -74 -87 -88 -101 -102 -113 -115 -125 -126 -136 -137 -146 -147 -156 0
-20 -73 -74 -87 -89 -101 -102 -113 -115 -125 -126 -136 -137 -146 -147 -156 0
-20 -73 -74 -88 -89 -101 -103 -113 -115 -125 -126 -136 -137 -146 -147 -156 0
-20 -73 -74 -88 -89 -102 -103 -113 -116 -125 -126 -136 -137 -146 -147 -156 0
-19 -72 -73 -87 -88 -101 -102 -114 -115 -125 -127 -136 -137 -146 -147 -156 0
-20 -72 -74 -87 -88 -101 -102 -114 -115 -125 -127 -136 -137 -146 -147 -156 0
-20 -73 -74 -87 -89 -101 -102 -114 -115 -125 -127 -136 -137 -146 -147 -156 0
-20 -73 -74 -88 -89 -101 -103 -114 -115 -125 -127 -136 -137 -146 -147 -156 0
-20 -73 -74 -88 -89 -102 -103 -114 -116 -125 -127 -136 -137 -146 -147 -156 0
-20 -73 -74 -88 -89 -102 -103 -115 -116 -125 -128 -136 -137 -146 -147 -156 0
-19 -72 -73 -87 -88 -101 -102 -114 -115 -126 -127 -136 -138 -146 -147 -156 0
-20 -72 -74 -87 -88 -101 -102 -114 -115 -126 -127 -136 -138 -146 -147 -156 0
-20 -73 -74 -87 -89 -101 -102 -114 -115 -126 -127 -136 -138 -146 -147 -156 0
-20 -73 -74 -88 -89 -101 -103 -114 -115 -126 -127 -136 -138 -146 -147 -156 0
-20 -73 -74 -88 -89 -102 -103 -114 -116 -126 -127 -136 -138 -146 -147 -156 0
-20 -73 -74 -88 -89 -102 -103 -115 -116 -126 -128 -136 -138 -146 -147 -156 0
-20 -73 -74 -88 -89 -102 -103 -115 -116 -127 -128 -136 -139 -146 -147 -156 0
-19 -72 -73 -87 -88 -101 -102 -114 -115 -126 -127 -137 -138 -146 -148 -156 0
-20 -72 -74 -87 -88 -101 -102 -114 -115 -126 -127 -137 -138 -146 -148 -156 0
-20 -73 -74 -87 -89 -101 -102 -114 -115 -126 -127 -137 -138 -146 -148 -156 0
-20 -73 -74 -88 -89 -101 -103 -114 -115 -126 -127 -137 -138 -146 -148 -156 0
-20 -73 -74 -88 -89 -102 -103 -114 -116 -126 -127 -137 -138 -146 -148 -156 0
-20 -73 -74 -88 -89 -102 -103 -115 -116 -126 -128 -137 -138 -146 -148 -156 0
-20 -73 -74 -88 -89 -102 -103 -115 -116 -127 -128 -137 -139 -146 -148 -156 0
-20 -73 -74 -88 -89 -102 -103 -115 -116 -127 -128 -138 -139 -146 -149 -156 0
-19 -72 -73 -87 -88 -101 -102 -114 -115 -126 -127 -137 -138 -147 -148 -157 0
-20 -72 -74 -87 -88 -101 -102 -114 -115 -126 -127 -137 -138 -147 -148 -157 0
-20 -73 -74 -87 -89 -101 -102 -114 -115 -126 -127 -137 -138 -147 -148 -157 0
-20 -73 -74 -88 -89 -101 -103 -114 -115 -126 -127 -137 -138 -147 -148 -157 0
-20 -73 -74 -88 -89 -102 -103 -114 -116 -126 -127 -137 -138 -147 -148 -157 0
-20 -73 -74 -88 -89 -102 -103 -115 -116 -126 -128 -137 -138 -147 -148 -157 0
-20 -73 -74 -88 -89 -102 -103 -115 -116 -127 -128 -137 -139 -147 -148 -157 0
-20 -73 -74 -88 -89 -102 -103 -115 -116 -127 -128 -138 -139 -147 -149 -157 0
-20 -73 -74 -88 -89 -102 -103 -115 -116 -127 -128 -138 -139 -148 -149 -158 0
-19 -72 -73 -87 -88 -101 -102 -114 -115 -126 -127 -137 -138 -147 -148 -166 0
-20 -72 -74 -87 -88 -101 -102 -114 -115 -126 -127 -137 -138 -147 -148 -166 0
-20 -73 -74 -87 -89 -101 -102 -114 -115 -126 -127 -137 -138 -147 -148 -166 0
-20 -73 -74 -88 -89 -101 -103 -114 -115 -126 -127 -137 -138 -147 -148 -166 0
-20 -73 -74 -88 -89 -102 -103 -114 -116 -126 -127 -137 -138 -147 -148 -166 0
-20 -73 -74 -88 -89 -102 -103 -115 -116 -126 -128 -137 -138 -147 -148 -166 0
-20 -73 -74 -88 -89 -102 -103 -115 -116 -127 -128 -137 -139 -147 -148 -166 0
-20 -73 -74 -88 -89 -102 -103 -115 -116 -127 -128 -138 -139 -147 -149 -166 0
-20 -73 -74 -88 -89 -102 -103 -115 -116 -127 -128 -138 -139 -148 -149 -167 0
-20 -73 -74 -88 -89 -102 -103 -115 -116 -127 -128 -138 -139 -148 -149 -175 0
-19 -72 -73 -87 -88 -101 -102 -114 -115 -126 -127 -137 -138 -157 -158 -166 0
-20 -72 -74 -87 -88 -101 -102 -114 -115 -126 -127 -137 -138 -157 -158 -166 0
-20 -73 -74 -87 -89 -101 -102 -114 -115 -126 -127 -137 -138 -157 -158 -166 0
-20 -73 -74 -88 -89 -101 -103 -114 -115 -126 -127 -137 -138 -157 -158 -166 0
-20 -73 -74 -88 -89 -102 -103 -114 -116 -126 -127 -137 -138 -157 -158 -166 0
-20 -73 -74 -88 -89 -102 -103 -115 -116 -126 -128 -137 -138 -157 -158 -166 0
-20 -73 -74 -88 -89 -102 -103 -115 -116 -127 -128 -137 -139 -157 -158 -166 0
-20 -73 -74 -88 -89 -102 -103 -115 -116 -127 -128 -138 -139 -157 -159 -166 0
-20 -73 -74 -88 -89 -102 -103 -115 -116 -127 -128 -138 -139 -158 -159 -167 0
-20 -73 -74 -88 -89 -102 -103 -115 -116 -127 -128 -138 -139 -158 -159 -175 0
-20 -73 -74 -88 -89 -102 -103 -115 -116 -127 -128 -138 -139 -167 -168 -175 0
-19 -72 -73 -87 -88 -101 -102 -114 -115 -126 -127 -148 -149 -157 -158 -166 0
-20 -72 -74 -87 -88 -101 -102 -114 -115 -126 -127 -148 -149 -157 -158 -166 0
-20 -73 -74 -87 -89 -101 -102 -114 -115 -126 -127 -148 -149 -157 -158 -166 0
-20 -73 -74 -88 -89 -101 -103 -114 -115 -126 -127 -148 -149 -157 -158 -166 0
-20 -73 -74 -88 -89 -102 -103 -114 -116 -126 -127 -148 -149 -157 -158 -166 0
-20 -73 -74 -88 -89 -102 -103 -115 -116 -126 -128 -148 -149 -157 -158 -166 0
-20 -73 -74 -88 -89 -102 -103 -115 -116 -127 -128 -148 -150 -157 -158 -166 0
-20 -73 -74 -88 -89 -102 -103 -115 -116 -127 -128 -149 -150 -157 -159 -166 0
-20 -73 -74 -88 -89 -102 -103 -115 -116 -127 -128 -149 -150 -158 -159 -167 0
-20 -73 -74 -88 -89 -102 -103 -115 -116 -127 -128 -149 -150 -158 -159 -175 0
-20 -73 -74 -88 -89 -102 -103 -115 -116 -127 -128 -149 -150 -167 -168 -175 0
-20 -73 -74 -88 -89 -102 -103 -115 -116 -127 -128 -159 -160 -167 -168 -175 0
-19 -72 -73 -87 -88 -101 -102 -114 -115 -138 -139 -148 -149 -157 -158 -166 0
-20 -72 -74 -87 -88 -101 -102 -114 -115 -138 -139 -148 -149 -157 -158 -166 0
-20 -73 -74 -87 -89 -101 -102 -114 -115 -138 -139 -148 -149 -157 -158 -166 0
-20 -73 -74 -88 -89 -101 -103 -114 -115 -138 -139 -148 -149 -157 -158 -166 0
-20 -73 -74 -88 -89 -102 -103 -114 -116 -138 -139 -148 -149 -157 -158 -166 0
-20 -73 -74 -88 -89 -102 -103 -115 -116 -138 -140 -148 -149 -157 -158 -166 0
-20 -73 -74 -88 -89 -102 -103 -115 -116 -139 -140 -148 -150 -157 -158 -166 0
-20 -73 -74 -88 -89 -102 -103 -115 -116 -139 -140 -149 -150 -157 -159 -166 0
-20 -73 -74 -88 -89 -102 -103 -115 -116 -139 -140 -149 -150 -158 -159 -167 0
-20 -73 -74 -88 -89 -102 -103 -115 -116 -139 -140 -149 -150 -158 -159 -175 0
-20 -73 -74 -88 -89 -102 -103 -115 -116 -139 -140 -149 -150 -167 -168 -175 0
-20 -73 -74 -88 -89 -102 -103 -115 -116 -139 -140 -159 -160 -167 -168 -175 0
-20 -73 -74 -88 -89 -102 -103 -115 -116 -150 -151 -159 -160 -167 -168 -175 0
-19 -72 -73 -87 -88 -101 -102 -127 -128 -138 -139 -148 -149 -157 -158 -166 0
-20 -72 -74 -87 -88 -101 -102 -127 -128 -138 -139 -148 -149 -157 -158 -166 0
-20 -73 -74 -87 -89 -101 -102 -127 -128 -138 -139 -148 -149 -157 -158 -166 0
-20 -73 -74 -88 -89 -101 -103 -127 -128 -138 -139 -148 -149 -157 -158 -166 0
-20 -73 -74 -88 -89 -102 -103 -127 -129 -138 -139 -148 -149 -157 -158 -166 0
-20 -73 -74 -88 -89 -102 -103 -128 -129 -138 -140 -148 -149 -157 -158 -166 0
-20 -73 -74 -88 -89 -102 -103 -128 -129 -139 -140 -148 -150 -157 -158 -166 0
-20 -73 -74 -88 -89 -102 -103 -128 -129 -139 -140 -149 -150 -157 -159 -166 0
-20 -73 -74 -88 -89 -102 -103 -128 -129 -139 -140 -149 -150 -158 -159 -167 0
-20 -73 -74 -88 -89 -102 -103 -128 -129 -139 -140 -149 -150 -158 -159 -175 0
-20 -73 -74 -88 -89 -102 -103 -128 -129 -139 -140 -149 -150 -167 -168 -175 0
-20 -73 -74 -88 -89 -102 -103 -128 -129 -139 -140 -159 -160 -167 -168 -175 0
-20 -73 -74 -88 -89 -102 -103 -128 -129 -150 -151 -159 -160 -167 -168 -175 0
-20 -73 -74 -88 -89 -102 -103 -140 -141 -150 -151 -159 -160 -167 -168 -175 0
-19 -72 -73 -87 -88 -115 -116 -127 -128 -138 -139 -148 -149 -157 -158 -166 0
-20 -72 -74 -87 -88 -115 -116 -127 -128 -138 -139 -148 -149 -157 -158 -166 0
-20 -73 -74 -87 -89 -115 -116 -127 -128 -138 -139 -148 -149 -157 -158 -166 0
-20 -73 -74 -88 -89 -115 -117 -127 -128 -138 -139 -148 -149 -157 -158 -166 0
-20 -73 -74 -88 -89 -116 -117 -127 -129 -138 -139 -148 -149 -157 -158 -166 0
-20 -73 -74 -88 -89 -116 -117 -128 -129 -138 -140 -148 -149 -157 -158 -166 0
-20 -73 -74 -88 -89 -116 -117 -128 -129 -139 -140 -148 -150 -157 -158 -166 0
-20 -73 -74 -88 -89 -116 -117 -128 -129 -139 -140 -149 -150 -157 -159 -166 0
-20 -73 -74 -88 -89 -116 -117 -128 -129 -139 -140 -149 -150 -158 -159 -167 0
-20 -73 -74 -88 -89 -116 -117 -128 -129 -139 -140 -149 -150 -158 -159 -175 0
-20 -73 -74 -88 -89 -116 -117 -128 -129 -139 -140 -149 -150 -167 -168 -175 0
-20 -73 -74 -88 -89 -116 -117 -128 -129 -139 -140 -159 -160 -167 -168 -175 0
-20 -73 -74 -88 -89 -116 -117 -128 -129 -150 -151 -159 -160 -167 -168 -175 0
-20 -73 -74 -88 -89 -116 -117 -140 -141 -150 -151 -159 -160 -167 -168 -175 0
-20 -73 -74 -88 -89 -129 -130 -140 -141 -150 -151 -159 -160 -167 -168 -175 0
-19 -72 -73 -102 -103 -115 -116 -127 -128 -138 -139 -148 -149 -157 -158 -166 0
-20 -72 -74 -102 -103 -115 -116 -127 -128 -138 -139 -148 -149 -157 -158 -166 0
-20 -73 -74 -102 -104 -115 -116 -127 -128 -138 -139 -148 -149 -157 -158 -166 0
-20 -73 -74 -103 -104 -115 -117 -127 -128 -138 -139 -148 -149 -157 -158 -166 0
-20 -73 -74 -103 -104 -116 -117 -127 -129 -138 -139 -148 -149 -157 -158 -166 0
-20 -73 -74 -103 -104 -116 -117 -128 -129 -138 -140 -148 -149 -157 -158 -166 0
-20 -73 -74 -103 -104 -116 -117 -128 -129 -139 -140 -148 -150 -157 -158 -166 0
-20 -73 -74 -103 -104 -116 -117 -128 -129 -139 -140 -149 -150 -157 -159 -166 0
-20 -73 -74 -103 -104 -116 -117 -128 -129 -139 -140 -149 -150 -158 -159 -167 0
-20 -73 -74 -103 -104 -116 -117 -128 -129 -139 -140 -149 -150 -158 -159 -175 0
-20 -73 -74 -103 -104 -116 -117 -128 -129 -139 -140 -149 -150 -167 -168 -175 0
-20 -73 -74 -103 -104 -116 -117 -128 -129 -139 -140 -159 -160 -167 -168 -175 0
-20 -73 -74 -103 -104 -116 -117 -128 -129 -150 -151 -159 -160 -167 -168 -175 0
-20 -73 -74 -103 -104 -116 -117 -140 -141 -150 -151 -159 -160 -167 -168 -175 0
-20 -73 -74 -103 -104 -129 -130 -140 -141 -150 -151 -159 -160 -167 -168 -175 0
-20 -73 -74 -117 -118 -129 -130 -140 -141 -150 -151 -159 -160 -167 -168 -175 0
-19 -88 -89 -102 -103 -115 -116 -127 -128 -138 -139 -148 -149 -157 -158 -166 0
-20 -88 -90 -102 -103 -115 -116 -127 -128 -138 -139 -148 -149 -157 -158 -166 0
-20 -89 -90 -102 -104 -115 -116 -127 -128 -138 -139 -148 -149 -157 -158 -166 0
-20 -89 -90 -103 -104 -115 -117 -127 -128 -138 -139 -148 -149 -157 -158 -166 0
-20 -89 -90 -103 -104 -116 -117 -127 -129 -138 -139 -148 -149 -157 -158 -166 0
-20 -89 -90 -103 -104 -116 -117 -128 -129 -138 -140 -148 -149 -157 -158 -166 0
-20 -89 -90 -103 -104 -116 -117 -128 -129 -139 -140 -148 -150 -157 -158 -166 0
-20 -89 -90 -103 -104 -116 -117 -128 -129 -139 -140 -149 -150 -157 -159 -166 0
-20 -89 -90 -103 -104 -116 -117 -128 -129 -139 -140 -149 -150 -158 -159 -167 0
-20 -89 -90 -103 -104 -116 -117 -128 -129 -139 -140 -149 -150 -158 -159 -175 0
-20 -89 -90 -103 -104 -116 -117 -128 -129 -139 -140 -149 -150 -167 -168 -175 0
-20 -89 -90 -103 -104 -116 -117 -128 -129 -139 -140 -159 -160 -167 -168 -175 0
-20 -89 -90 -103 -104 -116 -117 -128 -129 -150 -151 -159 -160 -167 -168 -175 0
-20 -89 -90 -103 -104 -116 -117 -140 -141 -150 -151 -159 -160 -167 -168 -175 0
-20 -89 -90 -103 -104 -129 -130 -140 -141 -150 -151 -159 -160 -167 -168 -175 0
-20 -89 -90 -117 -118 -129 -130 -140 -141 -150 -151 -159 -160 -167 -168 -175 0
-20 -104 -105 -117 -118 -129 -130 -140 -141 -150 -151 -159 -160 -167 -168 -175 0
-36 -53 -54 -69 -70 -84 -85 -98 -99 -111 -112 -123 -124 -134 -135 -145 0
-37 -53 -55 -69 -70 -84 -85 -98 -99 -111 -112 -123 -124 -134 -135 -145 0
-38 -53 -56 -69 -70 -84 -85 -98 -99 -111 -112 -123 -124 -134 -135 -145 0
-39 -53 -57 -69 -70 -84 -85 -98 -99 -111 -112 -123 -124 -134 -135 -145 0
-37 -54 -55 -69 -71 -84 -85 -98 -99 -111 -112 -123 -124 -134 -135 -145 0
-38 -54 -56 -69 -71 -84 -85 -98 -99 -111 -112 -123 -124 -134 -135 -145 0
-39 -54 -57 -69 -71 -84 -85 -98 -99 -111 -112 -123 -124 -134 -135 -145 0
-38 -55 -56 -69 -72 -84 -85 -98 -99 -111 -112 -123 -124 -134 -135 -145 0
-39 -55 -57 -69 -72 -84 -85 -98 -99 -111 -112 -123 -124 -134 -135 -145 0
-39 -56 -57 -69 -73 -84 -85 -98 -99 -111 -112 -123 -124 -134 -135 -145 0
-37 -54 -55 -70 -71 -84 -86 -98 -99 -111 -112 -123 -124 -134 -135 -145 0
-38 -54 -56 -70 -71 -84 -86 -98 -99 -111 -112 -123 -124 -134 -135 -145 0
-39 -54 -57 -70 -71 -84 -86 -98 -99 -111 -112 -123 -124 -134 -135 -145 0
-38 -55 -56 -70 -72 -84 -86 -98 -99 -111 -112 -123 -124 -134 -135 -145 0
-39 -55 -57 -70 -72 -84 -86 -98 -99 -111 -112 -123 -124 -134 -135 -145 0
-39 -56 -57 -70 -73 -84 -86 -98 -99 -111 -112 -123 -124 -134 -135 -145 0
-38 -55 -56 -71 -72 -84 -87 -98 -99 -111 -112 -123 -124 -134 -135 -145 0
-39 -55 -57 -71 -72 -84 -87 -98 -99 -111 -112 -123 -124 -134 -135 -145 0
-39 -56 -57 -71 -73 -84 -87 -98 -99 -111 -112 -123 -124 -134 -135 -145 0
-39 -56 -57 -72 -73 -84 -88 -98 -99 -111 -112 -123 -124 -134 -135 -145 0
-37 -54 -55 -70 -71 -85 -86 -98 -100 -111 -112 -123 -124 -134 -135 -145 0
-38 -54 -56 -70 -71 -85 -86 -98 -100 -111 -112 -123 -124 -134 -135 -145 0
-39 -54 -57 -70 -71 -85 -86 -98 -100 -111 -112 -123 -124 -134 -135 -145 0
-38 -55 -56 -70 -72 -85 -86 -98 -100 -111 -112 -123 -124 -134 -135 -145 0
-39 -55 -57 -70 -72 -85 -86 -98 -100 -111 -112 -123 -124 -134 -135 -145 0
-39 -56 -57 -70 -73 -85 -86 -98 -100 -111 -112 -123 -124 -134 -135 -145 0
-38 -55 -56 -71 -72 -85 -87 -98 -100 -111 -112 -123 -124 -134 -135 -145 0
-39 -55 -57 -71 -72 -85 -87 -98 -100 -111 -112 -123 -124 -134 -135 -145 0
-39 -56 -57 -71 -73 -85 -87 -98 -100 -111 -112 -123 -124 -134 -135 -145 0
-39 -56 -57 -72 -73 -85 -88 -98 -100 -111 -112 -123 -124 -134 -135 -145 0
-38 -55 -56 -71 -72 -86 -87 -98 -101 -111 -112 -123 -124 -134 -135 -145 0
-39 -55 -57 -71 -72 -86 -87 -98 -101 -111 -112 -123 -124 -134 -135 -145 0
-39 -56 -57 -71 -73 -86 -87 -98 -101 -111 -112 -123 -124 -134 -135 -145 0
-39 -56 -57 -72 -73 -86 -88 -98 -101 -111 -112 -123 -124 -134 -135 -145 0
-39 -56 -57 -72 -73 -87 -88 -98 -102 -111 -112 -123 -124 -134 -135 -145 0
-37 -54 -55 -70 -71 -85 -86 -99 -100 -111 -113 -123 -124 -134 -135 -145 0
-38 -54 -56 -70 -71 -85 -86 -99 -100 -111 -113 -123 -124 -134 -135 -145 0
-39 -54 -57 -70 -71 -85 -86 -99 -100 -111 -113 -123 -124 -134 -135 -145 0
-38 -55 -56 -70 -72 -85 -86 -99 -100 -111 -113 -123 -124 -134 -135 -145 0
-39 -55 -57 -70 -72 -85 -86 -99 -100 -111 -113 -123 -124 -134 -135 -145 0
-39 -56 -57 -70 -73 -85 -86 -99 -100 -111 -113 -123 -124 -134 -135 -145 0
-38 -55 -56 -71 -72 -85 -87 -99 -100 -111 -113 -123 -124 -134 -135 -145 0
-39 -55 -57 -71 -72 -85 -87 -99 -100 -111 -113 -123 -124 -134 -135 -145 0
-39 -56 -57 -71 -73 -85 -87 -99 -100 -111 -113 -123 -124 -134 -135 -145 0
-39 -56 -57 -72 -73 -85 -88 -99 -100 -111 -113 -123 -124 -134 -135 -145 0
-38 -55 -56 -71 -72 -86 -87 -99 -101 -111 -113 -123 -124 -134 -135 -145 0
-39 -55 -57 -71 -72 -86 -87 -99 -101 -111 -113 -123 -124 -134 -135 -145 0
-39 -56 -57 -71 -73 -86 -87 -99 -101 -111 -113 -123 -124 -134 -135 -145 0
-39 -56 -57 -72 -73 -86 -88 -99 -101 -111 -113 -123 -124 -134 -135 -145 0
-39 -56 -57 -72 -73 -87 -88 -99 -102 -111 -113 -123 -124 -134 -135 -145 0
-38 -55 -56 -71 -72 -86 -87 -100 -101 -111 -114 -123 -124 -134 -135 -145 0
-39 -55 -57 -71 -72 -86 -87 -100 -101 -111 -114 -123 -124 -134 -135 -145 0
-39 -56 -57 -71 -73 -86 -87 -100 -101 -111 -114 -123 -124 -134 -135 -145 0
-39 -56 -57 -72 -73 -86 -88 -100 -101 -111 -114 -123 -124 -134 -135 -145 0
-39 -56 -57 -72 -73 -87 -88 -100 -102 -111 -114 -123 -124 -134 -135 -145 0
-39 -56 -57 -72 -73 -87 -88 -101 -102 -111 -115 -123 -124 -134 -135 -145 0
-37 -54 -55 -70 -71 -85 -86 -99 -100 -112 -113 -123 -125 -134 -135 -145 0
-38 -54 -56 -70 -71 -85 -86 -99 -100 -112 -113 -123 -125 -134 -135 -145 0
-39 -54 -57 -70 -71 -85 -86 -99 -100 -112 -113 -123 -125 -134 -135 -145 0
-38 -55 -56 -70 -72 -85 -86 -99 -100 -112 -113 -123 -125 -134 -135 -145 0
-39 -55 -57 -70 -72 -85 -86 -99 -100 -112 -113 -123 -125 -134 -135 -145 0
-39 -56 -57 -70 -73 -85 -86 -99 -100 -112 -113 -123 -125 -134 -135 -145 0
-38 -55 -56 -71 -72 -85 -87 -99 -100 -112 -113 -123 -125 -134 -135 -145 0
-39 -55 -57 -71 -72 -85 -87 -99 -100 -112 -113 -123 -125 -134 -135 -145 0
-39 -56 -57 -71 -73 -85 -87 -99 -100 -112 -113 -123 -125 -134 -135 -145 0
-39 -56 -57 -72 -73 -85 -88 -99 -100 -112 -113 -123 -125 -134 -135 -145 0
-38 -55 -56 -71 -72 -86 -87 -99 -101 -112 -113 -123 -125 -134 -135 -145 0
-39 -55 -57 -71 -72 -86 -87 -99 -101 -112 -113 -123 -125 -134 -135 -145 0
-39 -56 -57 -71 -73 -86 -87 -99 -101 -112 -113 -123 -125 -134 -135 -145 0
-39 -56 -57 -72 -73 -86 -88 -99 -101 -112 -113 -123 -125 -134 -135 -145 0
-39 -56 -57 -72 -73 -87 -88 -99 -102 -112 -113 -123 -125 -134 -135 -145 0
-38 -55 -56 -71 -72 -86 -87 -100 -101 -112 -114 -123 -125 -134 -135 -145 0
-39 -55 -57 -71 -72 -86 -87 -100 -101 -112 -114 -123 -125 -134 -135 -145 0
-39 -56 -57 -71 -73 -86 -87 -100 -101 -112 -114 -123 -125 -134 -135 -145 0
-39 -56 -57 -72 -73 -86 -88 -100 -101 -112 -114 -123 -125 -134 -135 -145 0
-39 -56 -57 -72 -73 -87 -88 -100 -102 -112 -114 -123 -125 -134 -135 -145 0
-39 -56 -57 -72 -73 -87 -88 -101 -102 -112 -115 -123 -125 -134 -135 -145 0
-38 -55 -56 -71 -72 -86 -87 -100 -101 -113 -114 -123 -126 -134 -135 -145 0
-39 -55 -57 -71 -72 -86 -87 -100 -101 -113 -114 -123 -126 -134 -135 -145 0
-39 -56 -57 -71 -73 -86 -87 -100 -101 -113 -114 -123 -126 -134 -135 -145 0
-39 -56 -57 -72 -73 -86 -88 -100 -101 -113 -114 -123 -126 -134 -135 -145 0
-39 -56 -57 -72 -73 -87 -88 -100 -102 -113 -114 -123 -126 -134 -135 -145 0
-39 -56 -57 -72 -73 -87 -88 -101 -102 -113 -115 -123 -126 -134 -135 -145 0
-39 -56 -57 -72 -73 -87 -88 -101 -102 -114 -115 -123 -127 -134 -135 -145 0
-37 -54 -55 -70 -71 -85 -86 -99 -100 -112 -113 -124 -125 -134 -136 -145 0
-38 -54 -56 -70 -71 -85 -86 -99 -100 -112 -113 -124 -125 -134 -136 -145 0
-39 -54 -57 -70 -71 -85 -86 -99 -100 -112 -113 -124 -125 -134 -136 -145 0
-38 -55 -56 -70 -72 -85 -86 -99 -100 -112 -113 -124 -125 -134 -136 -145 0
-39 -55 -57 -70 -72 -85 -86 -99 -100 -112 -113 -124 -125 -134 -136 -145 0
-39 -56 -57 -70 -73 -85 -86 -99 -100 -112 -113 -124 -125 -134 -136 -145 0
-38 -55 -56 -71 -72 -85 -87 -99 -100 -112 -113 -124 -125 -134 -136 -145 0
-39 -55 -57 -71 -72 -85 -87 -99 -100 -112 -113 -124 -125 -134 -136 -145 0
-39 -56 -57 -71 -73 -85 -87 -99 -100 -112 -113 -124 -125 -134 -136 -145 0
-39 -56 -57 -72 -73 -85 -88 -99 -100 -112 -113 -124 -125 -134 -136 -145 0
-38 -55 -56 -71 -72 -86 -87 -99 -101 -112 -113 -124 -125 -134 -136 -145 0
-39 -55 -57 -71 -72 -86 -87 -99 -101 -112 -113 -124 -125 -134 -136 -145 0
-39 -56 -57 -71 -73 -86 -87 -99 -101 -112 -113 -124 -125 -134 -136 -145 0
-39 -56 -57 -72 -73 -86 -88 -99 -101 -112 -113 -124 -125 -134 -136 -145 0
-39 -56 -57 -72 -73 -87 -88 -99 -102 -112 -113 -124 -125 -134 -136 -145 0
-38 -55 -56 -71 -72 -86 -87 -100 -101 -112 -114 -124 -125 -134 -136 -145 0
-39 -55 -57 -71 -72 -86 -87 -100 -101 -112 -114 -124 -125 -134 -136 -145 0
-39 -56 -57 -71 -73 -86 -87 -100 -101 -112 -114 -124 -125 -134 -136 -145 0
-39 -56 -57 -72 -73 -86 -88 -100 -101 -112 -114 -124 -125 -134 -136 -145 0
-39 -56 -57 -72 -73 -87 -88 -100 -102 -112 -114 -124 -125 -134 -136 -145 0
-39 -56 -57 -72 -73 -87 -88 -101 -102 -112 -115 -124 -125 -134 -136 -145 0
-38 -55 -56 -71 -72 -86 -87 -100 -101 -113 -114 -124 -126 -134 -136 -145 0
-39 -55 -57 -71 -72 -86 -87 -100 -101 -113 -114 -124 -126 -134 -136 -145 0
-39 -56 -57 -71 -73 -86 -87 -100 -101 -113 -114 -124 -126 -134 -136 -145 0
-39 -56 -57 -72 -73 -86 -88 -100 -101 -113 -114 -124 -126 -134 -136 -145 0
-39 -56 -57 -72 -73 -87 -88 -100 -102 -113 -114 -124 -126 -134 -136 -145 0
-39 -56 -57 -72 -73 -87 -88 -101 -102 -113 -115 -124 -126 -134 -136 -145 0
-39 -56 -57 -72 -73 -87 -88 -101 -102 -114 -115 -124 -127 -134 -136 -145 0
-38 -55 -56 -71 -72 -86 -87 -100 -101 -113 -114 -125 -126 -134 -137 -145 0
-39 -55 -57 -71 -72 -86 -87 -100 -101 -113 -114 -125 -126 -134 -137 -145 0
-39 -56 -57 -71 -73 -86 -87 -100 -101 -113 -114 -125 -126 -134 -137 -145 0
-39 -56 -57 -72 -73 -86 -88 -100 -101 -113 -114 -125 -126 -134 -137 -145 0
-39 -56 -57 -72 -73 -87 -88 -100 -102 -113 -114 -125 -126 -134 -137 -145 0
-39 -56 -57 -72 -73 -87 -88 -101 -102 -113 -115 -125 -126 -134 -137 -145 0
-39 -56 -57 -72 -73 -87 -88 -101 -102 -114 -115 -125 -127 -134 -137 -145 0
-39 -56 -57 -72 -73 -87 -88 -101 -102 -114 -115 -126 -127 -134 -138 -145 0
-37 -54 -55 -70 -71 -85 -86 -99 -100 -112 -113 -124 -125 -135 -136 -146 0
-38 -54 -56 -70 -71 -85 -86 -99 -100 -112 -113 -124 -125 -135 -136 -146 0
-39 -54 -57 -70 -71 -85 -86 -99 -100 -112 -113 -124 -125 -135 -136 -146 0
-38 -55 -56 -70 -72 -85 -86 -99 -100 -112 -113 -124 -125 -135 -136 -146 0
-39 -55 -57 -70 -72 -85 -86 -99 -100 -112 -113 -124 -125 -135 -136 -146 0
-39 -56 -57 -70 -73 -85 -86 -99 -100 -112 -113 -124 -125 -135 -136 -146 0
-38 -55 -56 -71 -72 -85 -87 -99 -100 -112 -113 -124 -125 -135 -136 -146 0
-39 -55 -57 -71 -72 -85 -87 -99 -100 -112 -113 -124 -125 -135 -136 -146 0
-39 -56 -57 -71 -73 -85 -87 -99 -100 -112 -113 -124 -125 -135 -136 -146 0
-39 -56 -57 -72 -73 -85 -88 -99 -100 -112 -113 -124 -125 -135 -136 -146 0
-38 -55 -56 -71 -72 -86 -87 -99 -101 -112 -113 -124 -125 -135 -136 -146 0
-39 -55 -57 -71 -72 -86 -87 -99 -101 -112 -113 -124 -125 -135 -136 -146 0
-39 -56 -57 -71 -73 -86 -87 -99 -101 -112 -113 -124 -125 -135 -136 -146 0
-39 -56 -57 -72 -73 -86 -88 -99 -101 -112 -113 -124 -125 -135 -136 -146 0
-39 -56 -57 -72 -73 -87 -88 -99 -102 -112 -113 -124 -125 -135 -136 -146 0
-38 -55 -56 -71 -72 -86 -87 -100 -101 -112 -114 -124 -125 -135 -136 -146 0
-39 -55 -57 -71 -72 -86 -87 -100 -101 -112 -114 -124 -125 -135 -136 -146 0
-39 -56 -57 -71 -73 -86 -87 -100 -101 -112 -114 -124 -125 -135 -136 -146 0
-39 -56 -57 -72 -73 -86 -88 -100 -101 -112 -114 -124 -125 -135 -136 -146 0
-39 -56 -57 -72 -73 -87 -88 -100 -102 -112 -114 -124 -125 -135 -136 -146 0
-39 -56 -57 -72 -73 -87 -88 -101 -102 -112 -115 -124 -125 -135 -136 -146 0
-38 -55 -56 -71 -72 -86 -87 -100 -101 -113 -114 -124 -126 -135 -136 -146 0
-39 -55 -57 -71 -72 -86 -87 -100 -101 -113 -114 -124 -126 -135 -136 -146 0
-39 -56 -57 -71 -73 -86 -87 -100 -101 -113 -114 -124 -126 -135 -136 -146 0
-39 -56 -57 -72 -73 -86 -88 -100 -101 -113 -114 -124 -126 -135 -136 -146 0
-39 -56 -57 -72 -73 -87 -88 -100 -102 -113 -114 -124 -126 -135 -136 -146 0
-39 -56 -57 -72 -73 -87 -88 -101 -102 -113 -115 -124 -126 -135 -136 -146 0
-39 -56 -57 -72 -73 -87 -88 -101 -102 -114 -115 -124 -127 -135 -136 -146 0
-38 -55 -56 -71 -72 -86 -87 -100 -101 -113 -114 -125 -126 -135 -137 -146 0
-39 -55 -57 -71 -72 -86 -87 -100 -101 -113 -114 -125 -126 -135 -137 -146 0
-39 -56 -57 -71 -73 -86 -87 -100 -101 -113 -114 -125 -126 -135 -137 -146 0
-39 -56 -57 -72 -73 -86 -88 -100 -101 -113 -114 -125 -126 -135 -137 -146 0
-39 -56 -57 -72 -73 -87 -88 -100 -102 -113 -114 -125 -126 -135 -137 -146 0
-39 -56 -57 -72 -73 -87 -88 -101 -102 -113 -115 -125 -126 -135 -137 -146 0
-39 -56 -57 -72 -73 -87 -88 -101 -102 -114 -115 -125 -127 -135 -137 -146 0
-39 -56 -57 -72 -73 -87 -88 -101 -102 -114 -115 -126 -127 -135 -138 -146 0
-38 -55 -56 -71 -72 -86 -87 -100 -101 -113 -114 -125 -126 -136 -137 -147 0
-39 -55 -57 -71 -72 -86 -87 -100 -101 -113 -114 -125 -126 -136 -137 -147 0
-39 -56 -57 -71 -73 -86 -87 -100 -101 -113 -114 -125 -126 -136 -137 -147 0
-39 -56 -57 -72 -73 -86 -88 -100 -101 -113 -114 -125 -126 -136 -137 -147 0
-39 -56 -57 -72 -73 -87 -88 -100 -102 -113 -114 -125 -126 -136 -137 -147 0
-39 -56 -57 -72 -73 -87 -88 -101 -102 -113 -115 -125 -126 -136 -137 -147 0
-39 -56 -57 -72 -73 -87 -88 -101 -102 -114 -115 -125 -127 -136 -137 -147 0
-39 -56 -57 -72 -73 -87 -88 -101 -102 -114 -115 -126 -127 -136 -138 -147 0
-39 -56 -57 -72 -73 -87 -88 -101 -102 -114 -115 -126 -127 -137 -138 -148 0
-37 -54 -55 -70 -71 -85 -86 -99 -100 -112 -113 -124 -125 -135 -136 -156 0
-38 -54 -56 -70 -71 -85 -86 -99 -100 -112 -113 -124 -125 -135 -136 -156 0
-39 -54 -57 -70 -71 -85 -86 -99 -100 -112 -113 -124 -125 -135 -136 -156 0
-38 -55 -56 -70 -72 -85 -86 -99 -100 -112 -113 -124 -125 -135 -136 -156 0
-39 -55 -57 -70 -72 -85 -86 -99 -100 -112 -113 -124 -125 -135 -136 -156 0
-39 -56 -57 -70 -73 -85 -86 -99 -100 -112 -113 -124 -125 -135 -136 -156 0
-38 -55 -56 -71 -72 -85 -87 -99 -100 -112 -113 -124 -125 -135 -136 -156 0
-39 -55 -57 -71 -72 -85 -87 -99 -100 -112 -113 -124 -125 -135 -136 -156 0
-39 -56 -57 -71 -73 -85 -87 -99 -100 -112 -113 -124 -125 -135 -136 -156 0
-39 -56 -57 -72 -73 -85 -88 -99 -100 -112 -113 -124 -125 -135 -136 -156 0
-38 -55 -56 -71 -72 -86 -87 -99 -101 -112 -113 -124 -125 -135 -136 -156 0
-39 -55 -57 -71 -72 -86 -87 -99 -101 -112 -113 -124 -125 -135 -136 -156 0
-39 -56 -57 -71 -73 -86 -87 -99 -101 -112 -113 -124 -125 -135 -136 -156 0
-39 -56 -57 -72 -73 -86 -88 -99 -101 -112 -113 -124 -125 -135 -136 -156 0
-39 -56 -57 -72 -73 -87 -88 -99 -102 -112 -113 -124 -125 -135 -136 -156 0
-38 -55 -56 -71 -72 -86 -87 -100 -101 -112 -114 -124 -125 -135 -136 -156 0
-39 -55 -57 -71 -72 -86 -87 -100 -101 -112 -114 -124 -125 -135 -136 -156 0
-39 -56 -57 -71 -73 -86 -87 -100 -101 -112 -114 -124 -125 -135 -136 -156 0
-39 -56 -57 -72 -73 -86 -88 -100 -101 -112 -114 -124 -125 -135 -136 -156 0
-39 -56 -57 -72 -73 -87 -88 -100 -102 -112 -114 -124 -125 -135 -136 -156 0
-39 -56 -57 -72 -73 -87 -88 -101 -102 -112 -115 -124 -125 -135 -136 -156 0
-38 -55 -56 -71 -72 -86 -87 -100 -101 -113 -114 -124 -126 -135 -136 -156 0
-39 -55 -57 -71 -72 -86 -87 -100 -101 -113 -114 -124 -126 -135 -136 -156 0
-39 -56 -57 -71 -73 -86 -87 -100 -101 -113 -114 -124 -126 -135 -136 -156 0
-39 -56 -57 -72 -73 -86 -88 -100 -101 -113 -114 -124 -126 -135 -136 -156 0
-39 -56 -57 -72 -73 -87 -88 -100 -102 -113 -114 -124 -126 -135 -136 -156 0
-39 -56 -57 -72 -73 -87 -88 -101 -102 -113 -115 -124 -126 -135 -136 -156 0
-39 -56 -57 -72 -73 -87 -88 -101 -102 -114 -115 -124 -127 -135 -136 -156 0
-38 -55 -56 -71 -72 -86 -87 -100 -101 -113 -114 -125 -126 -135 -137 -156 0
-39 -55 -57 -71 -72 -86 -87 -100 -101 -113 -114 -125 -126 -135 -137 -156 0
-39 -56 -57 -71 -73 -86 -87 -100 -101 -113 -114 -125 -126 -135 -137 -156 0
-39 -56 -57 -72 -73 -86 -88 -100 -101 -113 -114 -125 -126 -135 -137 -156 0
-39 -56 -57 -72 -73 -87 -88 -100 -102 -113 -114 -125 -126 -135 -137 -156 0
-39 -56 -57 -72 -73 -87 -88 -101 -102 -113 -115 -125 -126 -135 -137 -156 0
-39 -56 -57 -72 -73 -87 -88 -101 -102 -114 -115 -125 -127 -135 -137 -156 0
-39 -56 -57 -72 -73 -87 -88 -101 -102 -114 -115 -126 -127 -135 -138 -156 0
-38 -55 -56 -71 -72 -86 -87 -100 -101 -113 -114 -125 -126 -136 -137 -157 0
-39 -55 -57 -71 -72 -86 -87 -100 -101 -113 -114 -125 -126 -136 -137 -157 0
-39 -56 -57 -71 -73 -86 -87 -100 -101 -113 -114 -125 -126 -136 -137 -157 0
-39 -56 -57 -72 -73 -86 -88 -100 -101 -113 -114 -125 -126 -136 -137 -157 0
-39 -56 -57 -72 -73 -87 -88 -100 -102 -113 -114 -125 -126 -136 -137 -157 0
-39 -56 -57 -72 -73 -87 -88 -101 -102 -113 -115 -125 -126 -136 -137 -157 0
-39 -56 -57 -72 -73 -87 -88 -101 -102 -114 -115 -125 -127 -136 -137 -157 0
-39 -56 -57 -72 -73 -87 -88 -101 -102 -114 -115 -126 -127 -136 -138 -157 0
-39 -56 -57 -72 -73 -87 -88 -101 -102 -114 -115 -126 -127 -137 -138 -158 0
-38 -55 -56 -71 -72 -86 -87 -100 -101 -113 -114 -125 -126 -136 -137 -166 0
-39 -55 -57 -71 -72 -86 -87 -100 -101 -113 -114 -125 -126 -136 -137 -166 0
-39 -56 -57 -71 -73 -86 -87 -100 -101 -113 -114 -125 -126 -136 -137 -166 0
-39 -56 -57 -72 -73 -86 -88 -100 -101 -113 -114 -125 -126 -136 -137 -166 0
-39 -56 -57 -72 -73 -87 -88 -100 -102 -113 -114 -125 -126 -136 -137 -166 0
-39 -56 -57 -72 -73 -87 -88 -101 -102 -113 -115 -125 -126 -136 -137 -166 0
-39 -56 -57 -72 -73 -87 -88 -101 -102 -114 -115 -125 -127 -136 -137 -166 0
-39 -56 -57 -72 -73 -87 -88 -101 -102 -114 -115 -126 -127 -136 -138 -166 0
-39 -56 -57 -72 -73 -87 -88 -101 -102 -114 -115 -126 -127 -137 -138 -167 0
-39 -56 -57 -72 -73 -87 -88 -101 -102 -114 -115 -126 -127 -137 -138 -175 0
-37 -54 -55 -70 -71 -85 -86 -99 -100 -112 -113 -124 -125 -146 -147 -156 0
-38 -54 -56 -70 -71 -85 -86 -99 -100 -112 -113 -124 -125 -146 -147 -156 0
-39 -54 -57 -70 -71 -85 -86 -99 -100 -112 -113 -124 -125 -146 -147 -156 0
-38 -55 -56 -70 -72 -85 -86 -99 -100 -112 -113 -124 -125 -146 -147 -156 0
-39 -55 -57 -70 -72 -85 -86 -99 -100 -112 -113 -124 -125 -146 -147 -156 0
-39 -56 -57 -70 -73 -85 -86 -99 -100 -112 -113 -124 -125 -146 -147 -156 0
-38 -55 -56 -71 -72 -85 -87 -99 -100 -112 -113 -124 -125 -146 -147 -156 0
-39 -55 -57 -71 -72 -85 -87 -99 -100 -112 -113 -124 -125 -146 -147 -156 0
-39 -56 -57 -71 -73 -85 -87 -99 -100 -112 -113 -124 -125 -146 -147 -156 0
-39 -56 -57 -72 -73 -85 -88 -99 -100 -112 -113 -124 -125 -146 -147 -156 0
-38 -55 -56 -71 -72 -86 -87 -99 -101 -112 -113 -124 -125 -146 -147 -156 0
-39 -55 -57 -71 -72 -86 -87 -99 -101 -112 -113 -124 -125 -146 -147 -156 0
-39 -56 -57 -71 -73 -86 -87 -99 -101 -112 -113 -124 -125 -146 -147 -156 0
-39 -56 -57 -72 -73 -86 -88 -99 -101 -112 -113 -124 -125 -146 -147 -156 0
-39 -56 -57 -72 -73 -87 -88 -99 -102 -112 -113 -124 -125 -146 -147 -156 0
-38 -55 -56 -71 -72 -86 -87 -100 -101 -112 -114 -124 -125 -146 -147 -156 0
-39 -55 -57 -71 -72 -86 -87 -100 -101 -112 -114 -124 -125 -146 -147 -156 0
-39 -56 -57 -71 -73 -86 -87 -100 -101 -112 -114 -124 -125 -146 -147 -156 0
-39 -56 -57 -72 -73 -86 -88 -100 -101 -112 -114 -124 -125 -146 -147 -156 0
-39 -56 -57 -72 -73 -87 -88 -100 -102 -112 -114 -124 -125 -146 -147 -156 0
-39 -56 -57 -72 -73 -87 -88 -101 -102 -112 -115 -124 -125 -146 -147 -156 0
-38 -55 -56 -71 -72 -86 -87 -100 -101 -113 -114 -124 -126 -146 -147 -156 0
-39 -55 -57 -71 -72 -86 -87 -100 -101 -113 -114 -124 -126 -146 -147 -156 0
-39 -56 -57 -71 -73 -86 -87 -100 -101 -113 -114 -124 -126 -146 -147 -156 0
-39 -56 -57 -72 -73 -86 -88 -100 -101 -113 -114 -124 -126 -146 -147 -156 0
-39 -56 -57 -72 -73 -87 -88 -100 -102 -113 -114 -124 -126 -146 -147 -156 0
-39 -56 -57 -72 -73 -87 -88 -101 -102 -113 -115 -124 -126 -146 -147 -156 0
-39 -56 -57 -72 -73 -87 -88 -101 -102 -114 -115 -124 -127 -146 -147 -156 0
-38 -55 -56 -71 -72 -86 -87 -100 -101 -113 -114 -125 -126 -146 -148 -156 0
-39 -55 -57 -71 -72 -86 -87 -100 -101 -113 -114 -125 -126 -146 -148 -156 0
-39 -56 -57 -71 -73 -86 -87 -100 -101 -113 -114 -125 -126 -146 -148 -156 0
-39 -56 -57 -72 -73 -86 -88 -100 -101 -113 -114 -125 -126 -146 -148 -156 0
-39 -56 -57 -72 -73 -87 -88 -100 -102 -113 -114 -125 -126 -146 -148 -156 0
-39 -56 -57 -72 -73 -87 -88 -101 -102 -113 -115 -125 -126 -146 -148 -156 0
-39 -56 -57 -72 -73 -87 -88 -101 -102 -114 -115 -125 -127 -146 -148 -156 0
-39 -56 -57 -72 -73 -87 -88 -101 -102 -114 -115 -126 -127 -146 -149 -156 0
-38 -55 -56 -71 -72 -86 -87 -100 -101 -113 -114 -125 -126 -147 -148 -157 0
-39 -55 -57 -71 -72 -86 -87 -100 -101 -113 -114 -125 -126 -147 -148 -157 0
-39 -56 -57 -71 -73 -86 -87 -100 -101 -113 -114 -125 -126 -147 -148 -157 0
-39 -56 -57 -72 -73 -86 -88 -100 -101 -113 -114 -125 -126 -147 -148 -157 0
-39 -56 -57 -72 -73 -87 -88 -100 -102 -113 -114 -125 -126 -147 -148 -157 0
-39 -56 -57 -72 -73 -87 -88 -101 -102 -113 -115 -125 -126 -147 -148 -157 0
-39 -56 -57 -72 -73 -87 -88 -101 -102 -114 -115 -125 -127 -147 -148 -157 0
-39 -56 -57 -72 -73 -87 -88 -101 -102 -114 -115 -126 -127 -147 -149 -157 0
-39 -56 -57 -72 -73 -87 -88 -101 -102 -114 -115 -126 -127 -148 -149 -158 0
-38 -55 -56 -71 -72 -86 -87 -100 -101 -113 -114 -125 -126 -147 -148 -166 0
-39 -55 -57 -71 -72 -86 -87 -100 -101 -113 -114 -125 -126 -147 -148 -166 0
-39 -56 -57 -71 -73 -86 -87 -100 -101 -113 -114 -125 -126 -147 -148 -166 0
-39 -56 -57 -72 -73 -86 -88 -100 -101 -113 -114 -125 -126 -147 -148 -166 0
-39 -56 -57 -72 -73 -87 -88 -100 -102 -113 -114 -125 -126 -147 -148 -166 0
-39 -56 -57 -72 -73 -87 -88 -101 -102 -113 -115 -125 -126 -147 -148 -166 0
-39 -56 -57 -72 -73 -87 -88 -101 -102 -114 -115 -125 -127 -147 -148 -166 0
-39 -56 -57 -72 -73 -87 -88 -101 -102 -114 -115 -126 -127 -147 -149 -166 0
-39 -56 -57 -72 -73 -87 -88 -101 -102 -114 -115 -126 -127 -148 -149 -167 0
-39 -56 -57 -72 -73 -87 -88 -101 -102 -114 -115 -126 -127 -148 -149 -175 0
-38 -55 -56 -71 -72 -86 -87 -100 -101 -113 -114 -125 -126 -157 -158 -166 0
-39 -55 -57 -71 -72 -86 -87 -100 -101 -113 -114 -125 -126 -157 -158 -166 0
-39 -56 -57 -71 -73 -86 -87 -100 -101 -113 -114 -125 -126 -157 -158 -166 0
-39 -56 -57 -72 -73 -86 -88 -100 -101 -113 -114 -125 -126 -157 -158 -166 0
-39 -56 -57 -72 -73 -87 -88 -100 -102 -113 -114 -125 -126 -157 -158 -166 0
-39 -56 -57 -72 -73 -87 -88 -101 -102 -113 -115 -125 -126 -157 -158 -166 0
-39 -56 -57 -72 -73 -87 -88 -101 -102 -114 -115 -125 -127 -157 -158 -166 0
-39 -56 -57 -72 -73 -87 -88 -101 -102 -114 -115 -126 -127 -157 -159 -166 0
-39 -56 -57 -72 -73 -87 -88 -101 -102 -114 -115 -126 -127 -158 -159 -167 0
-39 -56 -57 -72 -73 -87 -88 -101 -102 -114 -115 -126 -127 -158 -159 -175 0
-39 -56 -57 -72 -73 -87 -88 -101 -102 -114 -115 -126 -127 -167 -168 -175 0
-37 -54 -55 -70 -71 -85 -86 -99 -100 -112 -113 -136 -137 -146 -147 -156 0
-38 -54 -56 -70 -71 -85 -86 -99 -100 -112 -113 -136 -137 -146 -147 -156 0
-39 -54 -57 -70 -71 -85 -86 -99 -100 -112 -113 -136 -137 -146 -147 -156 0
-38 -55 -56 -70 -72 -85 -86 -99 -100 -112 -113 -136 -137 -146 -147 -156 0
-39 -55 -57 -70 -72 -85 -86 -99 -100 -112 -113 -136 -137 -146 -147 -156 0
-39 -56 -57 -70 -73 -85 -86 -99 -100 -112 -113 -136 -137 -146 -147 -156 0
-38 -55 -56 -71 -72 -85 -87 -99 -100 -112 -113 -136 -137 -146 -147 -156 0
-39 -55 -57 -71 -72 -85 -87 -99 -100 -112 -113 -136 -137 -146 -147 -156 0
-39 -56 -57 -71 -73 -85 -87 -99 -100 -112 -113 -136 -137 -146 -147 -156 0
-39 -56 -57 -72 -73 -85 -88 -99 -100 -112 -113 -136 -137 -146 -147 -156 0
-38 -55 -56 -71 -72 -86 -87 -99 -101 -112 -113 -136 -137 -146 -147 -156 0
-39 -55 -57 -71 -72 -86 -87 -99 -101 -112 -113 -136 -137 -146 -147 -156 0
-39 -56 -57 -71 -73 -86 -87 -99 -101 -112 -113 -136 -137 -146 -147 -156 0
-39 -56 -57 -72 -73 -86 -88 -99 -101 -112 -113 -136 -137 -146 -147 -156 0
-39 -56 -57 -72 -73 -87 -88 -99 -102 -112 -113 -136 -137 -146 -147 -156 0
-38 -55 -56 -71 -72 -86 -87 -100 -101 -112 -114 -136 -137 -146 -147 -156 0
-39 -55 -57 -71 -72 -86 -87 -100 -101 -112 -114 -136 -137 -146 -147 -156 0
-39 -56 -57 -71 -73 -86 -87 -100 -101 -112 -114 -136 -137 -146 -147 -156 0
-39 -56 -57 -72 -73 -86 -88 -100 -101 -112 -114 -136 -137 -146 -147 -156 0
-39 -56 -57 -72 -73 -87 -88 -100 -102 -112 -114 -136 -137 -146 -147 -156 0
-39 -56 -57 -72 -73 -87 -88 -101 -102 -112 -115 -136 -137 -146 -147 -156 0
-38 -55 -56 -71 -72 -86 -87 -100 -101 -113 -114 -136 -138 -146 -147 -156 0
-39 -55 -57 -71 -72 -86 -87 -100 -101 -113 -114 -136 -138 -146 -147 -156 0
-39 -56 -57 -71 -73 -86 -87 -100 -101 -113 -114 -136 -138 -146 -147 -156 0
-39 -56 -57 -72 -73 -86 -88 -100 -101 -113 -114 -136 -138 -146 -147 -156 0
-39 -56 -57 -72 -73 -87 -88 -100 -102 -113 -114 -136 -138 -146 -147 -156 0
-39 -56 -57 -72 -73 -87 -88 -101 -102 -113 -115 -136 -138 -146 -147 -156 0
-39 -56 -57 -72 -73 -87 -88 -101 -102 -114 -115 -136 -139 -146 -147 -156 0
-38 -55 -56 -71 -72 -86 -87 -100 -101 -113 -114 -137 -138 -146 -148 -156 0
-39 -55 -57 -71 -72 -86 -87 -100 -101 -113 -114 -137 -138 -146 -148 -156 0
-39 -56 -57 -71 -73 -86 -87 -100 -101 -113 -114 -137 -138 -146 -148 -156 0
-39 -56 -57 -72 -73 -86 -88 -100 -101 -113 -114 -137 -138 -146 -148 -156 0
-39 -56 -57 -72 -73 -87 -88 -100 -102 -113 -114 -137 -138 -146 -148 -156 0
-39 -56 -57 -72 -73 -87 -88 -101 -102 -113 -115 -137 -138 -146 -148 -156 0
-39 -56 -57 -72 -73 -87 -88 -101 -102 -114 -115 -137 -139 -146 -148 -156 0
-39 -56 -57 -72 -73 -87 -88 -101 -102 -114 -115 -138 -139 -146 -149 -156 0
-38 -55 -56 -71 -72 -86 -87 -100 -101 -113 -114 -137 -138 -147 -148 -157 0
-39 -55 -57 -71 -72 -86 -87 -100 -101 -113 -114 -137 -138 -147 -148 -157 0
-39 -56 -57 -71 -73 -86 -87 -100 -101 -113 -114 -137 -138 -147 -148 -157 0
-39 -56 -57 -72 -73 -86 -88 -100 -101 -113 -114 -137 -138 -147 -148 -157 0
-39 -56 -57 -72 -73 -87 -88 -100 -102 -113 -114 -137 -138 -147 -148 -157 0
-39 -56 -57 -72 -73 -87 -88 -101 -102 -113 -115 -137 -138 -147 -148 -157 0
-39 -56 -57 -72 -73 -87 -88 -101 -102 -114 -115 -137 -139 -147 -148 -157 0
-39 -56 -57 -72 -73 -87 -88 -101 -102 -114 -115 -138 -139 -147 -149 -157 0
-39 -56 -57 -72 -73 -87 -88 -101 -102 -114 -115 -138 -139 -148 -149 -158 0
-38 -55 -56 -71 -72 -86 -87 -100 -101 -113 -114 -137 -138 -147 -148 -166 0
-39 -55 -57 -71 -72 -86 -87 -100 -101 -113 -114 -137 -138 -147 -148 -166 0
-39 -56 -57 -71 -73 -86 -87 -100 -101 -113 -114 -137 -138 -147 -148 -166 0
-39 -56 -57 -72 -73 -86 -88 -100 -101 -113 -114 -137 -138 -147 -148 -166 0
-39 -56 -57 -72 -73 -87 -88 -100 -102 -113 -114 -137 -138 -147 -148 -166 0
-39 -56 -57 -72 -73 -87 -88 -101 -102 -113 -115 -137 -138 -147 -148 -166 0
-39 -56 -57 -72 -73 -87 -88 -101 -102 -114 -115 -137 -139 -147 -148 -166 0
-39 -56 -57 -72 -73 -87 -88 -101 -102 -114 -115 -138 -139 -147 -149 -166 0
-39 -56 -57 -72 -73 -87 -88 -101 -102 -114 -115 -138 -139 -148 -149 -167 0
-39 -56 -57 -72 -73 -87 -88 -101 -102 -114 -115 -138 -139 -148 -149 -175 0
-38 -55 -56 -71 -72 -86 -87 -100 -101 -113 -114 -137 -138 -157 -158 -166 0
-39 -55 -57 -71 -72 -86 -87 -100 -101 -113 -114 -137 -138 -157 -158 -166 0
-39 -56 -57 -71 -73 -86 -87 -100 -101 -113 -114 -137 -138 -157 -158 -166 0
-39 -56 -57 -72 -73 -86 -88 -100 -101 -113 -114 -137 -138 -157 -158 -166 0
-39 -56 -57 -72 -73 -87 -88 -100 -102 -113 -114 -137 -138 -157 -158 -166 0
-39 -56 -57 -72 -73 -87 -88 -101 -102 -113 -115 -137 -138 -157 -158 -166 0
-39 -56 -57 -72 -73 -87 -88 -101 -102 -114 -115 -137 -139 -157 -158 -166 0
-39 -56 -57 -72 -73 -87 -88 -101 -102 -114 -115 -138 -139 -157 -159 -166 0
-39 -56 -57 -72 -73 -87 -88 -101 -102 -114 -115 -138 -139 -158 -159 -167 0
-39 -56 -57 -72 -73 -87 -88 -101 -102 -114 -115 -138 -139 -158 -159 -175 0
-39 -56 -57 -72 -73 -87 -88 -101 -102 -114 -115 -138 -139 -167 -168 -175 0
-38 -55 -56 -71 -72 -86 -87 -100 -101 -113 -114 -148 -149 -157 -158 -166 0
-39 -55 -57 -71 -72 -86 -87 -100 -101 -113 -114 -148 -149 -157 -158 -166 0
-39 -56 -57 -71 -73 -86 -87 -100 -101 -113 -114 -148 -149 -157 -158 -166 0
-39 -56 -57 -72 -73 -86 -88 -100 -101 -113 -114 -148 -149 -157 -158 -166 0
-39 -56 -57 -72 -73 -87 -88 -100 -102 -113 -114 -148 -149 -157 -158 -166 0
-39 -56 -57 -72 -73 -87 -88 -101 -102 -113 -115 -148 -149 -157 -158 -166 0
-39 -56 -57 -72 -73 -87 -88 -101 -102 -114 -115 -148 -150 -157 -158 -166 0
-39 -56 -57 -72 -73 -87 -88 -101 -102 -114 -115 -149 -150 -157 -159 -166 0
-39 -56 -57 -72 -73 -87 -88 -101 -102 -114 -115 -149 -150 -158 -159 -167 0
-39 -56 -57 -72 -73 -87 -88 -101 -102 -114 -115 -149 -150 -158 -159 -175 0
-39 -56 -57 -72 -73 -87 -88 -101 -102 -114 -115 -149 -150 -167 -168 -175 0
-39 -56 -57 -72 -73 -87 -88 -101 -102 -114 -115 -159 -160 -167 -168 -175 0
-37 -54 -55 -70 -71 -85 -86 -99 -100 -125 -126 -136 -137 -146 -147 -156 0
-38 -54 -56 -70 -71 -85 -86 -99 -100 -125 -126 -136 -137 -146 -147 -156 0
-39 -54 -57 -70 -71 -85 -86 -99 -100 -125 -126 -136 -137 -146 -147 -156 0
-38 -55 -56 -70 -72 -85 -86 -99 -100 -125 -126 -136 -137 -146 -147 -156 0
-39 -55 -57 -70 -72 -85 -86 -99 -100 -125 -126 -136 -137 -146 -147 -156 0
-39 -56 -57 -70 -73 -85 -86 -99 -100 -125 -126 -136 -137 -146 -147 -156 0
-38 -55 -56 -71 -72 -85 -87 -99 -100 -125 -126 -136 -137 -146 -147 -156 0
-39 -55 -57 -71 -72 -85 -87 -99 -100 -125 -126 -136 -137 -146 -147 -156 0
-39 -56 -57 -71 -73 -85 -87 -99 -100 -125 -126 -136 -137 -146 -147 -156 0
-39 -56 -57 -72 -73 -85 -88 -99 -100 -125 -126 -136 -137 -146 -147 -156 0
-38 -55 -56 -71 -72 -86 -87 -99 -101 -125 -126 -136 -137 -146 -147 -156 0
-39 -55 -57 -71 -72 -86 -87 -99 -101 -125 -126 -136 -137 -146 -147 -156 0
-39 -56 -57 -71 -73 -86 -87 -99 -101 -125 -126 -136 -137 -146 -147 -156 0
-39 -56 -57 -72 -73 -86 -88 -99 -101 -125 -126 -136 -137 -146 -147 -156 0
-39 -56 -57 -72 -73 -87 -88 -99 -102 -125 -126 -136 -137 -146 -147 -156 0
-38 -55 -56 -71 -72 -86 -87 -100 -101 -125 -127 -136 -137 -146 -147 -156 0
-39 -55 -57 -71 -72 -86 -87 -100 -101 -125 -127 -136 -137 -146 -147 -156 0
-39 -56 -57 -71 -73 -86 -87 -100 -101 -125 -127 -136 -137 -146 -147 -156 0
-39 -56 -57 -72 -73 -86 -88 -100 -101 -125 -127 -136 -137 -146 -147 -156 0
-39 -56 -57 -72 -73 -87 -88 -100 -102 -125 -127 -136 -137 -146 -147 -156 0
-39 -56 -57 -72 -73 -87 -88 -101 -102 -125 -128 -136 -137 -146 -147 -156 0
-38 -55 -56 -71 -72 -86 -87 -100 -101 -126 -127 -136 -138 -146 -147 -156 0
-39 -55 -57 -71 -72 -86 -87 -100 -101 -126 -127 -136 -138 -146 -147 -156 0
-39 -56 -57 -71 -73 -86 -87 -100 -101 -126 -127 -136 -138 -146 -147 -156 0
-39 -56 -57 -72 -73 -86 -88 -100 -101 -126 -127 -136 -138 -146 -147 -156 0
-39 -56 -57 -72 -73 -87 -88 -100 -102 -126 -127 -136 -138 -146 -147 -156 0
-39 -56 -57 -72 -73 -87 -88 -101 -102 -126 -128 -136 -138 -146 -147 -156 0
-39 -56 -57 -72 -73 -87 -88 -101 -102 -127 -128 -136 -139 -146 -147 -156 0
-38 -55 -56 -71 -72 -86 -87 -100 -101 -126 -127 -137 -138 -146 -148 -156 0
-39 -55 -57 -71 -72 -86 -87 -100 -101 -126 -127 -137 -138 -146 -148 -156 0
-39 -56 -57 -71 -73 -86 -87 -100 -101 -126 -127 -137 -138 -146 -148 -156 0
-39 -56 -57 -72 -73 -86 -88 -100 -101 -126 -127 -137 -138 -146 -148 -156 0
-39 -56 -57 -72 -73 -87 -88 -100 -102 -126 -127 -137 -138 -146 -148 -156 0
-39 -56 -57 -72 -73 -87 -88 -101 -102 -126 -128 -137 -138 -146 -148 -156 0
-39 -56 -57 -72 -73 -87 -88 -101 -102 -127 -128 -137 -139 -146 -148 -156 0
-39 -56 -57 -72 -73 -87 -88 -101 -102 -127 -128 -138 -139 -146 -149 -156 0
-38 -55 -56 -71 -72 -86 -87 -100 -101 -126 -127 -137 -138 -147 -148 -157 0
-39 -55 -57 -71 -72 -86 -87 -100 -101 -126 -127 -137 -138 -147 -148 -157 0
-39 -56 -57 -71 -73 -86 -87 -100 -101 -126 -127 -137 -138 -147 -148 -157 0
-39 -56 -57 -72 -73 -86 -88 -100 -101 -126 -127 -137 -138 -147 -148 -157 0
-39 -56 -57 -72 -73 -87 -88 -100 -102 -126 -127 -137 -138 -147 -148 -157 0
-39 -56 -57 -72 -73 -87 -88 -101 -102 -126 -128 -137 -138 -147 -148 -157 0
-39 -56 -57 -72 -73 -87 -88 -101 -102 -127 -128 -137 -139 -147 -148 -157 0
-39 -56 -57 -72 -73 -87 -88 -101 -102 -127 -128 -138 -139 -147 -149 -157 0
-39 -56 -57 -72 -73 -87 -88 -101 -102 -127 -128 -138 -139 -148 -149 -158 0
-38 -55 -56 -71 -72 -86 -87 -100 -101 -126 -127 -137 -138 -147 -148 -166 0
-39 -55 -57 -71 -72 -86 -87 -100 -101 -126 -127 -137 -138 -147 -148 -166 0
-39 -56 -57 -71 -73 -86 -87 -100 -101 -126 -127 -137 -138 -147 -148 -166 0
-39 -56 -57 -72 -73 -86 -88 -100 -101 -126 -127 -137 -138 -147 -148 -166 0
-39 -56 -57 -72 -73 -87 -88 -100 -102 -126 -127 -137 -138 -147 -148 -166 0
-39 -56 -57 -72 -73 -87 -88 -101 -102 -126 -128 -137 -138 -147 -148 -166 0
-39 -56 -57 -72 -73 -87 -88 -101 -102 -127 -128 -137 -139 -147 -148 -166 0
-39 -56 -57 -72 -73 -87 -88 -101 -102 -127 -128 -138 -139 -147 -149 -166 0
-39 -56 -57 -72 -73 -87 -88 -101 -102 -127 -128 -138 -139 -148 -149 -167 0
-39 -56 -57 -72 -73 -87 -88 -101 -102 -127 -128 -138 -139 -148 -149 -175 0
-38 -55 -56 -71 -72 -86 -87 -100 -101 -126 -127 -137 -138 -157 -158 -166 0
-39 -55 -57 -71 -72 -86 -87 -100 -101 -126 -127 -137 -138 -157 -158 -166 0
-39 -56 -57 -71 -73 -86 -87 -100 -101 -126 -127 -137 -138 -157 -158 -166 0
-39 -56 -57 -72 -73 -86 -88 -100 -101 -126 -127 -137 -138 -157 -158 -166 0
-39 -56 -57 -72 -73 -87 -88 -100 -102 -126 -127 -137 -138 -157 -158 -166 0
-39 -56 -57 -72 -73 -87 -88 -101 -102 -126 -128 -137 -138 -157 -158 -166 0
-39 -56 -57 -72 -73 -87 -88 -101 -102 -127 -128 -137 -139 -157 -158 -166 0
-39 -56 -57 -72 -73 -87 -88 -101 -102 -127 -128 -138 -139 -157 -159 -166 0
-39 -56 -57 -72 -73 -87 -88 -101 -102 -127 -128 -138 -139 -158 -159 -167 0
-39 -56 -57 -72 -73 -87 -88 -101 -102 -127 -128 -138 -139 -158 -159 -175 0
-39 -56 -57 -72 -73 -87 -88 -101 -102 -127 -128 -138 -139 -167 -168 -175 0
-38 -55 -56 -71 -72 -86 -87 -100 -101 -126 -127 -148 -149 -157 -158 -166 0
-39 -55 -57 -71 -72 -86 -87 -100 -101 -126 -127 -148 -149 -157 -158 -166 0
-39 -56 -57 -71 -73 -86 -87 -100 -101 -126 -127 -148 -149 -157 -158 -166 0
-39 -56 -57 -72 -73 -86 -88 -100 -101 -126 -127 -148 -149 -157 -158 -166 0
-39 -56 -57 -72 -73 -87 -88 -100 -102 -126 -127 -148 -149 -157 -158 -166 0
-39 -56 -57 -72 -73 -87 -88 -101 -102 -126 -128 -148 -149 -157 -158 -166 0
-39 -56 -57 -72 -73 -87 -88 -101 -102 -127 -128 -148 -150 -157 -158 -166 0
-39 -56 -57 -72 -73 -87 -88 -101 -102 -127 -128 -149 -150 -157 -159 -166 0
-39 -56 -57 -72 -73 -87 -88 -101 -102 -127 -128 -149 -150 -158 -159 -167 0
-39 -56 -57 -72 -73 -87 -88 -101 -102 -127 -128 -149 -150 -158 -159 -175 0
-39 -56 -57 -72 -73 -87 -88 -101 -102 -127 -128 -149 -150 -167 -168 -175 0
-39 -56 -57 -72 -73 -87 -88 -101 -102 -127 -128 -159 -160 -167 -168 -175 0
-38 -55 -56 -71 -72 -86 -87 -100 -101 -138 -139 -148 -149 -157 -158 -166 0
-39 -55 -57 -71 -72 -86 -87 -100 -101 -138 -139 -148 -149 -157 -158 -166 0
-39 -56 -57 -71 -73 -86 -87 -100 -101 -138 -139 -148 -149 -157 -158 -166 0
-39 -56 -57 -72 -73 -86 -88 -100 -101 -138 -139 -148 -149 -157 -158 -166 0
-39 -56 -57 -72 -73 -87 -88 -100 -102 -138 -139 -148 -149 -157 -158 -166 0
-39 -56 -57 -72 -73 -87 -88 -101 -102 -138 -140 -148 -149 -157 -158 -166 0
-39 -56 -57 -72 -73 -87 -88 -101 -102 -139 -140 -148 -150 -157 -158 -166 0
-39 -56 -57 -72 -73 -87 -88 -101 -102 -139 -140 -149 -150 -157 -159 -166 0
-39 -56 -57 -72 -73 -87 -88 -101 -102 -139 -140 -149 -150 -158 -159 -167 0
-39 -56 -57 -72 -73 -87 -88 -101 -102 -139 -140 -149 -150 -158 -159 -175 0
-39 -56 -57 -72 -73 -87 -88 -101 -102 -139 -140 -149 -150 -167 -168 -175 0
-39 -56 -57 -72 -73 -87 -88 -101 -102 -139 -140 -159 -160 -167 -168 -175 0
-39 -56 -57 -72 -73 -87 -88 -101 -102 -150 -151 -159 -160 -167 -168 -175 0
-37 -54 -55 -70 -71 -85 -86 -113 -114 -125 -126 -136 -137 -146 -147 -156 0
-38 -54 -56 -70 -71 -85 -86 -113 -114 -125 -126 -136 -137 -146 -147 -156 0
-39 -54 -57 -70 -71 -85 -86 -113 -114 -125 -126 -136 -137 -146 -147 -156 0
-38 -55 -56 -70 -72 -85 -86 -113 -114 -125 -126 -136 -137 -146 -147 -156 0
-39 -55 -57 -70 -72 -85 -86 -113 -114 -125 -126 -136 -137 -146 -147 -156 0
-39 -56 -57 -70 -73 -85 -86 -113 -114 -125 -126 -136 -137 -146 -147 -156 0
-38 -55 -56 -71 -72 -85 -87 -113 -114 -125 -126 -136 -137 -146 -147 -156 0
-39 -55 -57 -71 -72 -85 -87 -113 -114 -125 -126 -136 -137 -146 -147 -156 0
-39 -56 -57 -71 -73 -85 -87 -113 -114 -125 -126 -136 -137 -146 -147 -156 0
-39 -56 -57 -72 -73 -85 -88 -113 -114 -125 -126 -136 -137 -146 -147 -156 0
-38 -55 -56 -71 -72 -86 -87 -113 -115 -125 -126 -136 -137 -146 -147 -156 0
-39 -55 -57 -71 -72 -86 -87 -113 -115 -125 -126 -136 -137 -146 -147 -156 0
-39 -56 -57 -71 -73 -86 -87 -113 -115 -125 -126 -136 -137 -146 -147 -156 0
-39 -56 -57 -72 -73 -86 -88 -113 -115 -125 -126 -136 -137 -146 -147 -156 0
-39 -56 -57 -72 -73 -87 -88 -113 -116 -125 -126 -136 -137 -146 -147 -156 0
-38 -55 -56 -71 -72 -86 -87 -114 -115 -125 -127 -136 -137 -146 -147 -156 0
-39 -55 -57 -71 -72 -86 -87 -114 -115 -125 -127 -136 -137 -146 -147 -156 0
-39 -56 -57 -71 -73 -86 -87 -114 -115 -125 -127 -136 -137 -146 -147 -156 0
-39 -56 -57 -72 -73 -86 -88 -114 -115 -125 -127 -136 -137 -146 -147 -156 0
-39 -56 -57 -72 -73 -87 -88 -114 -116 -125 -127 -136 -137 -146 -147 -156 0
-39 -56 -57 -72 -73 -87 -88 -115 -116 -125 -128 -136 -137 -146 -147 -156 0
-38 -55 -56 -71 -72 -86 -87 -114 -115 -126 -127 -136 -138 -146 -147 -156 0
-39 -55 -57 -71 -72 -86 -87 -114 -115 -126 -127 -136 -138 -146 -147 -156 0
-39 -56 -57 -71 -73 -86 -87 -114 -115 -126 -127 -136 -138 -146 -147 -156 0
-39 -56 -57 -72 -73 -86 -88 -114 -115 -126 -127 -136 -138 -146 -147 -156 0
-39 -56 -57 -72 -73 -87 -88 -114 -116 -126 -127 -136 -138 -146 -147 -156 0
-39 -56 -57 -72 -73 -87 -88 -115 -116 -126 -128 -136 -138 -146 -147 -156 0
-39 -56 -57 -72 -73 -87 -88 -115 -116 -127 -128 -136 -139 -146 -147 -156 0
-38 -55 -56 -71 -72 -86 -87 -114 -115 -126 -127 -137 -138 -146 -148 -156 0
-39 -55 -57 -71 -72 -86 -87 -114 -115 -126 -127 -137 -138 -146 -148 -156 0
-39 -56 -57 -71 -73 -86 -87 -114 -115 -126 -127 -137 -138 -146 -148 -156 0
-39 -56 -57 -72 -73 -86 -88 -114 -115 -126 -127 -137 -138 -146 -148 -156 0
-39 -56 -57 -72 -73 -87 -88 -114 -116 -126 -127 -137 -138 -146 -148 -156 0
-39 -56 -57 -72 -73 -87 -88 -115 -116 -126 -128 -137 -138 -146 -148 -156 0
-39 -56 -57 -72 -73 -87 -88 -115 -116 -127 -128 -137 -139 -146 -148 -156 0
-39 -56 -57 -72 -73 -87 -88 -115 -116 -127 -128 -138 -139 -146 -149 -156 0
-38 -55 -56 -71 -72 -86 -87 -114 -115 -126 -127 -137 -138 -147 -148 -157 0
-39 -55 -57 -71 -72 -86 -87 -114 -115 -126 -127 -137 -138 -147 -148 -157 0
-39 -56 -57 -71 -73 -86 -87 -114 -115 -126 -127 -137 -138 -147 -148 -157 0
-39 -56 -57 -72 -73 -86 -88 -114 -115 -126 -127 -137 -138 -147 -148 -157 0
-39 -56 -57 -72 -73 -87 -88 -114 -116 -126 -127 -137 -138 -147 -148 -157 0
-39 -56 -57 -72 -73 -87 -88 -115 -116 -126 -128 -137 -138 -147 -148 -157 0
-39 -56 -57 -72 -73 -87 -88 -115 -116 -127 -128 -137 -139 -147 -148 -157 0
-39 -56 -57 -72 -73 -87 -88 -115 -116 -127 -128 -138 -139 -147 -149 -157 0
-39 -56 -57 -72 -73 -87 -88 -115 -116 -127 -128 -138 -139 -148 -149 -158 0
-38 -55 -56 -71 -72 -86 -87 -114 -115 -126 -127 -137 -138 -147 -148 -166 0
-39 -55 -57 -71 -72 -86 -87 -114 -115 -126 -127 -137 -138 -147 -148 -166 0
-39 -56 -57 -71 -73 -86 -87 -114 -115 -126 -127 -137 -138 -147 -148 -166 0
-39 -56 -57 -72 -73 -86 -88 -114 -115 -126 -127 -137 -138 -147 -148 -166 0
-39 -56 -57 -72 -73 -87 -88 -114 -116 -126 -127 -137 -138 -147 -148 -166 0
-39 -56 -57 -72 -73 -87 -88 -115 -116 -126 -128 -137 -138 -147 -148 -166 0
-39 -56 -57 -72 -73 -87 -88 -115 -116 -127 -128 -137 -139 -147 -148 -166 0
-39 -56 -57 -72 -73 -87 -88 -115 -116 -127 -128 -138 -139 -147 -149 -166 0
-39 -56 -57 -72 -73 -87 -88 -115 -116 -127 -128 -138 -139 -148 -149 -167 0
-39 -56 -57 -72 -73 -87 -88 -115 -116 -127 -128 -138 -139 -148 -149 -175 0
-38 -55 -56 -71 -72 -86 -87 -114 -115 -126 -127 -137 -138 -157 -158 -166 0
-39 -55 -57 -71 -72 -86 -87 -114 -115 -126 -127 -137 -138 -157 -158 -166 0
-39 -56 -57 -71 -73 -86 -87 -114 -115 -126 -127 -137 -138 -157 -158 -166 0
-39 -56 -57 -72 -73 -86 -88 -114 -115 -126 -127 -137 -138 -157 -158 -166 0
-39 -56 -57 -72 -73 -87 -88 -114 -116 -126 -127 -137 -138 -157 -158 -166 0
-39 -56 -57 -72 -73 -87 -88 -115 -116 -126 -128 -137 -138 -157 -158 -166 0
-39 -56 -57 -72 -73 -87 -88 -115 -116 -127 -128 -137 -139 -157 -158 -166 0
-39 -56 -57 -72 -73 -87 -88 -115 -116 -127 -128 -138 -139 -157 -159 -166 0
-39 -56 -57 -72 -73 -87 -88 -115 -116 -127 -128 -138 -139 -158 -159 -167 0
-39 -56 -57 -72 -73 -87 -88 -115 -116 -127 -128 -138 -139 -158 -159 -175 0
-39 -56 -57 -72 -73 -87 -88 -115 -116 -127 -128 -138 -139 -167 -168 -175 0
-38 -55 -56 -71 -72 -86 -87 -114 -115 -126 -127 -148 -149 -157 -158 -166 0
-39 -55 -57 -71 -72 -86 -87 -114 -115 -126 -127 -148 -149 -157 -158 -166 0
-39 -56 -57 -71 -73 -86 -87 -114 -115 -126 -127 -148 -149 -157 -158 -166 0
-39 -56 -57 -72 -73 -86 -88 -114 -115 -126 -127 -148 -149 -157 -158 -166 0
-39 -56 -57 -72 -73 -87 -88 -114 -116 -126 -127 -148 -149 -157 -158 -166 0
-39 -56 -57 -72 -73 -87 -88 -115 -116 -126 -128 -148 -149 -157 -158 -166 0
-39 -56 -57 -72 -73 -87 -88 -115 -116 -127 -128 -148 -150 -157 -158 -166 0
-39 -56 -57 -72 -73 -87 -88 -115 -116 -127 -128 -149 -150 -157 -159 -166 0
-39 -56 -57 -72 -73 -87 -88 -115 -116 -127 -128 -149 -150 -158 -159 -167 0
-39 -56 -57 -72 -73 -87 -88 -115 -116 -127 -128 -149 -150 -158 -159 -175 0
-39 -56 -57 -72 -73 -87 -88 -115 -116 -127 -128 -149 -150 -167 -168 -175 0
-39 -56 -57 -72 -73 -87 -88 -115 -116 -127 -128 -159 -160 -167 -168 -175 0
-38 -55 -56 -71 -72 -86 -87 -114 -115 -138 -139 -148 -149 -157 -158 -166 0
-39 -55 -57 -71 -72 -86 -87 -114 -115 -138 -139 -148 -149 -157 -158 -166 0
-39 -56 -57 -71 -73 -86 -87 -114 -115 -138 -139 -148 -149 -157 -158 -166 0
-39 -56 -57 -72 -73 -86 -88 -114 -115 -138 -139 -148 -149 -157 -158 -166 0
-39 -56 -57 -72 -73 -87 -88 -114 -116 -138 -139 -148 -149 -157 -158 -166 0
-39 -56 -57 -72 -73 -87 -88 -115 -116 -138 -140 -148 -149 -157 -158 -166 0
-39 -56 -57 -72 -73 -87 -88 -115 -116 -139 -140 -148 -150 -157 -158 -166 0
-39 -56 -57 -72 -73 -87 -88 -115 -116 -139 -140 -149 -150 -157 -159 -166 0
-39 -56 -57 -72 -73 -87 -88 -115 -116 -139 -140 -149 -150 -158 -159 -167 0
-39 -56 -57 -72 -73 -87 -88 -115 -116 -139 -140 -149 -150 -158 -159 -175 0
-39 -56 -57 -72 -73 -87 -88 -115 -116 -139 -140 -149 -150 -167 -168 -175 0
-39 -56 -57 -72 -73 -87 -88 -115 -116 -139 -140 -159 -160 -167 -168 -175 0
-39 -56 -57 -72 -73 -87 -88 -115 -116 -150 -151 -159 -160 -167 -168 -175 0
-38 -55 -56 -71 -72 -86 -87 -127 -128 -138 -139 -148 -149 -157 -158 -166 0
-39 -55 -57 -71 -72 -86 -87 -127 -128 -138 -139 -148 -149 -157 -158 -166 0
-39 -56 -57 -71 -73 -86 -87 -127 -128 -138 -139 -148 -149 -157 -158 -166 0
-39 -56 -57 -72 -73 -86 -88 -127 -128 -138 -139 -148 -149 -157 -158 -166 0
-39 -56 -57 -72 -73 -87 -88 -127 -129 -138 -139 -148 -149 -157 -158 -166 0
-39 -56 -57 -72 -73 -87 -88 -128 -129 -138 -140 -148 -149 -157 -158 -166 0
-39 -56 -57 -72 -73 -87 -88 -128 -129 -139 -140 -148 -150 -157 -158 -166 0
-39 -56 -57 -72 -73 -87 -88 -128 -129 -139 -140 -149 -150 -157 -159 -166 0
-39 -56 -57 -72 -73 -87 -88 -128 -129 -139 -140 -149 -150 -158 -159 -167 0
-39 -56 -57 -72 -73 -87 -88 -128 -129 -139 -140 -149 -150 -158 -159 -175 0
-39 -56 -57 -72 -73 -87 -88 -128 -129 -139 -140 -149 -150 -167 -168 -175 0
-39 -56 -57 -72 -73 -87 -88 -128 -129 -139 -140 -159 -160 -167 -168 -175 0
-39 -56 -57 -72 -73 -87 -88 -128 -129 -150 -151 -159 -160 -167 -168 -175 0
-39 -56 -57 -72 -73 -87 -88 -140 -141 -150 -151 -159 -160 -167 -168 -175 0
-37 -54 -55 -70 -71 -100 -101 -113 -114 -125 -126 -136 -137 -146 -147 -156 0
-38 -54 -56 -70 -71 -100 -101 -113 -114 -125 -126 -136 -137 -146 -147 -156 0
-39 -54 -57 -70 -71 -100 -101 -113 -114 -125 -126 -136 -137 -146 -147 -156 0
-38 -55 -56 -70 -72 -100 -101 -113 -114 -125 -126 -136 -137 -146 -147 -156 0
-39 -55 -57 -70 -72 -100 -101 -113 -114 -125 -126 -136 -137 -146 -147 -156 0
-39 -56 -57 -70 -73 -100 -101 -113 -114 -125 -126 -136 -137 -146 -147 -156 0
-38 -55 -56 -71 -72 -100 -102 -113 -114 -125 -126 -136 -137 -146 -147 -156 0
-39 -55 -57 -71 -72 -100 -102 -113 -114 -125 -126 -136 -137 -146 -147 -156 0
-39 -56 -57 -71 -73 -100 -102 -113 -114 -125 -126 -136 -137 -146 -147 -156 0
-39 -56 -57 -72 -73 -100 -103 -113 -114 -125 -126 -136 -137 -146 -147 -156 0
-38 -55 -56 -71 -72 -101 -102 -113 -115 -125 -126 -136 -137 -146 -147 -156 0
-39 -55 -57 -71 -72 -101 -102 -113 -115 -125 -126 -136 -137 -146 -147 -156 0
-39 -56 -57 -71 -73 -101 -102 -113 -115 -125 -126 -136 -137 -146 -147 -156 0
-39 -56 -57 -72 -73 -101 -103 -113 -115 -125 -126 -136 -137 -146 -147 -156 0
-39 -56 -57 -72 -73 -102 -103 -113 -116 -125 -126 -136 -137 -146 -147 -156 0
-38 -55 -56 -71 -72 -101 -102 -114 -115 -125 -127 -136 -137 -146 -147 -156 0
-39 -55 -57 -71 -72 -101 -102 -114 -115 -125 -127 -136 -137 -146 -147 -156 0
-39 -56 -57 -71 -73 -101 -102 -114 -115 -125 -127 -136 -137 -146 -147 -156 0
-39 -56 -57 -72 -73 -101 -103 -114 -115 -125 -127 -136 -137 -146 -147 -156 0
-39 -56 -57 -72 -73 -102 -103 -114 -116 -125 -127 -136 -137 -146 -147 -156 0
-39 -56 -57 -72 -73 -102 -103 -115 -116 -125 -128 -136 -137 -146 -147 -156 0
-38 -55 -56 -71 -72 -101 -102 -114 -115 -126 -127 -136 -138 -146 -147 -156 0
-39 -55 -57 -71 -72 -101 -102 -114 -115 -126 -127 -136 -138 -146 -147 -156 0
-39 -56 -57 -71 -73 -101 -102 -114 -115 -126 -127 -136 -138 -146 -147 -156 0
-39 -56 -57 -72 -73 -101 -103 -114 -115 -126 -127 -136 -138 -146 -147 -156 0
-39 -56 -57 -72 -73 -102 -103 -114 -116 -126 -127 -136 -138 -146 -147 -156 0
-39 -56 -57 -72 -73 -102 -103 -115 -116 -126 -128 -136 -138 -146 -147 -156 0
-39 -56 -57 -72 -73 -102 -103 -115 -116 -127 -128 -136 -139 -146 -147 -156 0
-38 -55 -56 -71 -72 -101 -102 -114 -115 -126 -127 -137 -138 -146 -148 -156 0
-39 -55 -57 -71 -72 -101 -102 -114 -115 -126 -127 -137 -138 -146 -148 -156 0
-39 -56 -57 -71 -73 -101 -102 -114 -115 -126 -127 -137 -138 -146 -148 -156 0
-39 -56 -57 -72 -73 -101 -103 -114 -115 -126 -127 -137 -138 -146 -148 -156 0
-39 -56 -57 -72 -73 -102 -103 -114 -116 -126 -127 -137 -138 -146 -148 -156 0
-39 -56 -57 -72 -73 -102 -103 -115 -116 -126 -128 -137 -138 -146 -148 -156 0
-39 -56 -57 -72 -73 -102 -103 -115 -116 -127 -128 -137 -139 -146 -148 -156 0
-39 -56 -57 -72 -73 -102 -103 -115 -116 -127 -128 -138 -139 -146 -149 -156 0
-38 -55 -56 -71 -72 -101 -102 -114 -115 -126 -127 -137 -138 -147 -148 -157 0
-39 -55 -57 -71 -72 -101 -102 -114 -115 -126 -127 -137 -138 -147 -148 -157 0
-39 -56 -57 -71 -73 -101 -102 -114 -115 -126 -127 -137 -138 -147 -148 -157 0
-39 -56 -57 -72 -73 -101 -103 -114 -115 -126 -127 -137 -138 -147 -148 -157 0
-39 -56 -57 -72 -73 -102 -103 -114 -116 -126 -127 -137 -138 -147 -148 -157 0
-39 -56 -57 -72 -73 -102 -103 -115 -116 -126 -128 -137 -138 -147 -148 -157 0
-39 -56 -57 -72 -73 -102 -103 -115 -116 -127 -128 -137 -139 -147 -148 -157 0
-39 -56 -57 -72 -73 -102 -103 -115 -116 -127 -128 -138 -139 -147 -149 -157 0
-39 -56 -57 -72 -73 -102 -103 -115 -116 -127 -128 -138 -139 -148 -149 -158 0
-38 -55 -56 -71 -72 -101 -102 -114 -115 -126 -127 -137 -138 -147 -148 -166 0
-39 -55 -57 -71 -72 -101 -102 -114 -115 -126 -127 -137 -138 -147 -148 -166 0
-39 -56 -57 -71 -73 -101 -102 -114 -115 -126 -127 -137 -138 -147 -148 -166 0
-39 -56 -57 -72 -73 -101 -103 -114 -115 -126 -127 -137 -138 -147 -148 -166 0
-39 -56 -57 -72 -73 -102 -103 -114 -116 -126 -127 -137 -138 -147 -148 -166 0
-39 -56 -57 -72 -73 -102 -103 -115 -116 -126 -128 -137 -138 -147 -148 -166 0
-39 -56 -57 -72 -73 -102 -103 -115 -116 -127 -128 -137 -139 -147 -148 -166 0
-39 -56 -57 -72 -73 -102 -103 -115 -116 -127 -128 -138 -139 -147 -149 -166 0
-39 -56 -57 -72 -73 -102 -103 -115 -116 -127 -128 -138 -139 -148 -149 -167 0
-39 -56 -57 -72 -73 -102 -103 -115 -116 -127 -128 -138 -139 -148 -149 -175 0
-38 -55 -56 -71 -72 -101 -102 -114 -115 -126 -127 -137 -138 -157 -158 -166 0
-39 -55 -57 -71 -72 -101 -102 -114 -115 -126 -127 -137 -138 -157 -158 -166 0
-39 -56 -57 -71 -73 -101 -102 -114 -115 -126 -127 -137 -138 -157 -158 -166 0
-39 -56 -57 -72 -73 -101 -103 -114 -115 -126 -127 -137 -138 -157 -158 -166 0
-39 -56 -57 -72 -73 -102 -103 -114 -116 -126 -127 -137 -138 -157 -158 -166 0
-39 -56 -57 -72 -73 -102 -103 -115 -116 -126 -128 -137 -138 -157 -158 -166 0
-39 -56 -57 -72 -73 -102 -103 -115 -116 -127 -128 -137 -139 -157 -158 -166 0
-39 -56 -57 -72 -73 -102 -103 -115 -116 -127 -128 -138 -139 -157 -159 -166 0
-39 -56 -57 -72 -73 -102 -103 -115 -116 -127 -128 -138 -139 -158 -159 -167 0
-39 -56 -57 -72 -73 -102 -103 -115 -116 -127 -128 -138 -139 -158 -159 -175 0
-39 -56 -57 -72 -73 -102 -103 -115 -116 -127 -128 -138 -139 -167 -168 -175 0
-38 -55 -56 -71 -72 -101 -102 -114 -115 -126 -127 -148 -149 -157 -158 -166 0
-39 -55 -57 -71 -72 -101 -102 -114 -115 -126 -127 -148 -149 -157 -158 -166 0
-39 -56 -57 -71 -73 -101 -102 -114 -115 -126 -127 -148 -149 -157 -158 -166 0
-39 -56 -57 -72 -73 -101 -103 -114 -115 -126 -127 -148 -149 -157 -158 -166 0
-39 -56 -57 -72 -73 -102 -103 -114 -116 -126 -127 -148 -149 -157 -158 -166 0
-39 -56 -57 -72 -73 -102 -103 -115 -116 -126 -128 -148 -149 -157 -158 -166 0
-39 -56 -57 -72 -73 -102 -103 -115 -116 -127 -128 -148 -150 -157 -158 -166 0
-39 -56 -57 -72 -73 -102 -103 -115 -116 -127 -128 -149 -150 -157 -159 -166 0
-39 -56 -57 -72 -73 -102 -103 -115 -116 -127 -128 -149 -150 -158 -159 -167 0
-39 -56 -57 -72 -73 -102 -103 -115 -116 -127 -128 -149 -150 -158 -159 -175 0
-39 -56 -57 -72 -73 -102 -103 -115 -116 -127 -128 -149 -150 -167 -168 -175 0
-39 -56 -57 -72 -73 -102 -103 -115 -116 -127 -128 -159 -160 -167 -168 -175 0
-38 -55 -56 -71 -72 -101 -102 -114 -115 -138 -139 -148 -149 -157 -158 -166 0
-39 -55 -57 -71 -72 -101 -102 -114 -115 -138 -139 -148 -149 -157 -158 -166 0
-39 -56 -57 -71 -73 -101 -102 -114 -115 -138 -139 -148 -149 -157 -158 -166 0
-39 -56 -57 -72 -73 -101 -103 -114 -115 -138 -139 -148 -149 -157 -158 -166 0
-39 -56 -57 -72 -73 -102 -103 -114 -116 -138 -139 -148 -149 -157 -158 -166 0
-39 -56 -57 -72 -73 -102 -103 -115 -116 -138 -140 -148 -149 -157 -158 -166 0
-39 -56 -57 -72 -73 -102 -103 -115 -116 -139 -140 -148 -150 -157 -158 -166 0
-39 -56 -57 -72 -73 -102 -103 -115 -116 -139 -140 -149 -150 -157 -159 -166 0
-39 -56 -57 -72 -73 -102 -103 -115 -116 -139 -140 -149 -150 -158 -159 -167 0
-39 -56 -57 -72 -73 -102 -103 -115 -116 -139 -140 -149 -150 -158 -159 -175 0
-39 -56 -57 -72 -73 -102 -103 -115 -116 -139 -140 -149 -150 -167 -168 -175 0
-39 -56 -57 -72 -73 -102 -103 -115 -116 -139 -140 -159 -160 -167 -168 -175 0
-39 -56 -57 -72 -73 -102 -103 -115 -116 -150 -151 -159 -160 -167 -168 -175 0
-38 -55 -56 -71 -72 -101 -102 -127 -128 -138 -139 -148 -149 -157 -158 -166 0
-39 -55 -57 -71 -72 -101 -102 -127 -128 -138 -139 -148 -149 -157 -158 -166 0
-39 -56 -57 -71 -73 -101 -102 -127 -128 -138 -139 -148 -149 -157 -158 -166 0
-39 -56 -57 -72 -73 -101 -103 -127 -128 -138 -139 -148 -149 -157 -158 -166 0
-39 -56 -57 -72 -73 -102 -103 -127 -129 -138 -139 -148 -149 -157 -158 -166 0
-39 -56 -57 -72 -73 -102 -103 -128 -129 -138 -140 -148 -149 -157 -158 -166 0
-39 -56 -57 -72 -73 -102 -103 -128 -129 -139 -140 -148 -150 -157 -158 -166 0
-39 -56 -57 -72 -73 -102 -103 -128 -129 -139 -140 -149 -150 -157 -159 -166 0
-39 -56 -57 -72 -73 -102 -103 -128 -129 -139 -140 -149 -150 -158 -159 -167 0
-39 -56 -57 -72 -73 -102 -103 -128 -129 -139 -140 -149 -150 -158 -159 -175 0
-39 -56 -57 -72 -73 -102 -103 -128 -129 -139 -140 -149 -150 -167 -168 -175 0
-39 -56 -57 -72 -73 -102 -103 -128 -129 -139 -140 -159 -160 -167 -168 -175 0
-39 -56 -57 -72 -73 -102 -103 -128 -129 -150 -151 -159 -160 -167 -168 -175 0
-39 -56 -57 -72 -73 -102 -103 -140 -141 -150 -151 -159 -160 -167 -168 -175 0
-38 -55 -56 -71 -72 -115 -116 -127 -128 -138 -139 -148 -149 -157 -158 -166 0
-39 -55 -57 -71 -72 -115 -116 -127 -128 -138 -139 -148 -149 -157 -158 -166 0
-39 -56 -57 -71 -73 -115 -116 -127 -128 -138 -139 -148 -149 -157 -158 -166 0
-39 -56 -57 -72 -73 -115 -117 -127 -128 -138 -139 -148 -149 -157 -158 -166 0
-39 -56 -57 -72 -73 -116 -117 -127 -129 -138 -139 -148 -149 -157 -158 -166 0
-39 -56 -57 -72 -73 -116 -117 -128 -129 -138 -140 -148 -149 -157 -158 -166 0
-39 -56 -57 -72 -73 -116 -117 -128 -129 -139 -140 -148 -150 -157 -158 -166 0
-39 -56 -57 -72 -73 -116 -117 -128 -129 -139 -140 -149 -150 -157 -159 -166 0
-39 -56 -57 -72 -73 -116 -117 -128 -129 -139 -140 -149 -150 -158 -159 -167 0
-39 -56 -57 -72 -73 -116 -117 -128 -129 -139 -140 -149 -150 -158 -159 -175 0
-39 -56 -57 -72 -73 -116 -117 -128 -129 -139 -140 -149 -150 -167 -168 -175 0
-39 -56 -57 -72 -73 -116 -117 -128 -129 -139 -140 -159 -160 -167 -168 -175 0
-39 -56 -57 -72 -73 -116 -117 -128 -129 -150 -151 -159 -160 -167 -168 -175 0
-39 -56 -57 -72 -73 -116 -117 -140 -141 -150 -151 -159 -160 -167 -168 -175 0
-39 -56 -57 -72 -73 -129 -130 -140 -141 -150 -151 -159 -160 -167 -168 -175 0
-37 -54 -55 -86 -87 -100 -101 -113 -114 -125 -126 -136 -137 -146 -147 -156 0
-38 -54 -56 -86 -87 -100 -101 -113 -114 -125 -126 -136 -137 -146 -147 -156 0
-39 -54 -57 -86 -87 -100 -101 -113 -114 -125 -126 -136 -137 -146 -147 -156 0
-38 -55 -56 -86 -88 -100 -101 -113 -114 -125 -126 -136 -137 -146 -147 -156 0
-39 -55 -57 -86 -88 -100 -101 -113 -114 -125 -126 -136 -137 -146 -147 -156 0
-39 -56 -57 -86 -89 -100 -101 -113 -114 -125 -126 -136 -137 -146 -147 -156 0
-38 -55 -56 -87 -88 -100 -102 -113 -114 -125 -126 -136 -137 -146 -147 -156 0
-39 -55 -57 -87 -88 -100 -102 -113 -114 -125 -126 -136 -137 -146 -147 -156 0
-39 -56 -57 -87 -89 -100 -102 -113 -114 -125 -126 -136 -137 -146 -147 -156 0
-39 -56 -57 -88 -89 -100 -103 -113 -114 -125 -126 -136 -137 -146 -147 -156 0
-38 -55 -56 -87 -88 -101 -102 -113 -115 -125 -126 -136 -137 -146 -147 -156 0
-39 -55 -57 -87 -88 -101 -102 -113 -115 -125 -126 -136 -137 -146 -147 -156 0
-39 -56 -57 -87 -89 -101 -102 -113 -115 -125 -126 -136 -137 -146 -147 -156 0
-39 -56 -57 -88 -89 -101 -103 -113 -115 -125 -126 -136 -137 -146 -147 -156 0
-39 -56 -57 -88 -89 -102 -103 -113 -116 -125 -126 -136 -137 -146 -147 -156 0
-38 -55 -56 -87 -88 -101 -102 -114 -115 -125 -127 -136 -137 -146 -147 -156 0
-39 -55 -57 -87 -88 -101 -102 -114 -115 -125 -127 -136 -137 -146 -147 -156 0
-39 -56 -57 -87 -89 -101 -102 -114 -115 -125 -127 -136 -137 -146 -147 -156 0
-39 -56 -57 -88 -89 -101 -103 -114 -115 -125 -127 -136 -137 -146 -147 -156 0
-39 -56 -57 -88 -89 -102 -103 -114 -116 -125 -127 -136 -137 -146 -147 -156 0
-39 -56 -57 -88 -89 -102 -103 -115 -116 -125 -128 -136 -137 -146 -147 -156 0
-38 -55 -56 -87 -88 -101 -102 -114 -115 -126 -127 -136 -138 -146 -147 -156 0
-39 -55 -57 -87 -88 -101 -102 -114 -115 -126 -127 -136 -138 -146 -147 -156 0
-39 -56 -57 -87 -89 -101 -102 -114 -115 -126 -127 -136 -138 -146 -147 -156 0
-39 -56 -57 -88 -89 -101 -103 -114 -115 -126 -127 -136 -138 -146 -147 -156 0
-39 -56 -57 -88 -89 -102 -103 -114 -116 -126 -127 -136 -138 -146 -147 -156 0
-39 -56 -57 -88 -89 -102 -103 -115 -116 -126 -128 -136 -138 -146 -147 -156 0
-39 -56 -57 -88 -89 -102 -103 -115 -116 -127 -128 -136 -139 -146 -147 -156 0
-38 -55 -56 -87 -88 -101 -102 -114 -115 -126 -127 -137 -138 -146 -148 -156 0
-39 -55 -57 -87 -88 -101 -102 -114 -115 -126 -127 -137 -138 -146 -148 -156 0
-39 -56 -57 -87 -89 -101 -102 -114 -115 -126 -127 -137 -138 -146 -148 -156 0
-39 -56 -57 -88 -89 -101 -103 -114 -115 -126 -127 -137 -138 -146 -148 -156 0
-39 -56 -57 -88 -89 -102 -103 -114 -116 -126 -127 -137 -138 -146 -148 -156 0
-39 -56 -57 -88 -89 -102 -103 -115 -116 -126 -128 -137 -138 -146 -148 -156 0
-39 -56 -57 -88 -89 -102 -103 -115 -116 -127 -128 -137 -139 -146 -148 -156 0
-39 -56 -57 -88 -89 -102 -103 -115 -116 -127 -128 -138 -139 -146 -149 -156 0
-38 -55 -56 -87 -88 -101 -102 -114 -115 -126 -127 -137 -138 -147 -148 -157 0
-39 -55 -57 -87 -88 -101 -102 -114 -115 -126 -127 -137 -138 -147 -148 -157 0
-39 -56 -57 -87 -89 -101 -102 -114 -115 -126 -127 -137 -138 -147 -148 -157 0
-39 -56 -57 -88 -89 -101 -103 -114 -115 -126 -127 -137 -138 -147 -148 -157 0
-39 -56 -57 -88 -89 -102 -103 -114 -116 -126 -127 -137 -138 -147 -148 -157 0
-39 -56 -57 -88 -89 -102 -103 -115 -116 -126 -128 -137 -138 -147 -148 -157 0
-39 -56 -57 -88 -89 -102 -103 -115 -116 -127 -128 -137 -139 -147 -148 -157 0
-39 -56 -57 -88 -89 -102 -103 -115 -116 -127 -128 -138 -139 -147 -149 -157 0
-39 -56 -57 -88 -89 -102 -103 -115 -116 -127 -128 -138 -139 -148 -149 -158 0
-38 -55 -56 -87 -88 -101 -102 -114 -115 -126 -127 -137 -138 -147 -148 -166 0
-39 -55 -57 -87 -88 -101 -102 -114 -115 -126 -127 -137 -138 -147 -148 -166 0
-39 -56 -57 -87 -89 -101 -102 -114 -115 -126 -127 -137 -138 -147 -148 -166 0
-39 -56 -57 -88 -89 -101 -103 -114 -115 -126 -127 -137 -138 -147 -148 -166 0
-39 -56 -57 -88 -89 -102 -103 -114 -116 -126 -127 -137 -138 -147 -148 -166 0
-39 -56 -57 -88 -89 -102 -103 -115 -116 -126 -128 -137 -138 -147 -148 -166 0
-39 -56 -57 -88 -89 -102 -103 -115 -116 -127 -128 -137 -139 -147 -148 -166 0
-39 -56 -57 -88 -89 -102 -103 -115 -116 -127 -128 -138 -139 -147 -149 -166 0
-39 -56 -57 -88 -89 -102 -103 -115 -116 -127 -128 -138 -139 -148 -149 -167 0
-39 -56 -57 -88 -89 -102 -103 -115 -116 -127 -128 -138 -139 -148 -149 -175 0
-38 -55 -56 -87 -88 -101 -102 -114 -115 -126 -127 -137 -138 -157 -158 -166 0
-39 -55 -57 -87 -88 -101 -102 -114 -115 -126 -127 -137 -138 -157 -158 -166 0
-39 -56 -57 -87 -89 -101 -102 -114 -115 -126 -127 -137 -138 -157 -158 -166 0
-39 -56 -57 -88 -89 -101 -103 -114 -115 -126 -127 -137 -138 -157 -158 -166 0
-39 -56 -57 -88 -89 -102 -103 -114 -116 -126 -127 -137 -138 -157 -158 -166 0
-39 -56 -57 -88 -89 -102 -103 -115 -116 -126 -128 -137 -138 -157 -158 -166 0
-39 -56 -57 -88 -89 -102 -103 -115 -116 -127 -128 -137 -139 -157 -158 -166 0
-39 -56 -57 -88 -89 -102 -103 -115 -116 -127 -128 -138 -139 -157 -159 -166 0
-39 -56 -57 -88 -89 -102 -103 -115 -116 -127 -128 -138 -139 -158 -159 -167 0
-39 -56 -57 -88 -89 -102 -103 -115 -116 -127 -128 -138 -139 -158 -159 -175 0
-39 -56 -57 -88 -89 -102 -103 -115 -116 -127 -128 -138 -139 -167 -168 -175 0
-38 -55 -56 -87 -88 -101 -102 -114 -115 -126 -127 -148 -149 -157 -158 -166 0
-39 -55 -57 -87 -88 -101 -102 -114 -115 -126 -127 -148 -149 -157 -158 -166 0
-39 -56 -57 -87 -89 -101 -102 -114 -115 -126 -127 -148 -149 -157 -158 -166 0
-39 -56 -57 -88 -89 -101 -103 -114 -115 -126 -127 -148 -149 -157 -158 -166 0
-39 -56 -57 -88 -89 -102 -103 -114 -116 -126 -127 -148 -149 -157 -158 -166 0
-39 -56 -57 -88 -89 -102 -103 -115 -116 -126 -128 -148 -149 -157 -158 -166 0
-39 -56 -57 -88 -89 -102 -103 -115 -116 -127 -128 -148 -150 -157 -158 -166 0
-39 -56 -57 -88 -89 -102 -103 -115 -116 -127 -128 -149 -150 -157 -159 -166 0
-39 -56 -57 -88 -89 -102 -103 -115 -116 -127 -128 -149 -150 -158 -159 -167 0
-39 -56 -57 -88 -89 -102 -103 -115 -116 -127 -128 -149 -150 -158 -159 -175 0
-39 -56 -57 -88 -89 -102 -103 -115 -116 -127 -128 -149 -150 -167 -168 -175 0
-39 -56 -57 -88 -89 -102 -103 -115 -116 -127 -128 -159 -160 -167 -168 -175 0
-38 -55 -56 -87 -88 -101 -102 -114 -115 -138 -139 -148 -149 -157 -158 -166 0
-39 -55 -57 -87 -88 -101 -102 -114 -115 -138 -139 -148 -149 -157 -158 -166 0
-39 -56 -57 -87 -89 -101 -102 -114 -115 -138 -139 -148 -149 -157 -158 -166 0
-39 -56 -57 -88 -89 -101 -103 -114 -115 -138 -139 -148 -149 -157 -158 -166 0
-39 -56 -57 -88 -89 -102 -103 -114 -116 -138 -139 -148 -149 -157 -158 -166 0
-39 -56 -57 -88 -89 -102 -103 -115 -116 -138 -140 -148 -149 -157 -158 -166 0
-39 -56 -57 -88 -89 -102 -103 -115 -116 -139 -140 -148 -150 -157 -158 -166 0
-39 -56 -57 -88 -89 -102 -103 -115 -116 -139 -140 -149 -150 -157 -159 -166 0
-39 -56 -57 -88 -89 -102 -103 -115 -116 -139 -140 -149 -150 -158 -159 -167 0
-39 -56 -57 -88 -89 -102 -103 -115 -116 -139 -140 -149 -150 -158 -159 -175 0
-39 -56 -57 -88 -89 -102 -103 -115 -116 -139 -140 -149 -150 -167 -168 -175 0
-39 -56 -57 -88 -89 -102 -103 -115 -116 -139 -140 -159 -160 -167 -168 -175 0
-39 -56 -57 -88 -89 -102 -103 -115 -116 -150 -151 -159 -160 -167 -168 -175 0
-38 -55 -56 -87 -88 -101 -102 -127 -128 -138 -139 -148 -149 -157 -158 -166 0
-39 -55 -57 -87 -88 -101 -102 -127 -128 -138 -139 -148 -149 -157 -158 -166 0
-39 -56 -57 -87 -89 -101 -102 -127 -128 -138 -139 -148 -149 -157 -158 -166 0
-39 -56 -57 -88 -89 -101 -103 -127 -128 -138 -139 -148 -149 -157 -158 -166 0
-39 -56 -57 -88 -89 -102 -103 -127 -129 -138 -139 -148 -149 -157 -158 -166 0
-39 -56 -57 -88 -89 -102 -103 -128 -129 -138 -140 -148 -149 -157 -158 -166 0
-39 -56 -57 -88 -89 -102 -103 -128 -129 -139 -140 -148 -150 -157 -158 -166 0
-39 -56 -57 -88 -89 -102 -103 -128 -129 -139 -140 -149 -150 -157 -159 -166 0
-39 -56 -57 -88 -89 -102 -103 -128 -129 -139 -140 -149 -150 -158 -159 -167 0
-39 -56 -57 -88 -89 -102 -103 -128 -129 -139 -140 -149 -150 -158 -159 -175 0
-39 -56 -57 -88 -89 -102 -103 -128 -129 -139 -140 -149 -150 -167 -168 -175 0
-39 -56 -57 -88 -89 -102 -103 -128 -129 -139 -140 -159 -160 -167 -168 -175 0
-39 -56 -57 -88 -89 -102 -103 -128 -129 -150 -151 -159 -160 -167 -168 -175 0
-39 -56 -57 -88 -89 -102 -103 -140 -141 -150 -151 -159 -160 -167 -168 -175 0
-38 -55 -56 -87 -88 -115 -116 -127 -128 -138 -139 -148 -149 -157 -158 -166 0
-39 -55 -57 -87 -88 -115 -116 -127 -128 -138 -139 -148 -149 -157 -158 -166 0
-39 -56 -57 -87 -89 -115 -116 -127 -128 -138 -139 -148 -149 -157 -158 -166 0
-39 -56 -57 -88 -89 -115 -117 -127 -128 -138 -139 -148 -149 -157 -158 -166 0
-39 -56 -57 -88 -89 -116 -117 -127 -129 -138 -139 -148 -149 -157 -158 -166 0
-39 -56 -57 -88 -89 -116 -117 -128 -129 -138 -140 -148 -149 -157 -158 -166 0
-39 -56 -57 -88 -89 -116 -117 -128 -129 -139 -140 -148 -150 -157 -158 -166 0
-39 -56 -57 -88 -89 -116 -117 -128 -129 -139 -140 -149 -150 -157 -159 -166 0
-39 -56 -57 -88 -89 -116 -117 -128 -129 -139 -140 -149 -150 -158 -159 -167 0
-39 -56 -57 -88 -89 -116 -117 -128 -129 -139 -140 -149 -150 -158 -159 -175 0
-39 -56 -57 -88 -89 -116 -117 -128 -129 -139 -140 -149 -150 -167 -168 -175 0
-39 -56 -57 -88 -89 -116 -117 -128 -129 -139 -140 -159 -160 -167 -168 -175 0
-39 -56 -57 -88 -89 -116 -117 -128 -129 -150 -151 -159 -160 -167 -168 -175 0
-39 -56 -57 -88 -89 -116 -117 -140 -141 -150 -151 -159 -160 -167 -168 -175 0
-39 -56 -57 -88 -89 -129 -130 -140 -141 -150 -151 -159 -160 -167 -168 -175 0
-38 -55 -56 -102 -103 -115 -116 -127 -128 -138 -139 -148 -149 -157 -158 -166 0
-39 -55 -57 -102 -103 -115 -116 -127 -128 -138 -139 -148 -149 -157 -158 -166 0
-39 -56 -57 -102 -104 -115 -116 -127 -128 -138 -139 -148 -149 -157 -158 -166 0
-39 -56 -57 -103 -104 -115 -117 -127 -128 -138 -139 -148 -149 -157 -158 -166 0
-39 -56 -57 -103 -104 -116 -117 -127 -129 -138 -139 -148 -149 -157 -158 -166 0
-39 -56 -57 -103 -104 -116 -117 -128 -129 -138 -140 -148 -149 -157 -158 -166 0
-39 -56 -57 -103 -104 -116 -117 -128 -129 -139 -140 -148 -150 -157 -158 -166 0
-39 -56 -57 -103 -104 -116 -117 -128 -129 -139 -140 -149 -150 -157 -159 -166 0
-39 -56 -57 -103 -104 -116 -117 -128 -129 -139 -140 -149 -150 -158 -159 -167 0
-39 -56 -57 -103 -104 -116 -117 -128 -129 -139 -140 -149 -150 -158 -159 -175 0
-39 -56 -57 -103 -104 -116 -117 -128 -129 -139 -140 -149 -150 -167 -168 -175 0
-39 -56 -57 -103 -104 -116 -117 -128 -129 -139 -140 -159 -160 -167 -168 -175 0
-39 -56 -57 -103 -104 -116 -117 -128 -129 -150 -151 -159 -160 -167 -168 -175 0
-39 -56 -57 -103 -104 -116 -117 -140 -141 -150 -151 -159 -160 -167 -168 -175 0
-39 -56 -57 -103 -104 -129 -130 -140 -141 -150 -151 -159 -160 -167 -168 -175 0
-39 -56 -57 -117 -118 -129 -130 -140 -141 -150 -151 -159 -160 -167 -168 -175 0
-37 -71 -72 -86 -87 -100 -101 -113 -114 -125 -126 -136 -137 -146 -147 -156 0
-38 -71 -73 -86 -87 -100 -101 -113 -114 -125 -126 -136 -137 -146 -147 -156 0
-39 -71 -74 -86 -87 -100 -101 -113 -114 -125 -126 -136 -137 -146 -147 -156 0
-38 -72 -73 -86 -88 -100 -101 -113 -114 -125 -126 -136 -137 -146 -147 -156 0
-39 -72 -74 -86 -88 -100 -101 -113 -114 -125 -126 -136 -137 -146 -147 -156 0
-39 -73 -74 -86 -89 -100 -101 -113 -114 -125 -126 -136 -137 -146 -147 -156 0
-38 -72 -73 -87 -88 -100 -102 -113 -114 -125 -126 -136 -137 -146 -147 -156 0
-39 -72 -74 -87 -88 -100 -102 -113 -114 -125 -126 -136 -137 -146 -147 -156 0
-39 -73 -74 -87 -89 -100 -102 -113 -114 -125 -126 -136 -137 -146 -147 -156 0
-39 -73 -74 -88 -89 -100 -103 -113 -114 -125 -126 -136 -137 -146 -147 -156 0
-38 -72 -73 -87 -88 -101 -102 -113 -115 -125 -126 -136 -137 -146 -147 -156 0
-39 -72 -74 -87 -88 -101 -102 -113 -115 -125 -126 -136 -137 -146 -147 -156 0
-39 -73 -74 -87 -89 -101 -102 -113 -115 -125 -126 -136 -137 -146 -147 -156 0
-39 -73 -74 -88 -89 -101 -103 -113 -115 -125 -126 -136 -137 -146 -147 -156 0
-39 -73 -74 -88 -89 -102 -103 -113 -116 -125 -126 -136 -137 -146 -147 -156 0
-38 -72 -73 -87 -88 -101 -102 -114 -115 -125 -127 -136 -137 -146 -147 -156 0
-39 -72 -74 -87 -88 -101 -102 -114 -115 -125 -127 -136 -137 -146 -147 -156 0
-39 -73 -74 -87 -89 -101 -102 -114 -115 -125 -127 -136 -137 -146 -147 -156 0
-39 -73 -74 -88 -89 -101 -103 -114 -115 -125 -127 -136 -137 -146 -147 -156 0
-39 -73 -74 -88 -89 -102 -103 -114 -116 -125 -127 -136 -137 -146 -147 -156 0
-39 -73 -74 -88 -89 -102 -103 -115 -116 -125 -128 -136 -137 -146 -147 -156 0
-38 -72 -73 -87 -88 -101 -102 -114 -115 -126 -127 -136 -138 -146 -147 -156 0
-39 -72 -74 -87 -88 -101 -102 -114 -115 -126 -127 -136 -138 -146 -147 -156 0
-39 -73 -74 -87 -89 -101 -102 -114 -115 -126 -127 -136 -138 -146 -147 -156 0
-39 -73 -74 -88 -89 -101 -103 -114 -115 -126 -127 -136 -138 -146 -147 -156 0
-39 -73 -74 -88 -89 -102 -103 -114 -116 -126 -127 -136 -138 -146 -147 -156 0
-39 -73 -74 -88 -89 -102 -103 -115 -116 -126 -128 -136 -138 -146 -147 -156 0
-39 -73 -74 -88 -89 -102 -103 -115 -116 -127 -128 -136 -139 -146 -147 -156 0
-38 -72 -73 -87 -88 -101 -102 -114 -115 -126 -127 -137 -138 -146 -148 -156 0
-39 -72 -74 -87 -88 -101 -102 -114 -115 -126 -127 -137 -138 -146 -148 -156 0
-39 -73 -74 -87 -89 -101 -102 -114 -115 -126 -127 -137 -138 -146 -148 -156 0
-39 -73 -74 -88 -89 -101 -103 -114 -115 -126 -127 -137 -138 -146 -148 -156 0
-39 -73 -74 -88 -89 -102 -103 -114 -116 -126 -127 -137 -138 -146 -148 -156 0
-39 -73 -74 -88 -89 -102 -103 -115 -116 -126 -128 -137 -138 -146 -148 -156 0
-39 -73 -74 -88 -89 -102 -103 -115 -116 -127 -128 -137 -139 -146 -148 -156 0
-39 -73 -74 -88 -89 -102 -103 -115 -116 -127 -128 -138 -139 -146 -149 -156 0
-38 -72 -73 -87 -88 -101 -102 -114 -115 -126 -127 -137 -138 -147 -148 -157 0
-39 -72 -74 -87 -88 -101 -102 -114 -115 -126 -127 -137 -138 -147 -148 -157 0
-39 -73 -74 -87 -89 -101 -102 -114 -115 -126 -127 -137 -138 -147 -148 -157 0
-39 -73 -74 -88 -89 -101 -103 -114 -115 -126 -127 -137 -138 -147 -148 -157 0
-39 -73 -74 -88 -89 -102 -103 -114 -116 -126 -127 -137 -138 -147 -148 -157 0
-39 -73 -74 -88 -89 -102 -103 -115 -116 -126 -128 -137 -138 -147 -148 -157 0
-39 -73 -74 -88 -89 -102 -103 -115 -116 -127 -128 -137 -139 -147 -148 -157 0
-39 -73 -74 -88 -89 -102 -103 -115 -116 -127 -128 -138 -139 -147 -149 -157 0
-39 -73 -74 -88 -89 -102 -103 -115 -116 -127 -128 -138 -139 -148 -149 -158 0
-38 -72 -73 -87 -88 -101 -102 -114 -115 -126 -127 -137 -138 -147 -148 -166 0
-39 -72 -74 -87 -88 -101 -102 -114 -115 -126 -127 -137 -138 -147 -148 -166 0
-39 -73 -74 -87 -89 -101 -102 -114 -115 -126 -127 -137 -138 -147 -148 -166 0
-39 -73 -74 -88 -89 -101 -103 -114 -115 -126 -127 -137 -138 -147 -148 -166 0
-39 -73 -74 -88 -89 -102 -103 -114 -116 -126 -127 -137 -138 -147 -148 -166 0
-39 -73 -74 -88 -89 -102 -103 -115 -116 -126 -128 -137 -138 -147 -148 -166 0
-39 -73 -74 -88 -89 -102 -103 -115 -116 -127 -128 -137 -139 -147 -148 -166 0
-39 -73 -74 -88 -89 -102 -103 -115 -116 -127 -128 -138 -139 -147 -149 -166 0
-39 -73 -74 -88 -89 -102 -103 -115 -116 -127 -128 -138 -139 -148 -149 -167 0
-39 -73 -74 -88 -89 -102 -103 -115 -116 -127 -128 -138 -139 -148 -149 -175 0
-38 -72 -73 -87 -88 -101 -102 -114 -115 -126 -127 -137 -138 -157 -158 -166 0
-39 -72 -74 -87 -88 -101 -102 -114 -115 -126 -127 -137 -138 -157 -158 -166 0
-39 -73 -74 -87 -89 -101 -102 -114 -115 -126 -127 -137 -138 -157 -158 -166 0
-39 -73 -74 -88 -89 -101 -103 -114 -115 -126 -127 -137 -138 -157 -158 -166 0
-39 -73 -74 -88 -89 -102 -103 -114 -116 -126 -127 -137 -138 -157 -158 -166 0
-39 -73 -74 -88 -89 -102 -103 -115 -116 -126 -128 -137 -138 -157 -158 -166 0
-39 -73 -74 -88 -89 -102 -103 -115 -116 -127 -128 -137 -139 -157 -158 -166 0
-39 -73 -74 -88 -89 -102 -103 -115 -116 -127 -128 -138 -139 -157 -159 -166 0
-39 -73 -74 -88 -89 -102 -103 -115 -116 -127 -128 -138 -139 -158 -159 -167 0
-39 -73 -74 -88 -89 -102 -103 -115 -116 -127 -128 -138 -139 -158 -159 -175 0
-39 -73 -74 -88 -89 -102 -103 -115 -116 -127 -128 -138 -139 -167 -168 -175 0
-38 -72 -73 -87 -88 -101 -102 -114 -115 -126 -127 -148 -149 -157 -158 -166 0
-39 -72 -74 -87 -88 -101 -102 -114 -115 -126 -127 -148 -149 -157 -158 -166 0
-39 -73 -74 -87 -89 -101 -102 -114 -115 -126 -127 -148 -149 -157 -158 -166 0
-39 -73 -74 -88 -89 -101 -103 -114 -115 -126 -127 -148 -149 -157 -158 -166 0
-39 -73 -74 -88 -89 -102 -103 -114 -116 -126 -127 -148 -149 -157 -158 -166 0
-39 -73 -74 -88 -89 -102 -103 -115 -116 -126 -128 -148 -149 -157 -158 -166 0
-39 -73 -74 -88 -89 -102 -103 -115 -116 -127 -128 -148 -150 -157 -158 -166 0
-39 -73 -74 -88 -89 -102 -103 -115 -116 -127 -128 -149 -150 -157 -159 -166 0
-39 -73 -74 -88 -89 -102 -103 -115 -116 -127 -128 -149 -150 -158 -159 -167 0
-39 -73 -74 -88 -89 -102 -103 -115 -116 -127 -128 -149 -150 -158 -159 -175 0
-39 -73 -74 -88 -89 -102 -103 -115 -116 -127 -128 -149 -150 -167 -168 -175 0
-39 -73 -74 -88 -89 -102 -103 -115 -116 -127 -128 -159 -160 -167 -168 -175 0
-38 -72 -73 -87 -88 -101 -102 -114 -115 -138 -139 -148 -149 -157 -158 -166 0
-39 -72 -74 -87 -88 -101 -102 -114 -115 -138 -139 -148 -149 -157 -158 -166 0
-39 -73 -74 -87 -89 -101 -102 -114 -115 -138 -139 -148 -149 -157 -158 -166 0
-39 -73 -74 -88 -89 -101 -103 -114 -115 -138 -139 -148 -149 -157 -158 -166 0
-39 -73 -74 -88 -89 -102 -103 -114 -116 -138 -139 -148 -149 -157 -158 -166 0
-39 -73 -74 -88 -89 -102 -103 -115 -116 -138 -140 -148 -149 -157 -158 -166 0
-39 -73 -74 -88 -89 -102 -103 -115 -116 -139 -140 -148 -150 -157 -158 -166 0
-39 -73 -74 -88 -89 -102 -103 -115 -116 -139 -140 -149 -150 -157 -159 -166 0
-39 -73 -74 -88 -89 -102 -103 -115 -116 -139 -140 -149 -150 -158 -159 -167 0
-39 -73 -74 -88 -89 -102 -103 -115 -116 -139 -140 -149 -150 -158 -159 -175 0
-39 -73 -74 -88 -89 -102 -103 -115 -116 -139 -140 -149 -150 -167 -168 -175 0
-39 -73 -74 -88 -89 -102 -103 -115 -116 -139 -140 -159 -160 -167 -168 -175 0
-39 -73 -74 -88 -89 -102 -103 -115 -116 -150 -151 -159 -160 -167 -168 -175 0
-38 -72 -73 -87 -88 -101 -102 -127 -128 -138 -139 -148 -149 -157 -158 -166 0
-39 -72 -74 -87 -88 -101 -102 -127 -128 -138 -139 -148 -149 -157 -158 -166 0
-39 -73 -74 -87 -89 -101 -102 -127 -128 -138 -139 -148 -149 -157 -158 -166 0
-39 -73 -74 -88 -89 -101 -103 -127 -128 -138 -139 -148 -149 -157 -158 -166 0
-39 -73 -74 -88 -89 -102 -103 -127 -129 -138 -139 -148 -149 -157 -158 -166 0
-39 -73 -74 -88 -89 -102 -103 -128 -129 -138 -140 -148 -149 -157 -158 -166 0
-39 -73 -74 -88 -89 -102 -103 -128 -129 -139 -140 -148 -150 -157 -158 -166 0
-39 -73 -74 -88 -89 -102 -103 -128 -129 -139 -140 -149 -150 -157 -159 -166 0
-39 -73 -74 -88 -89 -102 -103 -128 -129 -139 -140 -149 -150 -158 -159 -167 0
-39 -73 -74 -88 -89 -102 -103 -128 -129 -139 -140 -149 -150 -158 -159 -175 0
-39 -73 -74 -88 -89 -102 -103 -128 -129 -139 -140 -149 -150 -167 -168 -175 0
-39 -73 -74 -88 -89 -102 -103 -128 -129 -139 -140 -159 -160 -167 -168 -175 0
-39 -73 -74 -88 -89 -102 -103 -128 -129 -150 -151 -159 -160 -167 -168 -175 0
-39 -73 -74 -88 -89 -102 -103 -140 -141 -150 -151 -159 -160 -167 -168 -175 0
-38 -72 -73 -87 -88 -115 -116 -127 -128 -138 -139 -148 -149 -157 -158 -166 0
-39 -72 -74 -87 -88 -115 -116 -127 -128 -138 -139 -148 -149 -157 -158 -166 0
-39 -73 -74 -87 -89 -115 -116 -127 -128 -138 -139 -148 -149 -157 -158 -166 0
-39 -73 -74 -88 -89 -115 -117 -127 -128 -138 -139 -148 -149 -157 -158 -166 0
-39 -73 -74 -88 -89 -116 -117 -127 -129 -138 -139 -148 -149 -157 -158 -166 0
-39 -73 -74 -88 -89 -116 -117 -128 -129 -138 -140 -148 -149 -157 -158 -166 0
-39 -73 -74 -88 -89 -116 -117 -128 -129 -139 -140 -148 -150 -157 -158 -166 0
-39 -73 -74 -88 -89 -116 -117 -128 -129 -139 -140 -149 -150 -157 -159 -166 0
-39 -73 -74 -88 -89 -116 -117 -128 -129 -139 -140 -149 -150 -158 -159 -167 0
-39 -73 -74 -88 -89 -116 -117 -128 -129 -139 -140 -149 -150 -158 -159 -175 0
-39 -73 -74 -88 -89 -116 -117 -128 -129 -139 -140 -149 -150 -167 -168 -175 0
-39 -73 -74 -88 -89 -116 -117 -128 -129 -139 -140 -159 -160 -167 -168 -175 0
-39 -73 -74 -88 -89 -116 -117 -128 -129 -150 -151 -159 -160 -167 -168 -175 0
-39 -73 -74 -88 -89 -116 -117 -140 -141 -150 -151 -159 -160 -167 -168 -175 0
-39 -73 -74 -88 -89 -129 -130 -140 -141 -150 -151 -159 -160 -167 -168 -175 0
-38 -72 -73 -102 -103 -115 -116 -127 -128 -138 -139 -148 -149 -157 -158 -166 0
-39 -72 -74 -102 -103 -115 -116 -127 -128 -138 -139 -148 -149 -157 -158 -166 0
-39 -73 -74 -102 -104 -115 -116 -127 -128 -138 -139 -148 -149 -157 -158 -166 0
-39 -73 -74 -103 -104 -115 -117 -127 -128 -138 -139 -148 -149 -157 -158 -166 0
-39 -73 -74 -103 -104 -116 -117 -127 -129 -138 -139 -148 -149 -157 -158 -166 0
-39 -73 -74 -103 -104 -116 -117 -128 -129 -138 -140 -148 -149 -157 -158 -166 0
-39 -73 -74 -103 -104 -116 -117 -128 -129 -139 -140 -148 -150 -157 -158 -166 0
-39 -73 -74 -103 -104 -116 -117 -128 -129 -139 -140 -149 -150 -157 -159 -166 0
-39 -73 -74 -103 -104 -116 -117 -128 -129 -139 -140 -149 -150 -158 -159 -167 0
-39 -73 -74 -103 -104 -116 -117 -128 -129 -139 -140 -149 -150 -158 -159 -175 0
-39 -73 -74 -103 -104 -116 -117 -128 -129 -139 -140 -149 -150 -167 -168 -175 0
-39 -73 -74 -103 -104 -116 -117 -128 -129 -139 -140 -159 -160 -167 -168 -175 0
-39 -73 -74 -103 -104 -116 -117 -128 -129 -150 -151 -159 -160 -167 -168 -175 0
-39 -73 -74 -103 -104 -116 -117 -140 -141 -150 -151 -159 -160 -167 -168 -175 0
-39 -73 -74 -103 -104 -129 -130 -140 -141 -150 -151 -159 -160 -167 -168 -175 0
-39 -73 -74 -117 -118 -129 -130 -140 -141 -150 -151 -159 -160 -167 -168 -175 0
-38 -88 -89 -102 -103 -115 -116 -127 -128 -138 -139 -148 -149 -157 -158 -166 0
-39 -88 -90 -102 -103 -115 -116 -127 -128 -138 -139 -148 -149 -157 -158 -166 0
-39 -89 -90 -102 -104 -115 -116 -127 -128 -138 -139 -148 -149 -157 -158 -166 0
-39 -89 -90 -103 -104 -115 -117 -127 -128 -138 -139 -148 -149 -157 -158 -166 0
-39 -89 -90 -103 -104 -116 -117 -127 -129 -138 -139 -148 -149 -157 -158 -166 0
-39 -89 -90 -103 -104 -116 -117 -128 -129 -138 -140 -148 -149 -157 -158 -166 0
-39 -89 -90 -103 -104 -116 -117 -128 -129 -139 -140 -148 -150 -157 -158 -166 0
-39 -89 -90 -103 -104 -116 -117 -128 -129 -139 -140 -149 -150 -157 -159 -166 0
-39 -89 -90 -103 -104 -116 -117 -128 -129 -139 -140 -149 -150 -158 -159 -167 0
-39 -89 -90 -103 -104 -116 -117 -128 -129 -139 -140 -149 -150 -158 -159 -175 0
-39 -89 -90 -103 -104 -116 -117 -128 -129 -139 -140 -149 -150 -167 -168 -175 0
-39 -89 -90 -103 -104 -116 -117 -128 -129 -139 -140 -159 -160 -167 -168 -175 0
-39 -89 -90 -103 -104 -116 -117 -128 -129 -150 -151 -159 -160 -167 -168 -175 0
-39 -89 -90 -103 -104 -116 -117 -140 -141 -150 -151 -159 -160 -167 -168 -175 0
-39 -89 -90 -103 -104 -129 -130 -140 -141 -150 -151 -159 -160 -167 -168 -175 0
-39 -89 -90 -117 -118 -129 -130 -140 -141 -150 -151 -159 -160 -167 -168 -175 0
-39 -104 -105 -117 -118 -129 -130 -140 -141 -150 -151 -159 -160 -167 -168 -175 0
-55 -71 -72 -86 -87 -100 -101 -113 -114 -125 -126 -136 -137 -146 -147 -156 0
-56 -71 -73 -86 -87 -100 -101 -113 -114 -125 -126 -136 -137 -146 -147 -156 0
-57 -71 -74 -86 -87 -100 -101 -113 -114 -125 -126 -136 -137 -146 -147 -156 0
-56 -72 -73 -86 -88 -100 -101 -113 -114 -125 -126 -136 -137 -146 -147 -156 0
-57 -72 -74 -86 -88 -100 -101 -113 -114 -125 -126 -136 -137 -146 -147 -156 0
-57 -73 -74 -86 -89 -100 -101 -113 -114 -125 -126 -136 -137 -146 -147 -156 0
-56 -72 -73 -87 -88 -100 -102 -113 -114 -125 -126 -136 -137 -146 -147 -156 0
-57 -72 -74 -87 -88 -100 -102 -113 -114 -125 -126 -136 -137 -146 -147 -156 0
-57 -73 -74 -87 -89 -100 -102 -113 -114 -125 -126 -136 -137 -146 -147 -156 0
-57 -73 -74 -88 -89 -100 -103 -113 -114 -125 -126 -136 -137 -146 -147 -156 0
-56 -72 -73 -87 -88 -101 -102 -113 -115 -125 -126 -136 -137 -146 -147 -156 0
-57 -72 -74 -87 -88 -101 -102 -113 -115 -125 -126 -136 -137 -146 -147 -156 0
-57 -73 -74 -87 -89 -101 -102 -113 -115 -125 -126 -136 -137 -146 -147 -156 0
-57 -73 -74 -88 -89 -101 -103 -113 -115 -125 -126 -136 -137 -146 -147 -156 0
-57 -73 -74 -88 -89 -102 -103 -113 -116 -125 -126 -136 -137 -146 -147 -156 0
-56 -72 -73 -87 -88 -101 -102 -114 -115 -125 -127 -136 -137 -146 -147 -156 0
-57 -72 -74 -87 -88 -101 -102 -114 -115 -125 -127 -136 -137 -146 -147 -156 0
-57 -73 -74 -87 -89 -101 -102 -114 -115 -125 -127 -136 -137 -146 -147 -156 0
-57 -73 -74 -88 -89 -101 -103 -114 -115 -125 -127 -136 -137 -146 -147 -156 0
-57 -73 -74 -88 -89 -102 -103 -114 -116 -125 -127 -136 -137 -146 -147 -156 0
-57 -73 -74 -88 -89 -102 -103 -115 -116 -125 -128 -136 -137 -146 -147 -156 0
-56 -72 -73 -87 -88 -101 -102 -114 -115 -126 -127 -136 -138 -146 -147 -156 0
-57 -72 -74 -87 -88 -101 -102 -114 -115 -126 -127 -136 -138 -146 -147 -156 0
-57 -73 -74 -87 -89 -101 -102 -114 -115 -126 -127 -136 -138 -146 -147 -156 0
-57 -73 -74 -88 -89 -101 -103 -114 -115 -126 -127 -136 -138 -146 -147 -156 0
-57 -73 -74 -88 -89 -102 -103 -114 -116 -126 -127 -136 -138 -146 -147 -156 0
-57 -73 -74 -88 -89 -102 -103 -115 -116 -126 -128 -136 -138 -146 -147 -156 0
-57 -73 -74 -88 -89 -102 -103 -115 -116 -127 -128 -136 -139 -146 -147 -156 0
-56 -72 -73 -87 -88 -101 -102 -114 -115 -126 -127 -137 -138 -146 -148 -156 0
-57 -72 -74 -87 -88 -101 -102 -114 -115 -126 -127 -137 -138 -146 -148 -156 0
-57 -73 -74 -87 -89 -101 -102 -114 -115 -126 -127 -137 -138 -146 -148 -156 0
-57 -73 -74 -88 -89 -101 -103 -114 -115 -126 -127 -137 -138 -146 -148 -156 0
-57 -73 -74 -88 -89 -102 -103 -114 -116 -126 -127 -137 -138 -146 -148 -156 0
-57 -73 -74 -88 -89 -102 -103 -115 -116 -126 -128 -137 -138 -146 -148 -156 0
-57 -73 -74 -88 -89 -102 -103 -115 -116 -127 -128 -137 -139 -146 -148 -156 0
-57 -73 -74 -88 -89 -102 -103 -115 -116 -127 -128 -138 -139 -146 -149 -156 0
-56 -72 -73 -87 -88 -101 -102 -114 -115 -126 -127 -137 -138 -147 -148 -157 0
-57 -72 -74 -87 -88 -101 -102 -114 -115 -126 -127 -137 -138 -147 -148 -157 0
-57 -73 -74 -87 -89 -101 -102 -114 -115 -126 -127 -137 -138 -147 -148 -157 0
-57 -73 -74 -88 -89 -101 -103 -114 -115 -126 -127 -137 -138 -147 -148 -157 0
-57 -73 -74 -88 -89 -102 -103 -114 -116 -126 -127 -137 -138 -147 -148 -157 0
-57 -73 -74 -88 -89 -102 -103 -115 -116 -126 -128 -137 -138 -147 -148 -157 0
-57 -73 -74 -88 -89 -102 -103 -115 -116 -127 -128 -137 -139 -147 -148 -157 0
-57 -73 -74 -88 -89 -102 -103 -115 -116 -127 -128 -138 -139 -147 -149 -157 0
-57 -73 -74 -88 -89 -102 -103 -115 -116 -127 -128 -138 -139 -148 -149 -158 0
-56 -72 -73 -87 -88 -101 -102 -114 -115 -126 -127 -137 -138 -147 -148 -166 0
-57 -72 -74 -87 -88 -101 -102 -114 -115 -126 -127 -137 -138 -147 -148 -166 0
-57 -73 -74 -87 -89 -101 -102 -114 -115 -126 -127 -137 -138 -147 -148 -166 0
-57 -73 -74 -88 -89 -101 -103 -114 -115 -126 -127 -137 -138 -147 -148 -166 0
-57 -73 -74 -88 -89 -102 -103 -114 -116 -126 -127 -137 -138 -147 -148 -166 0
-57 -73 -74 -88 -89 -102 -103 -115 -116 -126 -128 -137 -138 -147 -148 -166 0
-57 -73 -74 -88 -89 -102 -103 -115 -116 -127 -128 -137 -139 -147 -148 -166 0
-57 -73 -74 -88 -89 -102 -103 -115 -116 -127 -128 -138 -139 -147 -149 -166 0
-57 -73 -74 -88 -89 -102 -103 -115 -116 -127 -128 -138 -139 -148 -149 -167 0
-57 -73 -74 -88 -89 -102 -103 -115 -116 -127 -128 -138 -139 -148 -149 -175 0
-56 -72 -73 -87 -88 -101 -102 -114 -115 -126 -127 -137 -138 -157 -158 -166 0
-57 -72 -74 -87 -88 -101 -102 -114 -115 -126 -127 -137 -138 -157 -158 -166 0
-57 -73 -74 -87 -89 -101 -102 -114 -115 -126 -127 -137 -138 -157 -158 -166 0
-57 -73 -74 -88 -89 -101 -103 -114 -115 -126 -127 -137 -138 -157 -158 -166 0
-57 -73 -74 -88 -89 -102 -103 -114 -116 -126 -127 -137 -138 -157 -158 -166 0
-57 -73 -74 -88 -89 -102 -103 -115 -116 -126 -128 -137 -138 -157 -158 -166 0
-57 -73 -74 -88 -89 -102 -103 -115 -116 -127 -128 -137 -139 -157 -158 -166 0
-57 -73 -74 -88 -89 -102 -103 -115 -116 -127 -128 -138 -139 -157 -159 -166 0
-57 -73 -74 -88 -89 -102 -103 -115 -116 -127 -128 -138 -139 -158 -159 -167 0
-57 -73 -74 -88 -89 -102 -103 -115 -116 -127 -128 -138 -139 -158 -159 -175 0
-57 -73 -74 -88 -89 -102 -103 -115 -116 -127 -128 -138 -139 -167 -168 -175 0
-56 -72 -73 -87 -88 -101 -102 -114 -115 -126 -127 -148 -149 -157 -158 -166 0
-57 -72 -74 -87 -88 -101 -102 -114 -115 -126 -127 -148 -149 -157 -158 -166 0
-57 -73 -74 -87 -89 -101 -102 -114 -115 -126 -127 -148 -149 -157 -158 -166 0
-57 -73 -74 -88 -89 -101 -103 -114 -115 -126 -127 -148 -149 -157 -158 -166 0
-57 -73 -74 -88 -89 -102 -103 -114 -116 -126 -127 -148 -149 -157 -158 -166 0
-57 -73 -74 -88 -89 -102 -103 -115 -116 -126 -128 -148 -149 -157 -158 -166 0
-57 -73 -74 -88 -89 -102 -103 -115 -116 -127 -128 -148 -150 -157 -158 -166 0
-57 -73 -74 -88 -89 -102 -103 -115 -116 -127 -128 -149 -150 -157 -159 -166 0
-57 -73 -74 -88 -89 -102 -103 -115 -116 -127 -128 -149 -150 -158 -159 -167 0
-57 -73 -74 -88 -89 -102 -103 -115 -116 -127 -128 -149 -150 -158 -159 -175 0
-57 -73 -74 -88 -89 -102 -103 -115 -116 -127 -128 -149 -150 -167 -168 -175 0
-57 -73 -74 -88 -89 -102 -103 -115 -116 -127 -128 -159 -160 -167 -168 -175 0
-56 -72 -73 -87 -88 -101 -102 -114 -115 -138 -139 -148 -149 -157 -158 -166 0
-57 -72 -74 -87 -88 -101 -102 -114 -115 -138 -139 -148 -149 -157 -158 -166 0
-57 -73 -74 -87 -89 -101 -102 -114 -115 -138 -139 -148 -149 -157 -158 -166 0
-57 -73 -74 -88 -89 -101 -103 -114 -115 -138 -139 -148 -149 -157 -158 -166 0
-57 -73 -74 -88 -89 -102 -103 -114 -116 -138 -139 -148 -149 -157 -158 -166 0
-57 -73 -74 -88 -89 -102 -103 -115 -116 -138 -140 -148 -149 -157 -158 -166 0
-57 -73 -74 -88 -89 -102 -103 -115 -116 -139 -140 -148 -150 -157 -158 -166 0
-57 -73 -74 -88 -89 -102 -103 -115 -116 -139 -140 -149 -150 -157 -159 -166 0
-57 -73 -74 -88 -89 -102 -103 -115 -116 -139 -140 -149 -150 -158 -159 -167 0
-57 -73 -74 -88 -89 -102 -103 -115 -116 -139 -140 -149 -150 -158 -159 -175 0
-57 -73 -74 -88 -89 -102 -103 -115 -116 -139 -140 -149 -150 -167 -168 -175 0
-57 -73 -74 -88 -89 -102 -103 -115 -116 -139 -140 -159 -160 -167 -168 -175 0
-57 -73 -74 -88 -89 -102 -103 -115 -116 -150 -151 -159 -160 -167 -168 -175 0
-56 -72 -73 -87 -88 -101 -102 -127 -128 -138 -139 -148 -149 -157 -158 -166 0
-57 -72 -74 -87 -88 -101 -102 -127 -128 -138 -139 -148 -149 -157 -158 -166 0
-57 -73 -74 -87 -89 -101 -102 -127 -128 -138 -139 -148 -149 -157 -158 -166 0
-57 -73 -74 -88 -89 -101 -103 -127 -128 -138 -139 -148 -149 -157 -158 -166 0
-57 -73 -74 -88 -89 -102 -103 -127 -129 -138 -139 -148 -149 -157 -158 -166 0
-57 -73 -74 -88 -89 -102 -103 -128 -129 -138 -140 -148 -149 -157 -158 -166 0
-57 -73 -74 -88 -89 -102 -103 -128 -129 -139 -140 -148 -150 -157 -158 -166 0
-57 -73 -74 -88 -89 -102 -103 -128 -129 -139 -140 -149 -150 -157 -159 -166 0
-57 -73 -74 -88 -89 -102 -103 -128 -129 -139 -140 -149 -150 -158 -159 -167 0
-57 -73 -74 -88 -89 -102 -103 -128 -129 -139 -140 -149 -150 -158 -159 -175 0
-57 -73 -74 -88 -89 -102 -103 -128 -129 -139 -140 -149 -150 -167 -168 -175 0
-57 -73 -74 -88 -89 -102 -103 -128 -129 -139 -140 -159 -160 -167 -168 -175 0
-57 -73 -74 -88 -89 -102 -103 -128 -129 -150 -151 -159 -160 -167 -168 -175 0
-57 -73 -74 -88 -89 -102 -103 -140 -141 -150 -151 -159 -160 -167 -168 -175 0
-56 -72 -73 -87 -88 -115 -116 -127 -128 -138 -139 -148 -149 -157 -158 -166 0
-57 -72 -74 -87 -88 -115 -116 -127 -128 -138 -139 -148 -149 -157 -158 -166 0
-57 -73 -74 -87 -89 -115 -116 -127 -128 -138 -139 -148 -149 -157 -158 -166 0
-57 -73 -74 -88 -89 -115 -117 -127 -128 -138 -139 -148 -149 -157 -158 -166 0
-57 -73 -74 -88 -89 -116 -117 -127 -129 -138 -139 -148 -149 -157 -158 -166 0
-57 -73 -74 -88 -89 -116 -117 -128 -129 -138 -140 -148 -149 -157 -158 -166 0
-57 -73 -74 -88 -89 -116 -117 -128 -129 -139 -140 -148 -150 -157 -158 -166 0
-57 -73 -74 -88 -89 -116 -117 -128 -129 -139 -140 -149 -150 -157 -159 -166 0
-57 -73 -74 -88 -89 -116 -117 -128 -129 -139 -140 -149 -150 -158 -159 -167 0
-57 -73 -74 -88 -89 -116 -117 -128 -129 -139 -140 -149 -150 -158 -159 -175 0
-57 -73 -74 -88 -89 -116 -117 -128 -129 -139 -140 -149 -150 -167 -168 -175 0
-57 -73 -74 -88 -89 -116 -117 -128 -129 -139 -140 -159 -160 -167 -168 -175 0
-57 -73 -74 -88 -89 -116 -117 -128 -129 -150 -151 -159 -160 -167 -168 -175 0
-57 -73 -74 -88 -89 -116 -117 -140 -141 -150 -151 -159 -160 -167 -168 -175 0
-57 -73 -74 -88 -89 -129 -130 -140 -141 -150 -151 -159 -160 -167 -168 -175 0
-56 -72 -73 -102 -103 -115 -116 -127 -128 -138 -139 -148 -149 -157 -158 -166 0
-57 -72 -74 -102 -103 -115 -116 -127 -128 -138 -139 -148 -149 -157 -158 -166 0
-57 -73 -74 -102 -104 -115 -116 -127 -128 -138 -139 -148 -149 -157 -158 -166 0
-57 -73 -74 -103 -104 -115 -117 -127 -128 -138 -139 -148 -149 -157 -158 -166 0
-57 -73 -74 -103 -104 -116 -117 -127 -129 -138 -139 -148 -149 -157 -158 -166 0
-57 -73 -74 -103 -104 -116 -117 -128 -129 -138 -140 -148 -149 -157 -158 -166 0
-57 -73 -74 -103 -104 -116 -117 -128 -129 -139 -140 -148 -150 -157 -158 -166 0
-57 -73 -74 -103 -104 -116 -117 -128 -129 -139 -140 -149 -150 -157 -159 -166 0
-57 -73 -74 -103 -104 -116 -117 -128 -129 -139 -140 -149 -150 -158 -159 -167 0
-57 -73 -74 -103 -104 -116 -117 -128 -129 -139 -140 -149 -150 -158 -159 -175 0
-57 -73 -74 -103 -104 -116 -117 -128 -129 -139 -140 -149 -150 -167 -168 -175 0
-57 -73 -74 -103 -104 -116 -117 -128 -129 -139 -140 -159 -160 -167 -168 -175 0
-57 -73 -74 -103 -104 -116 -117 -128 -129 -150 -151 -159 -160 -167 -168 -175 0
-57 -73 -74 -103 -104 -116 -117 -140 -141 -150 -151 -159 -160 -167 -168 -175 0
-57 -73 -74 -103 -104 -129 -130 -140 -141 -150 -151 -159 -160 -167 -168 -175 0
-57 -73 -74 -117 -118 -129 -130 -140 -141 -150 -151 -159 -160 -167 -168 -175 0
-56 -88 -89 -102 -103 -115 -116 -127 -128 -138 -139 -148 -149 -157 -158 -166 0
-57 -88 -90 -102 -103 -115 -116 -127 -128 -138 -139 -148 -149 -157 -158 -166 0
-57 -89 -90 -102 -104 -115 -116 -127 -128 -138 -139 -148 -149 -157 -158 -166 0
-57 -89 -90 -103 -104 -115 -117 -127 -128 -138 -139 -148 -149 -157 -158 -166 0
-57 -89 -90 -103 -104 -116 -117 -127 -129 -138 -139 -148 -149 -157 -158 -166 0
-57 -89 -90 -103 -104 -116 -117 -128 -129 -138 -140 -148 -149 -157 -158 -166 0
-57 -89 -90 -103 -104 -116 -117 -128 -129 -139 -140 -148 -150 -157 -158 -166 0
-57 -89 -90 -103 -104 -116 -117 -128 -129 -139 -140 -149 -150 -157 -159 -166 0
-57 -89 -90 -103 -104 -116 -117 -128 -129 -139 -140 -149 -150 -158 -159 -167 0
-57 -89 -90 -103 -104 -116 -117 -128 -129 -139 -140 -149 -150 -158 -159 -175 0
-57 -89 -90 -103 -104 -116 -117 -128 -129 -139 -140 -149 -150 -167 -168 -175 0
-57 -89 -90 -103 -104 -116 -117 -128 -129 -139 -140 -159 -160 -167 -168 -175 0
-57 -89 -90 -103 -104 -116 -117 -128 -129 -150 -151 -159 -160 -167 -168 -175 0
-57 -89 -90 -103 -104 -116 -117 -140 -141 -150 -151 -159 -160 -167 -168 -175 0
-57 -89 -90 -103 -104 -129 -130 -140 -141 -150 -151 -159 -160 -167 -168 -175 0
-57 -89 -90 -117 -118 -129 -130 -140 -141 -150 -151 -159 -160 -167 -168 -175 0
-57 -104 -105 -117 -118 -129 -130 -140 -141 -150 -151 -159 -160 -167 -168 -175 0
-73 -88 -89 -102 -103 -115 -116 -127 -128 -138 -139 -148 -149 -157 -158 -166 0
-74 -88 -90 -102 -103 -115 -116 -127 -128 -138 -139 -148 -149 -157 -158 -166 0
-74 -89 -90 -102 -104 -115 -116 -127 -128 -138 -139 -148 -149 -157 -158 -166 0
-74 -89 -90 -103 -104 -115 -117 -127 -128 -138 -139 -148 -149 -157 -158 -166 0
-74 -89 -90 -103 -104 -116 -117 -127 -129 -138 -139 -148 -149 -157 -158 -166 0
-74 -89 -90 -103 -104 -116 -117 -128 -129 -138 -140 -148 -149 -157 -158 -166 0
-74 -89 -90 -103 -104 -116 -117 -128 -129 -139 -140 -148 -150 -157 -158 -166 0
-74 -89 -90 -103 -104 -116 -117 -128 -129 -139 -140 -149 -150 -157 -159 -166 0
-74 -89 -90 -103 -104 -116 -117 -128 -129 -139 -140 -149 -150 -158 -159 -167 0
-74 -89 -90 -103 -104 -116 -117 -128 -129 -139 -140 -149 -150 -158 -159 -175 0
-74 -89 -90 -103 -104 -116 -117 -128 -129 -139 -140 -149 -150 -167 -168 -175 0
-74 -89 -90 -103 -104 -116 -117 -128 -129 -139 -140 -159 -160 -167 -168 -175 0
-74 -89 -90 -103 -104 -116 -117 -128 -129 -150 -151 -159 -160 -167 -168 -175 0
-74 -89 -90 -103 -104 -116 -117 -140 -141 -150 -151 -159 -160 -167 -168 -175 0
-74 -89 -90 -103 -104 -129 -130 -140 -141 -150 -151 -159 -160 -167 -168 -175 0
-74 -89 -90 -117 -118 -129 -130 -140 -141 -150 -151 -159 -160 -167 -168 -175 0
-74 -104 -105 -117 -118 -129 -130 -140 -141 -150 -151 -159 -160 -167 -168 -175 0
-90 -104 -105 -117 -118 -129 -130 -140 -141 -150 -151 -159 -160 -167 -168 -175 0
