c Ordered Ramsey CNF instance
c n = 18, N = 22
c Positive literal = blue edge
c Negative literal = red edge
p cnf 231 8855
1 2 0
1 3 0
1 4 0
1 5 0
1 6 0
1 7 0
1 8 0
1 9 0
1 10 0
1 11 0
1 12 0
1 13 0
1 14 0
1 15 0
1 16 0
1 17 0
1 18 0
1 19 0
1 20 0
1 21 0
2 3 0
2 4 0
2 5 0
2 6 0
2 7 0
2 8 0
2 9 0
2 10 0
2 11 0
2 12 0
2 13 0
2 14 0
2 15 0
2 16 0
2 17 0
2 18 0
2 19 0
2 20 0
2 21 0
3 4 0
3 5 0
3 6 0
3 7 0
3 8 0
3 9 0
3 10 0
3 11 0
3 12 0
3 13 0
3 14 0
3 15 0
3 16 0
3 17 0
3 18 0
3 19 0
3 20 0
3 21 0
4 5 0
4 6 0
4 7 0
4 8 0
4 9 0
4 10 0
4 11 0
4 12 0
4 13 0
4 14 0
4 15 0
4 16 0
4 17 0
4 18 0
4 19 0
4 20 0
4 21 0
5 6 0
5 7 0
5 8 0
5 9 0
5 10 0
5 11 0
5 12 0
5 13 0
5 14 0
5 15 0
5 16 0
5 17 0
5 18 0
5 19 0
5 20 0
5 21 0
6 7 0
6 8 0
6 9 0
6 10 0
6 11 0
6 12 0
6 13 0
6 14 0
6 15 0
6 16 0
6 17 0
6 18 0
6 19 0
6 20 0
6 21 0
7 8 0
7 9 0
7 10 0
7 11 0
7 12 0
7 13 0
7 14 0
7 15 0
7 16 0
7 17 0
7 18 0
7 19 0
7 20 0
7 21 0
8 9 0
8 10 0
8 11 0
8 12 0
8 13 0
8 14 0
8 15 0
8 16 0
8 17 0
8 18 0
8 19 0
8 20 0
8 21 0
9 10 0
9 11 0
9 12 0
9 13 0
9 14 0
9 15 0
9 16 0
9 17 0
9 18 0
9 19 0
9 20 0
9 21 0
10 11 0
10 12 0
10 13 0
10 14 0
10 15 0
10 16 0
10 17 0
10 18 0
10 19 0
10 20 0
10 21 0
11 12 0
11 13 0
11 14 0
11 15 0
11 16 0
11 17 0
11 18 0
11 19 0
11 20 0
11 21 0
12 13 0
12 14 0
12 15 0
12 16 0
12 17 0
12 18 0
12 19 0
12 20 0
12 21 0
13 14 0
13 15 0
13 16 0
13 17 0
13 18 0
13 19 0
13 20 0
13 21 0
14 15 0
14 16 0
14 17 0
14 18 0
14 19 0
14 20 0
14 21 0
15 16 0
15 17 0
15 18 0
15 19 0
15 20 0
15 21 0
16 17 0
16 18 0
16 19 0
16 20 0
16 21 0
17 18 0
17 19 0
17 20 0
17 21 0
18 19 0
18 20 0
18 21 0
19 20 0
19 21 0
20 21 0
22 23 0
22 24 0
22 25 0
22 26 0
22 27 0
22 28 0
22 29 0
22 30 0
22 31 0
22 32 0
22 33 0
22 34 0
22 35 0
22 36 0
22 37 0
22 38 0
22 39 0
22 40 0
22 41 0
23 24 0
23 25 0
23 26 0
23 27 0
23 28 0
23 29 0
23 30 0
23 31 0
23 32 0
23 33 0
23 34 0
23 35 0
23 36 0
23 37 0
23 38 0
23 39 0
23 40 0
23 41 0
24 25 0
24 26 0
24 27 0
24 28 0
24 29 0
24 30 0
24 31 0
24 32 0
24 33 0
24 34 0
24 35 0
24 36 0
24 37 0
24 38 0
24 39 0
24 40 0
24 41 0
25 26 0
25 27 0
25 28 0
25 29 0
25 30 0
25 31 0
25 32 0
25 33 0
25 34 0
25 35 0
25 36 0
25 37 0
25 38 0
25 39 0
25 40 0
25 41 0
26 27 0
26 28 0
26 29 0
26 30 0
26 31 0
26 32 0
26 33 0
26 34 0
26 35 0
26 36 0
26 37 0
26 38 0
26 39 0
26 40 0
26 41 0
27 28 0
27 29 0
27 30 0
27 31 0
27 32 0
27 33 0
27 34 0
27 35 0
27 36 0
27 37 0
27 38 0
27 39 0
27 40 0
27 41 0
28 29 0
28 30 0
28 31 0
28 32 0
28 33 0
28 34 0
28 35 0
28 36 0
28 37 0
28 38 0
28 39 0
28 40 0
28 41 0
29 30 0
29 31 0
29 32 0
29 33 0
29 34 0
29 35 0
29 36 0
29 37 0
29 38 0
29 39 0
29 40 0
29 41 0
30 31 0
30 32 0
30 33 0
30 34 0
30 35 0
30 36 0
30 37 0
30 38 0
30 39 0
30 40 0
30 41 0
31 32 0
31 33 0
31 34 0
31 35 0
31 36 0
31 37 0
31 38 0
31 39 0
31 40 0
31 41 0
32 33 0
32 34 0
32 35 0
32 36 0
32 37 0
32 38 0
32 39 0
32 40 0
32 41 0
33 34 0
33 35 0
33 36 0
33 37 0
33 38 0
33 39 0
33 40 0
33 41 0
34 35 0
34 36 0
34 37 0
34 38 0
34 39 0
34 40 0
34 41 0
35 36 0
35 37 0
35 38 0
35 39 0
35 40 0
35 41 0
36 37 0
36 38 0
36 39 0
36 40 0
36 41 0
37 38 0
37 39 0
37 40 0
37 41 0
38 39 0
38 40 0
38 41 0
39 40 0
39 41 0
40 41 0
42 43 0
42 44 0
42 45 0
42 46 0
42 47 0
42 48 0
42 49 0
42 50 0
42 51 0
42 52 0
42 53 0
42 54 0
42 55 0
42 56 0
42 57 0
42 58 0
42 59 0
42 60 0
43 44 0
43 45 0
43 46 0
43 47 0
43 48 0
43 49 0
43 50 0
43 51 0
43 52 0
43 53 0
43 54 0
43 55 0
43 56 0
43 57 0
43 58 0
43 59 0
43 60 0
44 45 0
44 46 0
44 47 0
44 48 0
44 49 0
44 50 0
44 51 0
44 52 0
44 53 0
44 54 0
44 55 0
44 56 0
44 57 0
44 58 0
44 59 0
44 60 0
45 46 0
45 47 0
45 48 0
45 49 0
45 50 0
45 51 0
45 52 0
45 53 0
45 54 0
45 55 0
45 56 0
45 57 0
45 58 0
45 59 0
45 60 0
46 47 0
46 48 0
46 49 0
46 50 0
46 51 0
46 52 0
46 53 0
46 54 0
46 55 0
46 56 0
46 57 0
46 58 0
46 59 0
46 60 0
47 48 0
47 49 0
47 50 0
47 51 0
47 52 0
47 53 0
47 54 0
47 55 0
47 56 0
47 57 0
47 58 0
47 59 0
47 60 0
48 49 0
48 50 0
48 51 0
48 52 0
48 53 0
48 54 0
48 55 0
48 56 0
48 57 0
48 58 0
48 59 0
48 60 0
49 50 0
49 51 0
49 52 0
49 53 0
49 54 0
49 55 0
49 56 0
49 57 0
49 58 0
49 59 0
49 60 0
50 51 0
50 52 0
50 53 0
50 54 0
50 55 0
50 56 0
50 57 0
50 58 0
50 59 0
50 60 0
51 52 0
51 53 0
51 54 0
51 55 0
51 56 0
51 57 0
51 58 0
51 59 0
51 60 0
52 53 0
52 54 0
52 55 0
52 56 0
52 57 0
52 58 0
52 59 0
52 60 0
53 54 0
53 55 0
53 56 0
53 57 0
53 58 0
53 59 0
53 60 0
54 55 0
54 56 0
54 57 0
54 58 0
54 59 0
54 60 0
55 56 0
55 57 0
55 58 0
55 59 0
55 60 0
56 57 0
56 58 0
56 59 0
56 60 0
57 58 0
57 59 0
57 60 0
58 59 0
58 60 0
59 60 0
61 62 0
61 63 0
61 64 0
61 65 0
61 66 0
61 67 0
61 68 0
61 69 0
61 70 0
61 71 0
61 72 0
61 73 0
61 74 0
61 75 0
61 76 0
61 77 0
61 78 0
62 63 0
62 64 0
62 65 0
62 66 0
62 67 0
62 68 0
62 69 0
62 70 0
62 71 0
62 72 0
62 73 0
62 74 0
62 75 0
62 76 0
62 77 0
62 78 0
63 64 0
63 65 0
63 66 0
63 67 0
63 68 0
63 69 0
63 70 0
63 71 0
63 72 0
63 73 0
63 74 0
63 75 0
63 76 0
63 77 0
63 78 0
64 65 0
64 66 0
64 67 0
64 68 0
64 69 0
64 70 0
64 71 0
64 72 0
64 73 0
64 74 0
64 75 0
64 76 0
64 77 0
64 78 0
65 66 0
65 67 0
65 68 0
65 69 0
65 70 0
65 71 0
65 72 0
65 73 0
65 74 0
65 75 0
65 76 0
65 77 0
65 78 0
66 67 0
66 68 0
66 69 0
66 70 0
66 71 0
66 72 0
66 73 0
66 74 0
66 75 0
66 76 0
66 77 0
66 78 0
67 68 0
67 69 0
67 70 0
67 71 0
67 72 0
67 73 0
67 74 0
67 75 0
67 76 0
67 77 0
67 78 0
68 69 0
68 70 0
68 71 0
68 72 0
68 73 0
68 74 0
68 75 0
68 76 0
68 77 0
68 78 0
69 70 0
69 71 0
69 72 0
69 73 0
69 74 0
69 75 0
69 76 0
69 77 0
69 78 0
70 71 0
70 72 0
70 73 0
70 74 0
70 75 0
70 76 0
70 77 0
70 78 0
71 72 0
71 73 0
71 74 0
71 75 0
71 76 0
71 77 0
71 78 0
72 73 0
72 74 0
72 75 0
72 76 0
72 77 0
72 78 0
73 74 0
73 75 0
73 76 0
73 77 0
73 78 0
74 75 0
74 76 0
74 77 0
74 78 0
75 76 0
75 77 0
75 78 0
76 77 0
76 78 0
77 78 0
79 80 0
79 81 0
79 82 0
79 83 0
79 84 0
79 85 0
79 86 0
79 87 0
79 88 0
79 89 0
79 90 0
79 91 0
79 92 0
79 93 0
79 94 0
79 95 0
80 81 0
80 82 0
80 83 0
80 84 0
80 85 0
80 86 0
80 87 0
80 88 0
80 89 0
80 90 0
80 91 0
80 92 0
80 93 0
80 94 0
80 95 0
81 82 0
81 83 0
81 84 0
81 85 0
81 86 0
81 87 0
81 88 0
81 89 0
81 90 0
81 91 0
81 92 0
81 93 0
81 94 0
81 95 0
82 83 0
82 84 0
82 85 0
82 86 0
82 87 0
82 88 0
82 89 0
82 90 0
82 91 0
82 92 0
82 93 0
82 94 0
82 95 0
83 84 0
83 85 0
83 86 0
83 87 0
83 88 0
83 89 0
83 90 0
83 91 0
83 92 0
83 93 0
83 94 0
83 95 0
84 85 0
84 86 0
84 87 0
84 88 0
84 89 0
84 90 0
84 91 0
84 92 0
84 93 0
84 94 0
84 95 0
85 86 0
85 87 0
85 88 0
85 89 0
85 90 0
85 91 0
85 92 0
85 93 0
85 94 0
85 95 0
86 87 0
86 88 0
86 89 0
86 90 0
86 91 0
86 92 0
86 93 0
86 94 0
86 95 0
87 88 0
87 89 0
87 90 0
87 91 0
87 92 0
87 93 0
87 94 0
87 95 0
88 89 0
88 90 0
88 91 0
88 92 0
88 93 0
88 94 0
88 95 0
89 90 0
89 91 0
89 92 0
89 93 0
89 94 0
89 95 0
90 91 0
90 92 0
90 93 0
90 94 0
90 95 0
91 92 0
91 93 0
91 94 0
91 95 0
92 93 0
92 94 0
92 95 0
93 94 0
93 95 0
94 95 0
96 97 0
96 98 0
96 99 0
96 100 0
96 101 0
96 102 0
96 103 0
96 104 0
96 105 0
96 106 0
96 107 0
96 108 0
96 109 0
96 110 0
96 111 0
97 98 0
97 99 0
97 100 0
97 101 0
97 102 0
97 103 0
97 104 0
97 105 0
97 106 0
97 107 0
97 108 0
97 109 0
97 110 0
97 111 0
98 99 0
98 100 0
98 101 0
98 102 0
98 103 0
98 104 0
98 105 0
98 106 0
98 107 0
98 108 0
98 109 0
98 110 0
98 111 0
99 100 0
99 101 0
99 102 0
99 103 0
99 104 0
99 105 0
99 106 0
99 107 0
99 108 0
99 109 0
99 110 0
99 111 0
100 101 0
100 102 0
100 103 0
100 104 0
100 105 0
100 106 0
100 107 0
100 108 0
100 109 0
100 110 0
100 111 0
101 102 0
101 103 0
101 104 0
101 105 0
101 106 0
101 107 0
101 108 0
101 109 0
101 110 0
101 111 0
102 103 0
102 104 0
102 105 0
102 106 0
102 107 0
102 108 0
102 109 0
102 110 0
102 111 0
103 104 0
103 105 0
103 106 0
103 107 0
103 108 0
103 109 0
103 110 0
103 111 0
104 105 0
104 106 0
104 107 0
104 108 0
104 109 0
104 110 0
104 111 0
105 106 0
105 107 0
105 108 0
105 109 0
105 110 0
105 111 0
106 107 0
106 108 0
106 109 0
106 110 0
106 111 0
107 108 0
107 109 0
107 110 0
107 111 0
108 109 0
108 110 0
108 111 0
109 110 0
109 111 0
110 111 0
112 113 0
112 114 0
112 115 0
112 116 0
112 117 0
112 118 0
112 119 0
112 120 0
112 121 0
112 122 0
112 123 0
112 124 0
112 125 0
112 126 0
113 114 0
113 115 0
113 116 0
113 117 0
113 118 0
113 119 0
113 120 0
113 121 0
113 122 0
113 123 0
113 124 0
113 125 0
113 126 0
114 115 0
114 116 0
114 117 0
114 118 0
114 119 0
114 120 0
114 121 0
114 122 0
114 123 0
114 124 0
114 125 0
114 126 0
115 116 0
115 117 0
115 118 0
115 119 0
115 120 0
115 121 0
115 122 0
115 123 0
115 124 0
115 125 0
115 126 0
116 117 0
116 118 0
116 119 0
116 120 0
116 121 0
116 122 0
116 123 0
116 124 0
116 125 0
116 126 0
117 118 0
117 119 0
117 120 0
117 121 0
117 122 0
117 123 0
117 124 0
117 125 0
117 126 0
118 119 0
118 120 0
118 121 0
118 122 0
118 123 0
118 124 0
118 125 0
118 126 0
119 120 0
119 121 0
119 122 0
119 123 0
119 124 0
119 125 0
119 126 0
120 121 0
120 122 0
120 123 0
120 124 0
120 125 0
120 126 0
121 122 0
121 123 0
121 124 0
121 125 0
121 126 0
122 123 0
122 124 0
122 125 0
122 126 0
123 124 0
123 125 0
123 126 0
124 125 0
124 126 0
125 126 0
127 128 0
127 129 0
127 130 0
127 131 0
127 132 0
127 133 0
127 134 0
127 135 0
127 136 0
127 137 0
127 138 0
127 139 0
127 140 0
128 129 0
128 130 0
128 131 0
128 132 0
128 133 0
128 134 0
128 135 0
128 136 0
128 137 0
128 138 0
128 139 0
128 140 0
129 130 0
129 131 0
129 132 0
129 133 0
129 134 0
129 135 0
129 136 0
129 137 0
129 138 0
129 139 0
129 140 0
130 131 0
130 132 0
130 133 0
130 134 0
130 135 0
130 136 0
130 137 0
130 138 0
130 139 0
130 140 0
131 132 0
131 133 0
131 134 0
131 135 0
131 136 0
131 137 0
131 138 0
131 139 0
131 140 0
132 133 0
132 134 0
132 135 0
132 136 0
132 137 0
132 138 0
132 139 0
132 140 0
133 134 0
133 135 0
133 136 0
133 137 0
133 138 0
133 139 0
133 140 0
134 135 0
134 136 0
134 137 0
134 138 0
134 139 0
134 140 0
135 136 0
135 137 0
135 138 0
135 139 0
135 140 0
136 137 0
136 138 0
136 139 0
136 140 0
137 138 0
137 139 0
137 140 0
138 139 0
138 140 0
139 140 0
141 142 0
141 143 0
141 144 0
141 145 0
141 146 0
141 147 0
141 148 0
141 149 0
141 150 0
141 151 0
141 152 0
141 153 0
142 143 0
142 144 0
142 145 0
142 146 0
142 147 0
142 148 0
142 149 0
142 150 0
142 151 0
142 152 0
142 153 0
143 144 0
143 145 0
143 146 0
143 147 0
143 148 0
143 149 0
143 150 0
143 151 0
143 152 0
143 153 0
144 145 0
144 146 0
144 147 0
144 148 0
144 149 0
144 150 0
144 151 0
144 152 0
144 153 0
145 146 0
145 147 0
145 148 0
145 149 0
145 150 0
145 151 0
145 152 0
145 153 0
146 147 0
146 148 0
146 149 0
146 150 0
146 151 0
146 152 0
146 153 0
147 148 0
147 149 0
147 150 0
147 151 0
147 152 0
147 153 0
148 149 0
148 150 0
148 151 0
148 152 0
148 153 0
149 150 0
149 151 0
149 152 0
149 153 0
150 151 0
150 152 0
150 153 0
151 152 0
151 153 0
152 153 0
154 155 0
154 156 0
154 157 0
154 158 0
154 159 0
154 160 0
154 161 0
154 162 0
154 163 0
154 164 0
154 165 0
155 156 0
155 157 0
155 158 0
155 159 0
155 160 0
155 161 0
155 162 0
155 163 0
155 164 0
155 165 0
156 157 0
156 158 0
156 159 0
156 160 0
156 161 0
156 162 0
156 163 0
156 164 0
156 165 0
157 158 0
157 159 0
157 160 0
157 161 0
157 162 0
157 163 0
157 164 0
157 165 0
158 159 0
158 160 0
158 161 0
158 162 0
158 163 0
158 164 0
158 165 0
159 160 0
159 161 0
159 162 0
159 163 0
159 164 0
159 165 0
160 161 0
160 162 0
160 163 0
160 164 0
160 165 0
161 162 0
161 163 0
161 164 0
161 165 0
162 163 0
162 164 0
162 165 0
163 164 0
163 165 0
164 165 0
166 167 0
166 168 0
166 169 0
166 170 0
166 171 0
166 172 0
166 173 0
166 174 0
166 175 0
166 176 0
167 168 0
167 169 0
167 170 0
167 171 0
167 172 0
167 173 0
167 174 0
167 175 0
167 176 0
168 169 0
168 170 0
168 171 0
168 172 0
168 173 0
168 174 0
168 175 0
168 176 0
169 170 0
169 171 0
169 172 0
169 173 0
169 174 0
169 175 0
169 176 0
170 171 0
170 172 0
170 173 0
170 174 0
170 175 0
170 176 0
171 172 0
171 173 0
171 174 0
171 175 0
171 176 0
172 173 0
172 174 0
172 175 0
172 176 0
173 174 0
173 175 0
173 176 0
174 175 0
174 176 0
175 176 0
177 178 0
177 179 0
177 180 0
177 181 0
177 182 0
177 183 0
177 184 0
177 185 0
177 186 0
178 179 0
178 180 0
178 181 0
178 182 0
178 183 0
178 184 0
178 185 0
178 186 0
179 180 0
179 181 0
179 182 0
179 183 0
179 184 0
179 185 0
179 186 0
180 181 0
180 182 0
180 183 0
180 184 0
180 185 0
180 186 0
181 182 0
181 183 0
181 184 0
181 185 0
181 186 0
182 183 0
182 184 0
182 185 0
182 186 0
183 184 0
183 185 0
183 186 0
184 185 0
184 186 0
185 186 0
187 188 0
187 189 0
187 190 0
187 191 0
187 192 0
187 193 0
187 194 0
187 195 0
188 189 0
188 190 0
188 191 0
188 192 0
188 193 0
188 194 0
188 195 0
189 190 0
189 191 0
189 192 0
189 193 0
189 194 0
189 195 0
190 191 0
190 192 0
190 193 0
190 194 0
190 195 0
191 192 0
191 193 0
191 194 0
191 195 0
192 193 0
192 194 0
192 195 0
193 194 0
193 195 0
194 195 0
196 197 0
196 198 0
196 199 0
196 200 0
196 201 0
196 202 0
196 203 0
197 198 0
197 199 0
197 200 0
197 201 0
197 202 0
197 203 0
198 199 0
198 200 0
198 201 0
198 202 0
198 203 0
199 200 0
199 201 0
199 202 0
199 203 0
200 201 0
200 202 0
200 203 0
201 202 0
201 203 0
202 203 0
204 205 0
204 206 0
204 207 0
204 208 0
204 209 0
204 210 0
205 206 0
205 207 0
205 208 0
205 209 0
205 210 0
206 207 0
206 208 0
206 209 0
206 210 0
207 208 0
207 209 0
207 210 0
208 209 0
208 210 0
209 210 0
211 212 0
211 213 0
211 214 0
211 215 0
211 216 0
212 213 0
212 214 0
212 215 0
212 216 0
213 214 0
213 215 0
213 216 0
214 215 0
214 216 0
215 216 0
217 218 0
217 219 0
217 220 0
217 221 0
218 219 0
218 220 0
218 221 0
219 220 0
219 221 0
220 221 0
222 223 0
222 224 0
222 225 0
223 224 0
223 225 0
224 225 0
226 227 0
226 228 0
227 228 0
229 230 0
-17 -36 -37 -54 -55 -71 -72 -87 -88 -102 -103 -116 -117 -129 -130 -141 -142 0
-18 -36 -38 -54 -55 -71 -72 -87 -88 -102 -103 -116 -117 -129 -130 -141 -142 0
-19 -36 -39 -54 -55 -71 -72 -87 -88 -102 -103 -116 -117 -129 -130 -141 -142 0
-20 -36 -40 -54 -55 -71 -72 -87 -88 -102 -103 -116 -117 -129 -130 -141 -142 0
-21 -36 -41 -54 -55 -71 -72 -87 -88 -102 -103 -116 -117 -129 -130 -141 -142 0
-18 -37 -38 -54 -56 -71 -72 -87 -88 -102 -103 -116 -117 -129 -130 -141 -142 0
-19 -37 -39 -54 -56 -71 -72 -87 -88 -102 -103 -116 -117 -129 -130 -141 -142 0
-20 -37 -40 -54 -56 -71 -72 -87 -88 -102 -103 -116 -117 -129 -130 -141 -142 0
-21 -37 -41 -54 -56 -71 -72 -87 -88 -102 -103 -116 -117 -129 -130 -141 -142 0
-19 -38 -39 -54 -57 -71 -72 -87 -88 -102 -103 -116 -117 -129 -130 -141 -142 0
-20 -38 -40 -54 -57 -71 -72 -87 -88 -102 -103 -116 -117 -129 -130 -141 -142 0
-21 -38 -41 -54 -57 -71 -72 -87 -88 -102 -103 -116 -117 -129 -130 -141 -142 0
-20 -39 -40 -54 -58 -71 -72 -87 -88 -102 -103 -116 -117 -129 -130 -141 -142 0
-21 -39 -41 -54 -58 -71 -72 -87 -88 -102 -103 -116 -117 -129 -130 -141 -142 0
-21 -40 -41 -54 -59 -71 -72 -87 -88 -102 -103 -116 -117 -129 -130 -141 -142 0
-18 -37 -38 -55 -56 -71 -73 -87 -88 -102 -103 -116 -117 -129 -130 -141 -142 0
-19 -37 -39 -55 -56 -71 -73 -87 -88 -102 -103 -116 -117 -129 -130 -141 -142 0
-20 -37 -40 -55 -56 -71 -73 -87 -88 -102 -103 -116 -117 -129 -130 -141 -142 0
-21 -37 -41 -55 -56 -71 -73 -87 -88 -102 -103 -116 -117 -129 -130 -141 -142 0
-19 -38 -39 -55 -57 -71 -73 -87 -88 -102 -103 -116 -117 -129 -130 -141 -142 0
-20 -38 -40 -55 -57 -71 -73 -87 -88 -102 -103 -116 -117 -129 -130 -141 -142 0
-21 -38 -41 -55 -57 -71 -73 -87 -88 -102 -103 -116 -117 -129 -130 -141 -142 0
-20 -39 -40 -55 -58 -71 -73 -87 -88 -102 -103 -116 -117 -129 -130 -141 -142 0
-21 -39 -41 -55 -58 -71 -73 -87 -88 -102 -103 -116 -117 -129 -130 -141 -142 0
-21 -40 -41 -55 -59 -71 -73 -87 -88 -102 -103 -116 -117 -129 -130 -141 -142 0
-19 -38 -39 -56 -57 -71 -74 -87 -88 -102 -103 -116 -117 -129 -130 -141 -142 0
-20 -38 -40 -56 -57 -71 -74 -87 -88 -102 -103 -116 -117 -129 -130 -141 -142 0
-21 -38 -41 -56 -57 -71 -74 -87 -88 -102 -103 -116 -117 -129 -130 -141 -142 0
-20 -39 -40 -56 -58 -71 -74 -87 -88 -102 -103 -116 -117 -129 -130 -141 -142 0
-21 -39 -41 -56 -58 -71 -74 -87 -88 -102 -103 -116 -117 -129 -130 -141 -142 0
-21 -40 -41 -56 -59 -71 -74 -87 -88 -102 -103 -116 -117 -129 -130 -141 -142 0
-20 -39 -40 -57 -58 -71 -75 -87 -88 -102 -103 -116 -117 -129 -130 -141 -142 0
-21 -39 -41 -57 -58 -71 -75 -87 -88 -102 -103 -116 -117 -129 -130 -141 -142 0
-21 -40 -41 -57 -59 -71 -75 -87 -88 -102 -103 -116 -117 -129 -130 -141 -142 0
-21 -40 -41 -58 -59 -71 -76 -87 -88 -102 -103 -116 -117 -129 -130 -141 -142 0
-18 -37 -38 -55 -56 -72 -73 -87 -89 -102 -103 -116 -117 -129 -130 -141 -142 0
-19 -37 -39 -55 -56 -72 -73 -87 -89 -102 -103 -116 -117 -129 -130 -141 -142 0
-20 -37 -40 -55 -56 -72 -73 -87 -89 -102 -103 -116 -117 -129 -130 -141 -142 0
-21 -37 -41 -55 -56 -72 -73 -87 -89 -102 -103 -116 -117 -129 -130 -141 -142 0
-19 -38 -39 -55 -57 -72 -73 -87 -89 -102 -103 -116 -117 -129 -130 -141 -142 0
-20 -38 -40 -55 -57 -72 -73 -87 -89 -102 -103 -116 -117 -129 -130 -141 -142 0
-21 -38 -41 -55 -57 -72 -73 -87 -89 -102 -103 -116 -117 -129 -130 -141 -142 0
-20 -39 -40 -55 -58 -72 -73 -87 -89 -102 -103 -116 -117 -129 -130 -141 -142 0
-21 -39 -41 -55 -58 -72 -73 -87 -89 -102 -103 -116 -117 -129 -130 -141 -142 0
-21 -40 -41 -55 -59 -72 -73 -87 -89 -102 -103 -116 -117 -129 -130 -141 -142 0
-19 -38 -39 -56 -57 -72 -74 -87 -89 -102 -103 -116 -117 -129 -130 -141 -142 0
-20 -38 -40 -56 -57 -72 -74 -87 -89 -102 -103 -116 -117 -129 -130 -141 -142 0
-21 -38 -41 -56 -57 -72 -74 -87 -89 -102 -103 -116 -117 -129 -130 -141 -142 0
-20 -39 -40 -56 -58 -72 -74 -87 -89 -102 -103 -116 -117 -129 -130 -141 -142 0
-21 -39 -41 -56 -58 -72 -74 -87 -89 -102 -103 -116 -117 -129 -130 -141 -142 0
-21 -40 -41 -56 -59 -72 -74 -87 -89 -102 -103 -116 -117 -129 -130 -141 -142 0
-20 -39 -40 -57 -58 -72 -75 -87 -89 -102 -103 -116 -117 -129 -130 -141 -142 0
-21 -39 -41 -57 -58 -72 -75 -87 -89 -102 -103 -116 -117 -129 -130 -141 -142 0
-21 -40 -41 -57 -59 -72 -75 -87 -89 -102 -103 -116 -117 -129 -130 -141 -142 0
-21 -40 -41 -58 -59 -72 -76 -87 -89 -102 -103 -116 -117 -129 -130 -141 -142 0
-19 -38 -39 -56 -57 -73 -74 -87 -90 -102 -103 -116 -117 -129 -130 -141 -142 0
-20 -38 -40 -56 -57 -73 -74 -87 -90 -102 -103 -116 -117 -129 -130 -141 -142 0
-21 -38 -41 -56 -57 -73 -74 -87 -90 -102 -103 -116 -117 -129 -130 -141 -142 0
-20 -39 -40 -56 -58 -73 -74 -87 -90 -102 -103 -116 -117 -129 -130 -141 -142 0
-21 -39 -41 -56 -58 -73 -74 -87 -90 -102 -103 -116 -117 -129 -130 -141 -142 0
-21 -40 -41 -56 -59 -73 -74 -87 -90 -102 -103 -116 -117 -129 -130 -141 -142 0
-20 -39 -40 -57 -58 -73 -75 -87 -90 -102 -103 -116 -117 -129 -130 -141 -142 0
-21 -39 -41 -57 -58 -73 -75 -87 -90 -102 -103 -116 -117 -129 -130 -141 -142 0
-21 -40 -41 -57 -59 -73 -75 -87 -90 -102 -103 -116 -117 -129 -130 -141 -142 0
-21 -40 -41 -58 -59 -73 -76 -87 -90 -102 -103 -116 -117 -129 -130 -141 -142 0
-20 -39 -40 -57 -58 -74 -75 -87 -91 -102 -103 -116 -117 -129 -130 -141 -142 0
-21 -39 -41 -57 -58 -74 -75 -87 -91 -102 -103 -116 -117 -129 -130 -141 -142 0
-21 -40 -41 -57 -59 -74 -75 -87 -91 -102 -103 -116 -117 -129 -130 -141 -142 0
-21 -40 -41 -58 -59 -74 -76 -87 -91 -102 -103 -116 -117 -129 -130 -141 -142 0
-21 -40 -41 -58 -59 -75 -76 -87 -92 -102 -103 -116 -117 -129 -130 -141 -142 0
-18 -37 -38 -55 -56 -72 -73 -88 -89 -102 -104 -116 -117 -129 -130 -141 -142 0
-19 -37 -39 -55 -56 -72 -73 -88 -89 -102 -104 -116 -117 -129 -130 -141 -142 0
-20 -37 -40 -55 -56 -72 -73 -88 -89 -102 -104 -116 -117 -129 -130 -141 -142 0
-21 -37 -41 -55 -56 -72 -73 -88 -89 -102 -104 -116 -117 -129 -130 -141 -142 0
-19 -38 -39 -55 -57 -72 -73 -88 -89 -102 -104 -116 -117 -129 -130 -141 -142 0
-20 -38 -40 -55 -57 -72 -73 -88 -89 -102 -104 -116 -117 -129 -130 -141 -142 0
-21 -38 -41 -55 -57 -72 -73 -88 -89 -102 -104 -116 -117 -129 -130 -141 -142 0
-20 -39 -40 -55 -58 -72 -73 -88 -89 -102 -104 -116 -117 -129 -130 -141 -142 0
-21 -39 -41 -55 -58 -72 -73 -88 -89 -102 -104 -116 -117 -129 -130 -141 -142 0
-21 -40 -41 -55 -59 -72 -73 -88 -89 -102 -104 -116 -117 -129 -130 -141 -142 0
-19 -38 -39 -56 -57 -72 -74 -88 -89 -102 -104 -116 -117 -129 -130 -141 -142 0
-20 -38 -40 -56 -57 -72 -74 -88 -89 -102 -104 -116 -117 -129 -130 -141 -142 0
-21 -38 -41 -56 -57 -72 -74 -88 -89 -102 -104 -116 -117 -129 -130 -141 -142 0
-20 -39 -40 -56 -58 -72 -74 -88 -89 -102 -104 -116 -117 -129 -130 -141 -142 0
-21 -39 -41 -56 -58 -72 -74 -88 -89 -102 -104 -116 -117 -129 -130 -141 -142 0
-21 -40 -41 -56 -59 -72 -74 -88 -89 -102 -104 -116 -117 -129 -130 -141 -142 0
-20 -39 -40 -57 -58 -72 -75 -88 -89 -102 -104 -116 -117 -129 -130 -141 -142 0
-21 -39 -41 -57 -58 -72 -75 -88 -89 -102 -104 -116 -117 -129 -130 -141 -142 0
-21 -40 -41 -57 -59 -72 -75 -88 -89 -102 -104 -116 -117 -129 -130 -141 -142 0
-21 -40 -41 -58 -59 -72 -76 -88 -89 -102 -104 -116 -117 -129 -130 -141 -142 0
-19 -38 -39 -56 -57 -73 -74 -88 -90 -102 -104 -116 -117 -129 -130 -141 -142 0
-20 -38 -40 -56 -57 -73 -74 -88 -90 -102 -104 -116 -117 -129 -130 -141 -142 0
-21 -38 -41 -56 -57 -73 -74 -88 -90 -102 -104 -116 -117 -129 -130 -141 -142 0
-20 -39 -40 -56 -58 -73 -74 -88 -90 -102 -104 -116 -117 -129 -130 -141 -142 0
-21 -39 -41 -56 -58 -73 -74 -88 -90 -102 -104 -116 -117 -129 -130 -141 -142 0
-21 -40 -41 -56 -59 -73 -74 -88 -90 -102 -104 -116 -117 -129 -130 -141 -142 0
-20 -39 -40 -57 -58 -73 -75 -88 -90 -102 -104 -116 -117 -129 -130 -141 -142 0
-21 -39 -41 -57 -58 -73 -75 -88 -90 -102 -104 -116 -117 -129 -130 -141 -142 0
-21 -40 -41 -57 -59 -73 -75 -88 -90 -102 -104 -116 -117 -129 -130 -141 -142 0
-21 -40 -41 -58 -59 -73 -76 -88 -90 -102 -104 -116 -117 -129 -130 -141 -142 0
-20 -39 -40 -57 -58 -74 -75 -88 -91 -102 -104 -116 -117 -129 -130 -141 -142 0
-21 -39 -41 -57 -58 -74 -75 -88 -91 -102 -104 -116 -117 -129 -130 -141 -142 0
-21 -40 -41 -57 -59 -74 -75 -88 -91 -102 -104 -116 -117 -129 -130 -141 -142 0
-21 -40 -41 -58 -59 -74 -76 -88 -91 -102 -104 -116 -117 -129 -130 -141 -142 0
-21 -40 -41 -58 -59 -75 -76 -88 -92 -102 -104 -116 -117 -129 -130 -141 -142 0
-19 -38 -39 -56 -57 -73 -74 -89 -90 -102 -105 -116 -117 -129 -130 -141 -142 0
-20 -38 -40 -56 -57 -73 -74 -89 -90 -102 -105 -116 -117 -129 -130 -141 -142 0
-21 -38 -41 -56 -57 -73 -74 -89 -90 -102 -105 -116 -117 -129 -130 -141 -142 0
-20 -39 -40 -56 -58 -73 -74 -89 -90 -102 -105 -116 -117 -129 -130 -141 -142 0
-21 -39 -41 -56 -58 -73 -74 -89 -90 -102 -105 -116 -117 -129 -130 -141 -142 0
-21 -40 -41 -56 -59 -73 -74 -89 -90 -102 -105 -116 -117 -129 -130 -141 -142 0
-20 -39 -40 -57 -58 -73 -75 -89 -90 -102 -105 -116 -117 -129 -130 -141 -142 0
-21 -39 -41 -57 -58 -73 -75 -89 -90 -102 -105 -116 -117 -129 -130 -141 -142 0
-21 -40 -41 -57 -59 -73 -75 -89 -90 -102 -105 -116 -117 -129 -130 -141 -142 0
-21 -40 -41 -58 -59 -73 -76 -89 -90 -102 -105 -116 -117 -129 -130 -141 -142 0
-20 -39 -40 -57 -58 -74 -75 -89 -91 -102 -105 -116 -117 -129 -130 -141 -142 0
-21 -39 -41 -57 -58 -74 -75 -89 -91 -102 -105 -116 -117 -129 -130 -141 -142 0
-21 -40 -41 -57 -59 -74 -75 -89 -91 -102 -105 -116 -117 -129 -130 -141 -142 0
-21 -40 -41 -58 -59 -74 -76 -89 -91 -102 -105 -116 -117 -129 -130 -141 -142 0
-21 -40 -41 -58 -59 -75 -76 -89 -92 -102 -105 -116 -117 -129 -130 -141 -142 0
-20 -39 -40 -57 -58 -74 -75 -90 -91 -102 -106 -116 -117 -129 -130 -141 -142 0
-21 -39 -41 -57 -58 -74 -75 -90 -91 -102 -106 -116 -117 -129 -130 -141 -142 0
-21 -40 -41 -57 -59 -74 -75 -90 -91 -102 -106 -116 -117 -129 -130 -141 -142 0
-21 -40 -41 -58 -59 -74 -76 -90 -91 -102 -106 -116 -117 -129 -130 -141 -142 0
-21 -40 -41 -58 -59 -75 -76 -90 -92 -102 -106 -116 -117 -129 -130 -141 -142 0
-21 -40 -41 -58 -59 -75 -76 -91 -92 -102 -107 -116 -117 -129 -130 -141 -142 0
-18 -37 -38 -55 -56 -72 -73 -88 -89 -103 -104 -116 -118 -129 -130 -141 -142 0
-19 -37 -39 -55 -56 -72 -73 -88 -89 -103 -104 -116 -118 -129 -130 -141 -142 0
-20 -37 -40 -55 -56 -72 -73 -88 -89 -103 -104 -116 -118 -129 -130 -141 -142 0
-21 -37 -41 -55 -56 -72 -73 -88 -89 -103 -104 -116 -118 -129 -130 -141 -142 0
-19 -38 -39 -55 -57 -72 -73 -88 -89 -103 -104 -116 -118 -129 -130 -141 -142 0
-20 -38 -40 -55 -57 -72 -73 -88 -89 -103 -104 -116 -118 -129 -130 -141 -142 0
-21 -38 -41 -55 -57 -72 -73 -88 -89 -103 -104 -116 -118 -129 -130 -141 -142 0
-20 -39 -40 -55 -58 -72 -73 -88 -89 -103 -104 -116 -118 -129 -130 -141 -142 0
-21 -39 -41 -55 -58 -72 -73 -88 -89 -103 -104 -116 -118 -129 -130 -141 -142 0
-21 -40 -41 -55 -59 -72 -73 -88 -89 -103 -104 -116 -118 -129 -130 -141 -142 0
-19 -38 -39 -56 -57 -72 -74 -88 -89 -103 -104 -116 -118 -129 -130 -141 -142 0
-20 -38 -40 -56 -57 -72 -74 -88 -89 -103 -104 -116 -118 -129 -130 -141 -142 0
-21 -38 -41 -56 -57 -72 -74 -88 -89 -103 -104 -116 -118 -129 -130 -141 -142 0
-20 -39 -40 -56 -58 -72 -74 -88 -89 -103 -104 -116 -118 -129 -130 -141 -142 0
-21 -39 -41 -56 -58 -72 -74 -88 -89 -103 -104 -116 -118 -129 -130 -141 -142 0
-21 -40 -41 -56 -59 -72 -74 -88 -89 -103 -104 -116 -118 -129 -130 -141 -142 0
-20 -39 -40 -57 -58 -72 -75 -88 -89 -103 -104 -116 -118 -129 -130 -141 -142 0
-21 -39 -41 -57 -58 -72 -75 -88 -89 -103 -104 -116 -118 -129 -130 -141 -142 0
-21 -40 -41 -57 -59 -72 -75 -88 -89 -103 -104 -116 -118 -129 -130 -141 -142 0
-21 -40 -41 -58 -59 -72 -76 -88 -89 -103 -104 -116 -118 -129 -130 -141 -142 0
-19 -38 -39 -56 -57 -73 -74 -88 -90 -103 -104 -116 -118 -129 -130 -141 -142 0
-20 -38 -40 -56 -57 -73 -74 -88 -90 -103 -104 -116 -118 -129 -130 -141 -142 0
-21 -38 -41 -56 -57 -73 -74 -88 -90 -103 -104 -116 -118 -129 -130 -141 -142 0
-20 -39 -40 -56 -58 -73 -74 -88 -90 -103 -104 -116 -118 -129 -130 -141 -142 0
-21 -39 -41 -56 -58 -73 -74 -88 -90 -103 -104 -116 -118 -129 -130 -141 -142 0
-21 -40 -41 -56 -59 -73 -74 -88 -90 -103 -104 -116 -118 -129 -130 -141 -142 0
-20 -39 -40 -57 -58 -73 -75 -88 -90 -103 -104 -116 -118 -129 -130 -141 -142 0
-21 -39 -41 -57 -58 -73 -75 -88 -90 -103 -104 -116 -118 -129 -130 -141 -142 0
-21 -40 -41 -57 -59 -73 -75 -88 -90 -103 -104 -116 -118 -129 -130 -141 -142 0
-21 -40 -41 -58 -59 -73 -76 -88 -90 -103 -104 -116 -118 -129 -130 -141 -142 0
-20 -39 -40 -57 -58 -74 -75 -88 -91 -103 -104 -116 -118 -129 -130 -141 -142 0
-21 -39 -41 -57 -58 -74 -75 -88 -91 -103 -104 -116 -118 -129 -130 -141 -142 0
-21 -40 -41 -57 -59 -74 -75 -88 -91 -103 -104 -116 -118 -129 -130 -141 -142 0
-21 -40 -41 -58 -59 -74 -76 -88 -91 -103 -104 -116 -118 -129 -130 -141 -142 0
-21 -40 -41 -58 -59 -75 -76 -88 -92 -103 -104 -116 -118 -129 -130 -141 -142 0
-19 -38 -39 -56 -57 -73 -74 -89 -90 -103 -105 -116 -118 -129 -130 -141 -142 0
-20 -38 -40 -56 -57 -73 -74 -89 -90 -103 -105 -116 -118 -129 -130 -141 -142 0
-21 -38 -41 -56 -57 -73 -74 -89 -90 -103 -105 -116 -118 -129 -130 -141 -142 0
-20 -39 -40 -56 -58 -73 -74 -89 -90 -103 -105 -116 -118 -129 -130 -141 -142 0
-21 -39 -41 -56 -58 -73 -74 -89 -90 -103 -105 -116 -118 -129 -130 -141 -142 0
-21 -40 -41 -56 -59 -73 -74 -89 -90 -103 -105 -116 -118 -129 -130 -141 -142 0
-20 -39 -40 -57 -58 -73 -75 -89 -90 -103 -105 -116 -118 -129 -130 -141 -142 0
-21 -39 -41 -57 -58 -73 -75 -89 -90 -103 -105 -116 -118 -129 -130 -141 -142 0
-21 -40 -41 -57 -59 -73 -75 -89 -90 -103 -105 -116 -118 -129 -130 -141 -142 0
-21 -40 -41 -58 -59 -73 -76 -89 -90 -103 -105 -116 -118 -129 -130 -141 -142 0
-20 -39 -40 -57 -58 -74 -75 -89 -91 -103 -105 -116 -118 -129 -130 -141 -142 0
-21 -39 -41 -57 -58 -74 -75 -89 -91 -103 -105 -116 -118 -129 -130 -141 -142 0
-21 -40 -41 -57 -59 -74 -75 -89 -91 -103 -105 -116 -118 -129 -130 -141 -142 0
-21 -40 -41 -58 -59 -74 -76 -89 -91 -103 -105 -116 -118 -129 -130 -141 -142 0
-21 -40 -41 -58 -59 -75 -76 -89 -92 -103 -105 -116 -118 -129 -130 -141 -142 0
-20 -39 -40 -57 -58 -74 -75 -90 -91 -103 -106 -116 -118 -129 -130 -141 -142 0
-21 -39 -41 -57 -58 -74 -75 -90 -91 -103 -106 -116 -118 -129 -130 -141 -142 0
-21 -40 -41 -57 -59 -74 -75 -90 -91 -103 -106 -116 -118 -129 -130 -141 -142 0
-21 -40 -41 -58 -59 -74 -76 -90 -91 -103 -106 -116 -118 -129 -130 -141 -142 0
-21 -40 -41 -58 -59 -75 -76 -90 -92 -103 -106 -116 -118 -129 -130 -141 -142 0
-21 -40 -41 -58 -59 -75 -76 -91 -92 -103 -107 -116 -118 -129 -130 -141 -142 0
-19 -38 -39 -56 -57 -73 -74 -89 -90 -104 -105 -116 -119 -129 -130 -141 -142 0
-20 -38 -40 -56 -57 -73 -74 -89 -90 -104 -105 -116 -119 -129 -130 -141 -142 0
-21 -38 -41 -56 -57 -73 -74 -89 -90 -104 -105 -116 -119 -129 -130 -141 -142 0
-20 -39 -40 -56 -58 -73 -74 -89 -90 -104 -105 -116 -119 -129 -130 -141 -142 0
-21 -39 -41 -56 -58 -73 -74 -89 -90 -104 -105 -116 -119 -129 -130 -141 -142 0
-21 -40 -41 -56 -59 -73 -74 -89 -90 -104 -105 -116 -119 -129 -130 -141 -142 0
-20 -39 -40 -57 -58 -73 -75 -89 -90 -104 -105 -116 -119 -129 -130 -141 -142 0
-21 -39 -41 -57 -58 -73 -75 -89 -90 -104 -105 -116 -119 -129 -130 -141 -142 0
-21 -40 -41 -57 -59 -73 -75 -89 -90 -104 -105 -116 -119 -129 -130 -141 -142 0
-21 -40 -41 -58 -59 -73 -76 -89 -90 -104 -105 -116 -119 -129 -130 -141 -142 0
-20 -39 -40 -57 -58 -74 -75 -89 -91 -104 -105 -116 -119 -129 -130 -141 -142 0
-21 -39 -41 -57 -58 -74 -75 -89 -91 -104 -105 -116 -119 -129 -130 -141 -142 0
-21 -40 -41 -57 -59 -74 -75 -89 -91 -104 -105 -116 -119 -129 -130 -141 -142 0
-21 -40 -41 -58 -59 -74 -76 -89 -91 -104 -105 -116 -119 -129 -130 -141 -142 0
-21 -40 -41 -58 -59 -75 -76 -89 -92 -104 -105 -116 -119 -129 -130 -141 -142 0
-20 -39 -40 -57 -58 -74 -75 -90 -91 -104 -106 -116 -119 -129 -130 -141 -142 0
-21 -39 -41 -57 -58 -74 -75 -90 -91 -104 -106 -116 -119 -129 -130 -141 -142 0
-21 -40 -41 -57 -59 -74 -75 -90 -91 -104 -106 -116 -119 -129 -130 -141 -142 0
-21 -40 -41 -58 -59 -74 -76 -90 -91 -104 -106 -116 -119 -129 -130 -141 -142 0
-21 -40 -41 -58 -59 -75 -76 -90 -92 -104 -106 -116 -119 -129 -130 -141 -142 0
-21 -40 -41 -58 -59 -75 -76 -91 -92 -104 -107 -116 -119 -129 -130 -141 -142 0
-20 -39 -40 -57 -58 -74 -75 -90 -91 -105 -106 -116 -120 -129 -130 -141 -142 0
-21 -39 -41 -57 -58 -74 -75 -90 -91 -105 -106 -116 -120 -129 -130 -141 -142 0
-21 -40 -41 -57 -59 -74 -75 -90 -91 -105 -106 -116 -120 -129 -130 -141 -142 0
-21 -40 -41 -58 -59 -74 -76 -90 -91 -105 -106 -116 -120 -129 -130 -141 -142 0
-21 -40 -41 -58 -59 -75 -76 -90 -92 -105 -106 -116 -120 -129 -130 -141 -142 0
-21 -40 -41 -58 -59 -75 -76 -91 -92 -105 -107 -116 -120 -129 -130 -141 -142 0
-21 -40 -41 -58 -59 -75 -76 -91 -92 -106 -107 -116 -121 -129 -130 -141 -142 0
-18 -37 -38 -55 -56 -72 -73 -88 -89 -103 -104 -117 -118 -129 -131 -141 -142 0
-19 -37 -39 -55 -56 -72 -73 -88 -89 -103 -104 -117 -118 -129 -131 -141 -142 0
-20 -37 -40 -55 -56 -72 -73 -88 -89 -103 -104 -117 -118 -129 -131 -141 -142 0
-21 -37 -41 -55 -56 -72 -73 -88 -89 -103 -104 -117 -118 -129 -131 -141 -142 0
-19 -38 -39 -55 -57 -72 -73 -88 -89 -103 -104 -117 -118 -129 -131 -141 -142 0
-20 -38 -40 -55 -57 -72 -73 -88 -89 -103 -104 -117 -118 -129 -131 -141 -142 0
-21 -38 -41 -55 -57 -72 -73 -88 -89 -103 -104 -117 -118 -129 -131 -141 -142 0
-20 -39 -40 -55 -58 -72 -73 -88 -89 -103 -104 -117 -118 -129 -131 -141 -142 0
-21 -39 -41 -55 -58 -72 -73 -88 -89 -103 -104 -117 -118 -129 -131 -141 -142 0
-21 -40 -41 -55 -59 -72 -73 -88 -89 -103 -104 -117 -118 -129 -131 -141 -142 0
-19 -38 -39 -56 -57 -72 -74 -88 -89 -103 -104 -117 -118 -129 -131 -141 -142 0
-20 -38 -40 -56 -57 -72 -74 -88 -89 -103 -104 -117 -118 -129 -131 -141 -142 0
-21 -38 -41 -56 -57 -72 -74 -88 -89 -103 -104 -117 -118 -129 -131 -141 -142 0
-20 -39 -40 -56 -58 -72 -74 -88 -89 -103 -104 -117 -118 -129 -131 -141 -142 0
-21 -39 -41 -56 -58 -72 -74 -88 -89 -103 -104 -117 -118 -129 -131 -141 -142 0
-21 -40 -41 -56 -59 -72 -74 -88 -89 -103 -104 -117 -118 -129 -131 -141 -142 0
-20 -39 -40 -57 -58 -72 -75 -88 -89 -103 -104 -117 -118 -129 -131 -141 -142 0
-21 -39 -41 -57 -58 -72 -75 -88 -89 -103 -104 -117 -118 -129 -131 -141 -142 0
-21 -40 -41 -57 -59 -72 -75 -88 -89 -103 -104 -117 -118 -129 -131 -141 -142 0
-21 -40 -41 -58 -59 -72 -76 -88 -89 -103 -104 -117 -118 -129 -131 -141 -142 0
-19 -38 -39 -56 -57 -73 -74 -88 -90 -103 -104 -117 -118 -129 -131 -141 -142 0
-20 -38 -40 -56 -57 -73 -74 -88 -90 -103 -104 -117 -118 -129 -131 -141 -142 0
-21 -38 -41 -56 -57 -73 -74 -88 -90 -103 -104 -117 -118 -129 -131 -141 -142 0
-20 -39 -40 -56 -58 -73 -74 -88 -90 -103 -104 -117 -118 -129 -131 -141 -142 0
-21 -39 -41 -56 -58 -73 -74 -88 -90 -103 -104 -117 -118 -129 -131 -141 -142 0
-21 -40 -41 -56 -59 -73 -74 -88 -90 -103 -104 -117 -118 -129 -131 -141 -142 0
-20 -39 -40 -57 -58 -73 -75 -88 -90 -103 -104 -117 -118 -129 -131 -141 -142 0
-21 -39 -41 -57 -58 -73 -75 -88 -90 -103 -104 -117 -118 -129 -131 -141 -142 0
-21 -40 -41 -57 -59 -73 -75 -88 -90 -103 -104 -117 -118 -129 -131 -141 -142 0
-21 -40 -41 -58 -59 -73 -76 -88 -90 -103 -104 -117 -118 -129 -131 -141 -142 0
-20 -39 -40 -57 -58 -74 -75 -88 -91 -103 -104 -117 -118 -129 -131 -141 -142 0
-21 -39 -41 -57 -58 -74 -75 -88 -91 -103 -104 -117 -118 -129 -131 -141 -142 0
-21 -40 -41 -57 -59 -74 -75 -88 -91 -103 -104 -117 -118 -129 -131 -141 -142 0
-21 -40 -41 -58 -59 -74 -76 -88 -91 -103 -104 -117 -118 -129 -131 -141 -142 0
-21 -40 -41 -58 -59 -75 -76 -88 -92 -103 -104 -117 -118 -129 -131 -141 -142 0
-19 -38 -39 -56 -57 -73 -74 -89 -90 -103 -105 -117 -118 -129 -131 -141 -142 0
-20 -38 -40 -56 -57 -73 -74 -89 -90 -103 -105 -117 -118 -129 -131 -141 -142 0
-21 -38 -41 -56 -57 -73 -74 -89 -90 -103 -105 -117 -118 -129 -131 -141 -142 0
-20 -39 -40 -56 -58 -73 -74 -89 -90 -103 -105 -117 -118 -129 -131 -141 -142 0
-21 -39 -41 -56 -58 -73 -74 -89 -90 -103 -105 -117 -118 -129 -131 -141 -142 0
-21 -40 -41 -56 -59 -73 -74 -89 -90 -103 -105 -117 -118 -129 -131 -141 -142 0
-20 -39 -40 -57 -58 -73 -75 -89 -90 -103 -105 -117 -118 -129 -131 -141 -142 0
-21 -39 -41 -57 -58 -73 -75 -89 -90 -103 -105 -117 -118 -129 -131 -141 -142 0
-21 -40 -41 -57 -59 -73 -75 -89 -90 -103 -105 -117 -118 -129 -131 -141 -142 0
-21 -40 -41 -58 -59 -73 -76 -89 -90 -103 -105 -117 -118 -129 -131 -141 -142 0
-20 -39 -40 -57 -58 -74 -75 -89 -91 -103 -105 -117 -118 -129 -131 -141 -142 0
-21 -39 -41 -57 -58 -74 -75 -89 -91 -103 -105 -117 -118 -129 -131 -141 -142 0
-21 -40 -41 -57 -59 -74 -75 -89 -91 -103 -105 -117 -118 -129 -131 -141 -142 0
-21 -40 -41 -58 -59 -74 -76 -89 -91 -103 -105 -117 -118 -129 -131 -141 -142 0
-21 -40 -41 -58 -59 -75 -76 -89 -92 -103 -105 -117 -118 -129 -131 -141 -142 0
-20 -39 -40 -57 -58 -74 -75 -90 -91 -103 -106 -117 -118 -129 -131 -141 -142 0
-21 -39 -41 -57 -58 -74 -75 -90 -91 -103 -106 -117 -118 -129 -131 -141 -142 0
-21 -40 -41 -57 -59 -74 -75 -90 -91 -103 -106 -117 -118 -129 -131 -141 -142 0
-21 -40 -41 -58 -59 -74 -76 -90 -91 -103 -106 -117 -118 -129 -131 -141 -142 0
-21 -40 -41 -58 -59 -75 -76 -90 -92 -103 -106 -117 -118 -129 -131 -141 -142 0
-21 -40 -41 -58 -59 -75 -76 -91 -92 -103 -107 -117 -118 -129 -131 -141 -142 0
-19 -38 -39 -56 -57 -73 -74 -89 -90 -104 -105 -117 -119 -129 -131 -141 -142 0
-20 -38 -40 -56 -57 -73 -74 -89 -90 -104 -105 -117 -119 -129 -131 -141 -142 0
-21 -38 -41 -56 -57 -73 -74 -89 -90 -104 -105 -117 -119 -129 -131 -141 -142 0
-20 -39 -40 -56 -58 -73 -74 -89 -90 -104 -105 -117 -119 -129 -131 -141 -142 0
-21 -39 -41 -56 -58 -73 -74 -89 -90 -104 -105 -117 -119 -129 -131 -141 -142 0
-21 -40 -41 -56 -59 -73 -74 -89 -90 -104 -105 -117 -119 -129 -131 -141 -142 0
-20 -39 -40 -57 -58 -73 -75 -89 -90 -104 -105 -117 -119 -129 -131 -141 -142 0
-21 -39 -41 -57 -58 -73 -75 -89 -90 -104 -105 -117 -119 -129 -131 -141 -142 0
-21 -40 -41 -57 -59 -73 -75 -89 -90 -104 -105 -117 -119 -129 -131 -141 -142 0
-21 -40 -41 -58 -59 -73 -76 -89 -90 -104 -105 -117 -119 -129 -131 -141 -142 0
-20 -39 -40 -57 -58 -74 -75 -89 -91 -104 -105 -117 -119 -129 -131 -141 -142 0
-21 -39 -41 -57 -58 -74 -75 -89 -91 -104 -105 -117 -119 -129 -131 -141 -142 0
-21 -40 -41 -57 -59 -74 -75 -89 -91 -104 -105 -117 -119 -129 -131 -141 -142 0
-21 -40 -41 -58 -59 -74 -76 -89 -91 -104 -105 -117 -119 -129 -131 -141 -142 0
-21 -40 -41 -58 -59 -75 -76 -89 -92 -104 -105 -117 -119 -129 -131 -141 -142 0
-20 -39 -40 -57 -58 -74 -75 -90 -91 -104 -106 -117 -119 -129 -131 -141 -142 0
-21 -39 -41 -57 -58 -74 -75 -90 -91 -104 -106 -117 -119 -129 -131 -141 -142 0
-21 -40 -41 -57 -59 -74 -75 -90 -91 -104 -106 -117 -119 -129 -131 -141 -142 0
-21 -40 -41 -58 -59 -74 -76 -90 -91 -104 -106 -117 -119 -129 -131 -141 -142 0
-21 -40 -41 -58 -59 -75 -76 -90 -92 -104 -106 -117 -119 -129 -131 -141 -142 0
-21 -40 -41 -58 -59 -75 -76 -91 -92 -104 -107 -117 -119 -129 -131 -141 -142 0
-20 -39 -40 -57 -58 -74 -75 -90 -91 -105 -106 -117 -120 -129 -131 -141 -142 0
-21 -39 -41 -57 -58 -74 -75 -90 -91 -105 -106 -117 -120 -129 -131 -141 -142 0
-21 -40 -41 -57 -59 -74 -75 -90 -91 -105 -106 -117 -120 -129 -131 -141 -142 0
-21 -40 -41 -58 -59 -74 -76 -90 -91 -105 -106 -117 -120 -129 -131 -141 -142 0
-21 -40 -41 -58 -59 -75 -76 -90 -92 -105 -106 -117 -120 -129 -131 -141 -142 0
-21 -40 -41 -58 -59 -75 -76 -91 -92 -105 -107 -117 -120 -129 -131 -141 -142 0
-21 -40 -41 -58 -59 -75 -76 -91 -92 -106 -107 -117 -121 -129 -131 -141 -142 0
-19 -38 -39 -56 -57 -73 -74 -89 -90 -104 -105 -118 -119 -129 -132 -141 -142 0
-20 -38 -40 -56 -57 -73 -74 -89 -90 -104 -105 -118 -119 -129 -132 -141 -142 0
-21 -38 -41 -56 -57 -73 -74 -89 -90 -104 -105 -118 -119 -129 -132 -141 -142 0
-20 -39 -40 -56 -58 -73 -74 -89 -90 -104 -105 -118 -119 -129 -132 -141 -142 0
-21 -39 -41 -56 -58 -73 -74 -89 -90 -104 -105 -118 -119 -129 -132 -141 -142 0
-21 -40 -41 -56 -59 -73 -74 -89 -90 -104 -105 -118 -119 -129 -132 -141 -142 0
-20 -39 -40 -57 -58 -73 -75 -89 -90 -104 -105 -118 -119 -129 -132 -141 -142 0
-21 -39 -41 -57 -58 -73 -75 -89 -90 -104 -105 -118 -119 -129 -132 -141 -142 0
-21 -40 -41 -57 -59 -73 -75 -89 -90 -104 -105 -118 -119 -129 -132 -141 -142 0
-21 -40 -41 -58 -59 -73 -76 -89 -90 -104 -105 -118 -119 -129 -132 -141 -142 0
-20 -39 -40 -57 -58 -74 -75 -89 -91 -104 -105 -118 -119 -129 -132 -141 -142 0
-21 -39 -41 -57 -58 -74 -75 -89 -91 -104 -105 -118 -119 -129 -132 -141 -142 0
-21 -40 -41 -57 -59 -74 -75 -89 -91 -104 -105 -118 -119 -129 -132 -141 -142 0
-21 -40 -41 -58 -59 -74 -76 -89 -91 -104 -105 -118 -119 -129 -132 -141 -142 0
-21 -40 -41 -58 -59 -75 -76 -89 -92 -104 -105 -118 -119 -129 -132 -141 -142 0
-20 -39 -40 -57 -58 -74 -75 -90 -91 -104 -106 -118 -119 -129 -132 -141 -142 0
-21 -39 -41 -57 -58 -74 -75 -90 -91 -104 -106 -118 -119 -129 -132 -141 -142 0
-21 -40 -41 -57 -59 -74 -75 -90 -91 -104 -106 -118 -119 -129 -132 -141 -142 0
-21 -40 -41 -58 -59 -74 -76 -90 -91 -104 -106 -118 -119 -129 -132 -141 -142 0
-21 -40 -41 -58 -59 -75 -76 -90 -92 -104 -106 -118 -119 -129 -132 -141 -142 0
-21 -40 -41 -58 -59 -75 -76 -91 -92 -104 -107 -118 -119 -129 -132 -141 -142 0
-20 -39 -40 -57 -58 -74 -75 -90 -91 -105 -106 -118 -120 -129 -132 -141 -142 0
-21 -39 -41 -57 -58 -74 -75 -90 -91 -105 -106 -118 -120 -129 -132 -141 -142 0
-21 -40 -41 -57 -59 -74 -75 -90 -91 -105 -106 -118 -120 -129 -132 -141 -142 0
-21 -40 -41 -58 -59 -74 -76 -90 -91 -105 -106 -118 -120 -129 -132 -141 -142 0
-21 -40 -41 -58 -59 -75 -76 -90 -92 -105 -106 -118 -120 -129 -132 -141 -142 0
-21 -40 -41 -58 -59 -75 -76 -91 -92 -105 -107 -118 -120 -129 -132 -141 -142 0
-21 -40 -41 -58 -59 -75 -76 -91 -92 -106 -107 -118 -121 -129 -132 -141 -142 0
-20 -39 -40 -57 -58 -74 -75 -90 -91 -105 -106 -119 -120 -129 -133 -141 -142 0
-21 -39 -41 -57 -58 -74 -75 -90 -91 -105 -106 -119 -120 -129 -133 -141 -142 0
-21 -40 -41 -57 -59 -74 -75 -90 -91 -105 -106 -119 -120 -129 -133 -141 -142 0
-21 -40 -41 -58 -59 -74 -76 -90 -91 -105 -106 -119 -120 -129 -133 -141 -142 0
-21 -40 -41 -58 -59 -75 -76 -90 -92 -105 -106 -119 -120 -129 -133 -141 -142 0
-21 -40 -41 -58 -59 -75 -76 -91 -92 -105 -107 -119 -120 -129 -133 -141 -142 0
-21 -40 -41 -58 -59 -75 -76 -91 -92 -106 -107 -119 -121 -129 -133 -141 -142 0
-21 -40 -41 -58 -59 -75 -76 -91 -92 -106 -107 -120 -121 -129 -134 -141 -142 0
-18 -37 -38 -55 -56 -72 -73 -88 -89 -103 -104 -117 -118 -130 -131 -141 -143 0
-19 -37 -39 -55 -56 -72 -73 -88 -89 -103 -104 -117 -118 -130 -131 -141 -143 0
-20 -37 -40 -55 -56 -72 -73 -88 -89 -103 -104 -117 -118 -130 -131 -141 -143 0
-21 -37 -41 -55 -56 -72 -73 -88 -89 -103 -104 -117 -118 -130 -131 -141 -143 0
-19 -38 -39 -55 -57 -72 -73 -88 -89 -103 -104 -117 -118 -130 -131 -141 -143 0
-20 -38 -40 -55 -57 -72 -73 -88 -89 -103 -104 -117 -118 -130 -131 -141 -143 0
-21 -38 -41 -55 -57 -72 -73 -88 -89 -103 -104 -117 -118 -130 -131 -141 -143 0
-20 -39 -40 -55 -58 -72 -73 -88 -89 -103 -104 -117 -118 -130 -131 -141 -143 0
-21 -39 -41 -55 -58 -72 -73 -88 -89 -103 -104 -117 -118 -130 -131 -141 -143 0
-21 -40 -41 -55 -59 -72 -73 -88 -89 -103 -104 -117 -118 -130 -131 -141 -143 0
-19 -38 -39 -56 -57 -72 -74 -88 -89 -103 -104 -117 -118 -130 -131 -141 -143 0
-20 -38 -40 -56 -57 -72 -74 -88 -89 -103 -104 -117 -118 -130 -131 -141 -143 0
-21 -38 -41 -56 -57 -72 -74 -88 -89 -103 -104 -117 -118 -130 -131 -141 -143 0
-20 -39 -40 -56 -58 -72 -74 -88 -89 -103 -104 -117 -118 -130 -131 -141 -143 0
-21 -39 -41 -56 -58 -72 -74 -88 -89 -103 -104 -117 -118 -130 -131 -141 -143 0
-21 -40 -41 -56 -59 -72 -74 -88 -89 -103 -104 -117 -118 -130 -131 -141 -143 0
-20 -39 -40 -57 -58 -72 -75 -88 -89 -103 -104 -117 -118 -130 -131 -141 -143 0
-21 -39 -41 -57 -58 -72 -75 -88 -89 -103 -104 -117 -118 -130 -131 -141 -143 0
-21 -40 -41 -57 -59 -72 -75 -88 -89 -103 -104 -117 -118 -130 -131 -141 -143 0
-21 -40 -41 -58 -59 -72 -76 -88 -89 -103 -104 -117 -118 -130 -131 -141 -143 0
-19 -38 -39 -56 -57 -73 -74 -88 -90 -103 -104 -117 -118 -130 -131 -141 -143 0
-20 -38 -40 -56 -57 -73 -74 -88 -90 -103 -104 -117 -118 -130 -131 -141 -143 0
-21 -38 -41 -56 -57 -73 -74 -88 -90 -103 -104 -117 -118 -130 -131 -141 -143 0
-20 -39 -40 -56 -58 -73 -74 -88 -90 -103 -104 -117 -118 -130 -131 -141 -143 0
-21 -39 -41 -56 -58 -73 -74 -88 -90 -103 -104 -117 -118 -130 -131 -141 -143 0
-21 -40 -41 -56 -59 -73 -74 -88 -90 -103 -104 -117 -118 -130 -131 -141 -143 0
-20 -39 -40 -57 -58 -73 -75 -88 -90 -103 -104 -117 -118 -130 -131 -141 -143 0
-21 -39 -41 -57 -58 -73 -75 -88 -90 -103 -104 -117 -118 -130 -131 -141 -143 0
-21 -40 -41 -57 -59 -73 -75 -88 -90 -103 -104 -117 -118 -130 -131 -141 -143 0
-21 -40 -41 -58 -59 -73 -76 -88 -90 -103 -104 -117 -118 -130 -131 -141 -143 0
-20 -39 -40 -57 -58 -74 -75 -88 -91 -103 -104 -117 -118 -130 -131 -141 -143 0
-21 -39 -41 -57 -58 -74 -75 -88 -91 -103 -104 -117 -118 -130 -131 -141 -143 0
-21 -40 -41 -57 -59 -74 -75 -88 -91 -103 -104 -117 -118 -130 -131 -141 -143 0
-21 -40 -41 -58 -59 -74 -76 -88 -91 -103 -104 -117 -118 -130 -131 -141 -143 0
-21 -40 -41 -58 -59 -75 -76 -88 -92 -103 -104 -117 -118 -130 -131 -141 -143 0
-19 -38 -39 -56 -57 -73 -74 -89 -90 -103 -105 -117 -118 -130 -131 -141 -143 0
-20 -38 -40 -56 -57 -73 -74 -89 -90 -103 -105 -117 -118 -130 -131 -141 -143 0
-21 -38 -41 -56 -57 -73 -74 -89 -90 -103 -105 -117 -118 -130 -131 -141 -143 0
-20 -39 -40 -56 -58 -73 -74 -89 -90 -103 -105 -117 -118 -130 -131 -141 -143 0
-21 -39 -41 -56 -58 -73 -74 -89 -90 -103 -105 -117 -118 -130 -131 -141 -143 0
-21 -40 -41 -56 -59 -73 -74 -89 -90 -103 -105 -117 -118 -130 -131 -141 -143 0
-20 -39 -40 -57 -58 -73 -75 -89 -90 -103 -105 -117 -118 -130 -131 -141 -143 0
-21 -39 -41 -57 -58 -73 -75 -89 -90 -103 -105 -117 -118 -130 -131 -141 -143 0
-21 -40 -41 -57 -59 -73 -75 -89 -90 -103 -105 -117 -118 -130 -131 -141 -143 0
-21 -40 -41 -58 -59 -73 -76 -89 -90 -103 -105 -117 -118 -130 -131 -141 -143 0
-20 -39 -40 -57 -58 -74 -75 -89 -91 -103 -105 -117 -118 -130 -131 -141 -143 0
-21 -39 -41 -57 -58 -74 -75 -89 -91 -103 -105 -117 -118 -130 -131 -141 -143 0
-21 -40 -41 -57 -59 -74 -75 -89 -91 -103 -105 -117 -118 -130 -131 -141 -143 0
-21 -40 -41 -58 -59 -74 -76 -89 -91 -103 -105 -117 -118 -130 -131 -141 -143 0
-21 -40 -41 -58 -59 -75 -76 -89 -92 -103 -105 -117 -118 -130 -131 -141 -143 0
-20 -39 -40 -57 -58 -74 -75 -90 -91 -103 -106 -117 -118 -130 -131 -141 -143 0
-21 -39 -41 -57 -58 -74 -75 -90 -91 -103 -106 -117 -118 -130 -131 -141 -143 0
-21 -40 -41 -57 -59 -74 -75 -90 -91 -103 -106 -117 -118 -130 -131 -141 -143 0
-21 -40 -41 -58 -59 -74 -76 -90 -91 -103 -106 -117 -118 -130 -131 -141 -143 0
-21 -40 -41 -58 -59 -75 -76 -90 -92 -103 -106 -117 -118 -130 -131 -141 -143 0
-21 -40 -41 -58 -59 -75 -76 -91 -92 -103 -107 -117 -118 -130 -131 -141 -143 0
-19 -38 -39 -56 -57 -73 -74 -89 -90 -104 -105 -117 -119 -130 -131 -141 -143 0
-20 -38 -40 -56 -57 -73 -74 -89 -90 -104 -105 -117 -119 -130 -131 -141 -143 0
-21 -38 -41 -56 -57 -73 -74 -89 -90 -104 -105 -117 -119 -130 -131 -141 -143 0
-20 -39 -40 -56 -58 -73 -74 -89 -90 -104 -105 -117 -119 -130 -131 -141 -143 0
-21 -39 -41 -56 -58 -73 -74 -89 -90 -104 -105 -117 -119 -130 -131 -141 -143 0
-21 -40 -41 -56 -59 -73 -74 -89 -90 -104 -105 -117 -119 -130 -131 -141 -143 0
-20 -39 -40 -57 -58 -73 -75 -89 -90 -104 -105 -117 -119 -130 -131 -141 -143 0
-21 -39 -41 -57 -58 -73 -75 -89 -90 -104 -105 -117 -119 -130 -131 -141 -143 0
-21 -40 -41 -57 -59 -73 -75 -89 -90 -104 -105 -117 -119 -130 -131 -141 -143 0
-21 -40 -41 -58 -59 -73 -76 -89 -90 -104 -105 -117 -119 -130 -131 -141 -143 0
-20 -39 -40 -57 -58 -74 -75 -89 -91 -104 -105 -117 -119 -130 -131 -141 -143 0
-21 -39 -41 -57 -58 -74 -75 -89 -91 -104 -105 -117 -119 -130 -131 -141 -143 0
-21 -40 -41 -57 -59 -74 -75 -89 -91 -104 -105 -117 -119 -130 -131 -141 -143 0
-21 -40 -41 -58 -59 -74 -76 -89 -91 -104 -105 -117 -119 -130 -131 -141 -143 0
-21 -40 -41 -58 -59 -75 -76 -89 -92 -104 -105 -117 -119 -130 -131 -141 -143 0
-20 -39 -40 -57 -58 -74 -75 -90 -91 -104 -106 -117 -119 -130 -131 -141 -143 0
-21 -39 -41 -57 -58 -74 -75 -90 -91 -104 -106 -117 -119 -130 -131 -141 -143 0
-21 -40 -41 -57 -59 -74 -75 -90 -91 -104 -106 -117 -119 -130 -131 -141 -143 0
-21 -40 -41 -58 -59 -74 -76 -90 -91 -104 -106 -117 -119 -130 -131 -141 -143 0
-21 -40 -41 -58 -59 -75 -76 -90 -92 -104 -106 -117 -119 -130 -131 -141 -143 0
-21 -40 -41 -58 -59 -75 -76 -91 -92 -104 -107 -117 -119 -130 -131 -141 -143 0
-20 -39 -40 -57 -58 -74 -75 -90 -91 -105 -106 -117 -120 -130 -131 -141 -143 0
-21 -39 -41 -57 -58 -74 -75 -90 -91 -105 -106 -117 -120 -130 -131 -141 -143 0
-21 -40 -41 -57 -59 -74 -75 -90 -91 -105 -106 -117 -120 -130 -131 -141 -143 0
-21 -40 -41 -58 -59 -74 -76 -90 -91 -105 -106 -117 -120 -130 -131 -141 -143 0
-21 -40 -41 -58 -59 -75 -76 -90 -92 -105 -106 -117 -120 -130 -131 -141 -143 0
-21 -40 -41 -58 -59 -75 -76 -91 -92 -105 -107 -117 -120 -130 -131 -141 -143 0
-21 -40 -41 -58 -59 -75 -76 -91 -92 -106 -107 -117 -121 -130 -131 -141 -143 0
-19 -38 -39 -56 -57 -73 -74 -89 -90 -104 -105 -118 -119 -130 -132 -141 -143 0
-20 -38 -40 -56 -57 -73 -74 -89 -90 -104 -105 -118 -119 -130 -132 -141 -143 0
-21 -38 -41 -56 -57 -73 -74 -89 -90 -104 -105 -118 -119 -130 -132 -141 -143 0
-20 -39 -40 -56 -58 -73 -74 -89 -90 -104 -105 -118 -119 -130 -132 -141 -143 0
-21 -39 -41 -56 -58 -73 -74 -89 -90 -104 -105 -118 -119 -130 -132 -141 -143 0
-21 -40 -41 -56 -59 -73 -74 -89 -90 -104 -105 -118 -119 -130 -132 -141 -143 0
-20 -39 -40 -57 -58 -73 -75 -89 -90 -104 -105 -118 -119 -130 -132 -141 -143 0
-21 -39 -41 -57 -58 -73 -75 -89 -90 -104 -105 -118 -119 -130 -132 -141 -143 0
-21 -40 -41 -57 -59 -73 -75 -89 -90 -104 -105 -118 -119 -130 -132 -141 -143 0
-21 -40 -41 -58 -59 -73 -76 -89 -90 -104 -105 -118 -119 -130 -132 -141 -143 0
-20 -39 -40 -57 -58 -74 -75 -89 -91 -104 -105 -118 -119 -130 -132 -141 -143 0
-21 -39 -41 -57 -58 -74 -75 -89 -91 -104 -105 -118 -119 -130 -132 -141 -143 0
-21 -40 -41 -57 -59 -74 -75 -89 -91 -104 -105 -118 -119 -130 -132 -141 -143 0
-21 -40 -41 -58 -59 -74 -76 -89 -91 -104 -105 -118 -119 -130 -132 -141 -143 0
-21 -40 -41 -58 -59 -75 -76 -89 -92 -104 -105 -118 -119 -130 -132 -141 -143 0
-20 -39 -40 -57 -58 -74 -75 -90 -91 -104 -106 -118 -119 -130 -132 -141 -143 0
-21 -39 -41 -57 -58 -74 -75 -90 -91 -104 -106 -118 -119 -130 -132 -141 -143 0
-21 -40 -41 -57 -59 -74 -75 -90 -91 -104 -106 -118 -119 -130 -132 -141 -143 0
-21 -40 -41 -58 -59 -74 -76 -90 -91 -104 -106 -118 -119 -130 -132 -141 -143 0
-21 -40 -41 -58 -59 -75 -76 -90 -92 -104 -106 -118 -119 -130 -132 -141 -143 0
-21 -40 -41 -58 -59 -75 -76 -91 -92 -104 -107 -118 -119 -130 -132 -141 -143 0
-20 -39 -40 -57 -58 -74 -75 -90 -91 -105 -106 -118 -120 -130 -132 -141 -143 0
-21 -39 -41 -57 -58 -74 -75 -90 -91 -105 -106 -118 -120 -130 -132 -141 -143 0
-21 -40 -41 -57 -59 -74 -75 -90 -91 -105 -106 -118 -120 -130 -132 -141 -143 0
-21 -40 -41 -58 -59 -74 -76 -90 -91 -105 -106 -118 -120 -130 -132 -141 -143 0
-21 -40 -41 -58 -59 -75 -76 -90 -92 -105 -106 -118 -120 -130 -132 -141 -143 0
-21 -40 -41 -58 -59 -75 -76 -91 -92 -105 -107 -118 -120 -130 -132 -141 -143 0
-21 -40 -41 -58 -59 -75 -76 -91 -92 -106 -107 -118 -121 -130 -132 -141 -143 0
-20 -39 -40 -57 -58 -74 -75 -90 -91 -105 -106 -119 -120 -130 -133 -141 -143 0
-21 -39 -41 -57 -58 -74 -75 -90 -91 -105 -106 -119 -120 -130 -133 -141 -143 0
-21 -40 -41 -57 -59 -74 -75 -90 -91 -105 -106 -119 -120 -130 -133 -141 -143 0
-21 -40 -41 -58 -59 -74 -76 -90 -91 -105 -106 -119 -120 -130 -133 -141 -143 0
-21 -40 -41 -58 -59 -75 -76 -90 -92 -105 -106 -119 -120 -130 -133 -141 -143 0
-21 -40 -41 -58 -59 -75 -76 -91 -92 -105 -107 -119 -120 -130 -133 -141 -143 0
-21 -40 -41 -58 -59 -75 -76 -91 -92 -106 -107 -119 -121 -130 -133 -141 -143 0
-21 -40 -41 -58 -59 -75 -76 -91 -92 -106 -107 -120 -121 -130 -134 -141 -143 0
-19 -38 -39 -56 -57 -73 -74 -89 -90 -104 -105 -118 -119 -131 -132 -141 -144 0
-20 -38 -40 -56 -57 -73 -74 -89 -90 -104 -105 -118 -119 -131 -132 -141 -144 0
-21 -38 -41 -56 -57 -73 -74 -89 -90 -104 -105 -118 -119 -131 -132 -141 -144 0
-20 -39 -40 -56 -58 -73 -74 -89 -90 -104 -105 -118 -119 -131 -132 -141 -144 0
-21 -39 -41 -56 -58 -73 -74 -89 -90 -104 -105 -118 -119 -131 -132 -141 -144 0
-21 -40 -41 -56 -59 -73 -74 -89 -90 -104 -105 -118 -119 -131 -132 -141 -144 0
-20 -39 -40 -57 -58 -73 -75 -89 -90 -104 -105 -118 -119 -131 -132 -141 -144 0
-21 -39 -41 -57 -58 -73 -75 -89 -90 -104 -105 -118 -119 -131 -132 -141 -144 0
-21 -40 -41 -57 -59 -73 -75 -89 -90 -104 -105 -118 -119 -131 -132 -141 -144 0
-21 -40 -41 -58 -59 -73 -76 -89 -90 -104 -105 -118 -119 -131 -132 -141 -144 0
-20 -39 -40 -57 -58 -74 -75 -89 -91 -104 -105 -118 -119 -131 -132 -141 -144 0
-21 -39 -41 -57 -58 -74 -75 -89 -91 -104 -105 -118 -119 -131 -132 -141 -144 0
-21 -40 -41 -57 -59 -74 -75 -89 -91 -104 -105 -118 -119 -131 -132 -141 -144 0
-21 -40 -41 -58 -59 -74 -76 -89 -91 -104 -105 -118 -119 -131 -132 -141 -144 0
-21 -40 -41 -58 -59 -75 -76 -89 -92 -104 -105 -118 -119 -131 -132 -141 -144 0
-20 -39 -40 -57 -58 -74 -75 -90 -91 -104 -106 -118 -119 -131 -132 -141 -144 0
-21 -39 -41 -57 -58 -74 -75 -90 -91 -104 -106 -118 -119 -131 -132 -141 -144 0
-21 -40 -41 -57 -59 -74 -75 -90 -91 -104 -106 -118 -119 -131 -132 -141 -144 0
-21 -40 -41 -58 -59 -74 -76 -90 -91 -104 -106 -118 -119 -131 -132 -141 -144 0
-21 -40 -41 -58 -59 -75 -76 -90 -92 -104 -106 -118 -119 -131 -132 -141 -144 0
-21 -40 -41 -58 -59 -75 -76 -91 -92 -104 -107 -118 -119 -131 -132 -141 -144 0
-20 -39 -40 -57 -58 -74 -75 -90 -91 -105 -106 -118 -120 -131 -132 -141 -144 0
-21 -39 -41 -57 -58 -74 -75 -90 -91 -105 -106 -118 -120 -131 -132 -141 -144 0
-21 -40 -41 -57 -59 -74 -75 -90 -91 -105 -106 -118 -120 -131 -132 -141 -144 0
-21 -40 -41 -58 -59 -74 -76 -90 -91 -105 -106 -118 -120 -131 -132 -141 -144 0
-21 -40 -41 -58 -59 -75 -76 -90 -92 -105 -106 -118 -120 -131 -132 -141 -144 0
-21 -40 -41 -58 -59 -75 -76 -91 -92 -105 -107 -118 -120 -131 -132 -141 -144 0
-21 -40 -41 -58 -59 -75 -76 -91 -92 -106 -107 -118 -121 -131 -132 -141 -144 0
-20 -39 -40 -57 -58 -74 -75 -90 -91 -105 -106 -119 -120 -131 -133 -141 -144 0
-21 -39 -41 -57 -58 -74 -75 -90 -91 -105 -106 -119 -120 -131 -133 -141 -144 0
-21 -40 -41 -57 -59 -74 -75 -90 -91 -105 -106 -119 -120 -131 -133 -141 -144 0
-21 -40 -41 -58 -59 -74 -76 -90 -91 -105 -106 -119 -120 -131 -133 -141 -144 0
-21 -40 -41 -58 -59 -75 -76 -90 -92 -105 -106 -119 -120 -131 -133 -141 -144 0
-21 -40 -41 -58 -59 -75 -76 -91 -92 -105 -107 -119 -120 -131 -133 -141 -144 0
-21 -40 -41 -58 -59 -75 -76 -91 -92 -106 -107 -119 -121 -131 -133 -141 -144 0
-21 -40 -41 -58 -59 -75 -76 -91 -92 -106 -107 -120 -121 -131 -134 -141 -144 0
-20 -39 -40 -57 -58 -74 -75 -90 -91 -105 -106 -119 -120 -132 -133 -141 -145 0
-21 -39 -41 -57 -58 -74 -75 -90 -91 -105 -106 -119 -120 -132 -133 -141 -145 0
-21 -40 -41 -57 -59 -74 -75 -90 -91 -105 -106 -119 -120 -132 -133 -141 -145 0
-21 -40 -41 -58 -59 -74 -76 -90 -91 -105 -106 -119 -120 -132 -133 -141 -145 0
-21 -40 -41 -58 -59 -75 -76 -90 -92 -105 -106 -119 -120 -132 -133 -141 -145 0
-21 -40 -41 -58 -59 -75 -76 -91 -92 -105 -107 -119 -120 -132 -133 -141 -145 0
-21 -40 -41 -58 -59 -75 -76 -91 -92 -106 -107 -119 -121 -132 -133 -141 -145 0
-21 -40 -41 -58 -59 -75 -76 -91 -92 -106 -107 -120 -121 -132 -134 -141 -145 0
-21 -40 -41 -58 -59 -75 -76 -91 -92 -106 -107 -120 -121 -133 -134 -141 -146 0
-18 -37 -38 -55 -56 -72 -73 -88 -89 -103 -104 -117 -118 -130 -131 -142 -143 0
-19 -37 -39 -55 -56 -72 -73 -88 -89 -103 -104 -117 -118 -130 -131 -142 -143 0
-20 -37 -40 -55 -56 -72 -73 -88 -89 -103 -104 -117 -118 -130 -131 -142 -143 0
-21 -37 -41 -55 -56 -72 -73 -88 -89 -103 -104 -117 -118 -130 -131 -142 -143 0
-19 -38 -39 -55 -57 -72 -73 -88 -89 -103 -104 -117 -118 -130 -131 -142 -143 0
-20 -38 -40 -55 -57 -72 -73 -88 -89 -103 -104 -117 -118 -130 -131 -142 -143 0
-21 -38 -41 -55 -57 -72 -73 -88 -89 -103 -104 -117 -118 -130 -131 -142 -143 0
-20 -39 -40 -55 -58 -72 -73 -88 -89 -103 -104 -117 -118 -130 -131 -142 -143 0
-21 -39 -41 -55 -58 -72 -73 -88 -89 -103 -104 -117 -118 -130 -131 -142 -143 0
-21 -40 -41 -55 -59 -72 -73 -88 -89 -103 -104 -117 -118 -130 -131 -142 -143 0
-19 -38 -39 -56 -57 -72 -74 -88 -89 -103 -104 -117 -118 -130 -131 -142 -143 0
-20 -38 -40 -56 -57 -72 -74 -88 -89 -103 -104 -117 -118 -130 -131 -142 -143 0
-21 -38 -41 -56 -57 -72 -74 -88 -89 -103 -104 -117 -118 -130 -131 -142 -143 0
-20 -39 -40 -56 -58 -72 -74 -88 -89 -103 -104 -117 -118 -130 -131 -142 -143 0
-21 -39 -41 -56 -58 -72 -74 -88 -89 -103 -104 -117 -118 -130 -131 -142 -143 0
-21 -40 -41 -56 -59 -72 -74 -88 -89 -103 -104 -117 -118 -130 -131 -142 -143 0
-20 -39 -40 -57 -58 -72 -75 -88 -89 -103 -104 -117 -118 -130 -131 -142 -143 0
-21 -39 -41 -57 -58 -72 -75 -88 -89 -103 -104 -117 -118 -130 -131 -142 -143 0
-21 -40 -41 -57 -59 -72 -75 -88 -89 -103 -104 -117 -118 -130 -131 -142 -143 0
-21 -40 -41 -58 -59 -72 -76 -88 -89 -103 -104 -117 -118 -130 -131 -142 -143 0
-19 -38 -39 -56 -57 -73 -74 -88 -90 -103 -104 -117 -118 -130 -131 -142 -143 0
-20 -38 -40 -56 -57 -73 -74 -88 -90 -103 -104 -117 -118 -130 -131 -142 -143 0
-21 -38 -41 -56 -57 -73 -74 -88 -90 -103 -104 -117 -118 -130 -131 -142 -143 0
-20 -39 -40 -56 -58 -73 -74 -88 -90 -103 -104 -117 -118 -130 -131 -142 -143 0
-21 -39 -41 -56 -58 -73 -74 -88 -90 -103 -104 -117 -118 -130 -131 -142 -143 0
-21 -40 -41 -56 -59 -73 -74 -88 -90 -103 -104 -117 -118 -130 -131 -142 -143 0
-20 -39 -40 -57 -58 -73 -75 -88 -90 -103 -104 -117 -118 -130 -131 -142 -143 0
-21 -39 -41 -57 -58 -73 -75 -88 -90 -103 -104 -117 -118 -130 -131 -142 -143 0
-21 -40 -41 -57 -59 -73 -75 -88 -90 -103 -104 -117 -118 -130 -131 -142 -143 0
-21 -40 -41 -58 -59 -73 -76 -88 -90 -103 -104 -117 -118 -130 -131 -142 -143 0
-20 -39 -40 -57 -58 -74 -75 -88 -91 -103 -104 -117 -118 -130 -131 -142 -143 0
-21 -39 -41 -57 -58 -74 -75 -88 -91 -103 -104 -117 -118 -130 -131 -142 -143 0
-21 -40 -41 -57 -59 -74 -75 -88 -91 -103 -104 -117 -118 -130 -131 -142 -143 0
-21 -40 -41 -58 -59 -74 -76 -88 -91 -103 -104 -117 -118 -130 -131 -142 -143 0
-21 -40 -41 -58 -59 -75 -76 -88 -92 -103 -104 -117 -118 -130 -131 -142 -143 0
-19 -38 -39 -56 -57 -73 -74 -89 -90 -103 -105 -117 -118 -130 -131 -142 -143 0
-20 -38 -40 -56 -57 -73 -74 -89 -90 -103 -105 -117 -118 -130 -131 -142 -143 0
-21 -38 -41 -56 -57 -73 -74 -89 -90 -103 -105 -117 -118 -130 -131 -142 -143 0
-20 -39 -40 -56 -58 -73 -74 -89 -90 -103 -105 -117 -118 -130 -131 -142 -143 0
-21 -39 -41 -56 -58 -73 -74 -89 -90 -103 -105 -117 -118 -130 -131 -142 -143 0
-21 -40 -41 -56 -59 -73 -74 -89 -90 -103 -105 -117 -118 -130 -131 -142 -143 0
-20 -39 -40 -57 -58 -73 -75 -89 -90 -103 -105 -117 -118 -130 -131 -142 -143 0
-21 -39 -41 -57 -58 -73 -75 -89 -90 -103 -105 -117 -118 -130 -131 -142 -143 0
-21 -40 -41 -57 -59 -73 -75 -89 -90 -103 -105 -117 -118 -130 -131 -142 -143 0
-21 -40 -41 -58 -59 -73 -76 -89 -90 -103 -105 -117 -118 -130 -131 -142 -143 0
-20 -39 -40 -57 -58 -74 -75 -89 -91 -103 -105 -117 -118 -130 -131 -142 -143 0
-21 -39 -41 -57 -58 -74 -75 -89 -91 -103 -105 -117 -118 -130 -131 -142 -143 0
-21 -40 -41 -57 -59 -74 -75 -89 -91 -103 -105 -117 -118 -130 -131 -142 -143 0
-21 -40 -41 -58 -59 -74 -76 -89 -91 -103 -105 -117 -118 -130 -131 -142 -143 0
-21 -40 -41 -58 -59 -75 -76 -89 -92 -103 -105 -117 -118 -130 -131 -142 -143 0
-20 -39 -40 -57 -58 -74 -75 -90 -91 -103 -106 -117 -118 -130 -131 -142 -143 0
-21 -39 -41 -57 -58 -74 -75 -90 -91 -103 -106 -117 -118 -130 -131 -142 -143 0
-21 -40 -41 -57 -59 -74 -75 -90 -91 -103 -106 -117 -118 -130 -131 -142 -143 0
-21 -40 -41 -58 -59 -74 -76 -90 -91 -103 -106 -117 -118 -130 -131 -142 -143 0
-21 -40 -41 -58 -59 -75 -76 -90 -92 -103 -106 -117 -118 -130 -131 -142 -143 0
-21 -40 -41 -58 -59 -75 -76 -91 -92 -103 -107 -117 -118 -130 -131 -142 -143 0
-19 -38 -39 -56 -57 -73 -74 -89 -90 -104 -105 -117 -119 -130 -131 -142 -143 0
-20 -38 -40 -56 -57 -73 -74 -89 -90 -104 -105 -117 -119 -130 -131 -142 -143 0
-21 -38 -41 -56 -57 -73 -74 -89 -90 -104 -105 -117 -119 -130 -131 -142 -143 0
-20 -39 -40 -56 -58 -73 -74 -89 -90 -104 -105 -117 -119 -130 -131 -142 -143 0
-21 -39 -41 -56 -58 -73 -74 -89 -90 -104 -105 -117 -119 -130 -131 -142 -143 0
-21 -40 -41 -56 -59 -73 -74 -89 -90 -104 -105 -117 -119 -130 -131 -142 -143 0
-20 -39 -40 -57 -58 -73 -75 -89 -90 -104 -105 -117 -119 -130 -131 -142 -143 0
-21 -39 -41 -57 -58 -73 -75 -89 -90 -104 -105 -117 -119 -130 -131 -142 -143 0
-21 -40 -41 -57 -59 -73 -75 -89 -90 -104 -105 -117 -119 -130 -131 -142 -143 0
-21 -40 -41 -58 -59 -73 -76 -89 -90 -104 -105 -117 -119 -130 -131 -142 -143 0
-20 -39 -40 -57 -58 -74 -75 -89 -91 -104 -105 -117 -119 -130 -131 -142 -143 0
-21 -39 -41 -57 -58 -74 -75 -89 -91 -104 -105 -117 -119 -130 -131 -142 -143 0
-21 -40 -41 -57 -59 -74 -75 -89 -91 -104 -105 -117 -119 -130 -131 -142 -143 0
-21 -40 -41 -58 -59 -74 -76 -89 -91 -104 -105 -117 -119 -130 -131 -142 -143 0
-21 -40 -41 -58 -59 -75 -76 -89 -92 -104 -105 -117 -119 -130 -131 -142 -143 0
-20 -39 -40 -57 -58 -74 -75 -90 -91 -104 -106 -117 -119 -130 -131 -142 -143 0
-21 -39 -41 -57 -58 -74 -75 -90 -91 -104 -106 -117 -119 -130 -131 -142 -143 0
-21 -40 -41 -57 -59 -74 -75 -90 -91 -104 -106 -117 -119 -130 -131 -142 -143 0
-21 -40 -41 -58 -59 -74 -76 -90 -91 -104 -106 -117 -119 -130 -131 -142 -143 0
-21 -40 -41 -58 -59 -75 -76 -90 -92 -104 -106 -117 -119 -130 -131 -142 -143 0
-21 -40 -41 -58 -59 -75 -76 -91 -92 -104 -107 -117 -119 -130 -131 -142 -143 0
-20 -39 -40 -57 -58 -74 -75 -90 -91 -105 -106 -117 -120 -130 -131 -142 -143 0
-21 -39 -41 -57 -58 -74 -75 -90 -91 -105 -106 -117 -120 -130 -131 -142 -143 0
-21 -40 -41 -57 -59 -74 -75 -90 -91 -105 -106 -117 -120 -130 -131 -142 -143 0
-21 -40 -41 -58 -59 -74 -76 -90 -91 -105 -106 -117 -120 -130 -131 -142 -143 0
-21 -40 -41 -58 -59 -75 -76 -90 -92 -105 -106 -117 -120 -130 -131 -142 -143 0
-21 -40 -41 -58 -59 -75 -76 -91 -92 -105 -107 -117 -120 -130 -131 -142 -143 0
-21 -40 -41 -58 -59 -75 -76 -91 -92 -106 -107 -117 -121 -130 -131 -142 -143 0
-19 -38 -39 -56 -57 -73 -74 -89 -90 -104 -105 -118 -119 -130 -132 -142 -143 0
-20 -38 -40 -56 -57 -73 -74 -89 -90 -104 -105 -118 -119 -130 -132 -142 -143 0
-21 -38 -41 -56 -57 -73 -74 -89 -90 -104 -105 -118 -119 -130 -132 -142 -143 0
-20 -39 -40 -56 -58 -73 -74 -89 -90 -104 -105 -118 -119 -130 -132 -142 -143 0
-21 -39 -41 -56 -58 -73 -74 -89 -90 -104 -105 -118 -119 -130 -132 -142 -143 0
-21 -40 -41 -56 -59 -73 -74 -89 -90 -104 -105 -118 -119 -130 -132 -142 -143 0
-20 -39 -40 -57 -58 -73 -75 -89 -90 -104 -105 -118 -119 -130 -132 -142 -143 0
-21 -39 -41 -57 -58 -73 -75 -89 -90 -104 -105 -118 -119 -130 -132 -142 -143 0
-21 -40 -41 -57 -59 -73 -75 -89 -90 -104 -105 -118 -119 -130 -132 -142 -143 0
-21 -40 -41 -58 -59 -73 -76 -89 -90 -104 -105 -118 -119 -130 -132 -142 -143 0
-20 -39 -40 -57 -58 -74 -75 -89 -91 -104 -105 -118 -119 -130 -132 -142 -143 0
-21 -39 -41 -57 -58 -74 -75 -89 -91 -104 -105 -118 -119 -130 -132 -142 -143 0
-21 -40 -41 -57 -59 -74 -75 -89 -91 -104 -105 -118 -119 -130 -132 -142 -143 0
-21 -40 -41 -58 -59 -74 -76 -89 -91 -104 -105 -118 -119 -130 -132 -142 -143 0
-21 -40 -41 -58 -59 -75 -76 -89 -92 -104 -105 -118 -119 -130 -132 -142 -143 0
-20 -39 -40 -57 -58 -74 -75 -90 -91 -104 -106 -118 -119 -130 -132 -142 -143 0
-21 -39 -41 -57 -58 -74 -75 -90 -91 -104 -106 -118 -119 -130 -132 -142 -143 0
-21 -40 -41 -57 -59 -74 -75 -90 -91 -104 -106 -118 -119 -130 -132 -142 -143 0
-21 -40 -41 -58 -59 -74 -76 -90 -91 -104 -106 -118 -119 -130 -132 -142 -143 0
-21 -40 -41 -58 -59 -75 -76 -90 -92 -104 -106 -118 -119 -130 -132 -142 -143 0
-21 -40 -41 -58 -59 -75 -76 -91 -92 -104 -107 -118 -119 -130 -132 -142 -143 0
-20 -39 -40 -57 -58 -74 -75 -90 -91 -105 -106 -118 -120 -130 -132 -142 -143 0
-21 -39 -41 -57 -58 -74 -75 -90 -91 -105 -106 -118 -120 -130 -132 -142 -143 0
-21 -40 -41 -57 -59 -74 -75 -90 -91 -105 -106 -118 -120 -130 -132 -142 -143 0
-21 -40 -41 -58 -59 -74 -76 -90 -91 -105 -106 -118 -120 -130 -132 -142 -143 0
-21 -40 -41 -58 -59 -75 -76 -90 -92 -105 -106 -118 -120 -130 -132 -142 -143 0
-21 -40 -41 -58 -59 -75 -76 -91 -92 -105 -107 -118 -120 -130 -132 -142 -143 0
-21 -40 -41 -58 -59 -75 -76 -91 -92 -106 -107 -118 -121 -130 -132 -142 -143 0
-20 -39 -40 -57 -58 -74 -75 -90 -91 -105 -106 -119 -120 -130 -133 -142 -143 0
-21 -39 -41 -57 -58 -74 -75 -90 -91 -105 -106 -119 -120 -130 -133 -142 -143 0
-21 -40 -41 -57 -59 -74 -75 -90 -91 -105 -106 -119 -120 -130 -133 -142 -143 0
-21 -40 -41 -58 -59 -74 -76 -90 -91 -105 -106 -119 -120 -130 -133 -142 -143 0
-21 -40 -41 -58 -59 -75 -76 -90 -92 -105 -106 -119 -120 -130 -133 -142 -143 0
-21 -40 -41 -58 -59 -75 -76 -91 -92 -105 -107 -119 -120 -130 -133 -142 -143 0
-21 -40 -41 -58 -59 -75 -76 -91 -92 -106 -107 -119 -121 -130 -133 -142 -143 0
-21 -40 -41 -58 -59 -75 -76 -91 -92 -106 -107 -120 -121 -130 -134 -142 -143 0
-19 -38 -39 -56 -57 -73 -74 -89 -90 -104 -105 -118 -119 -131 -132 -142 -144 0
-20 -38 -40 -56 -57 -73 -74 -89 -90 -104 -105 -118 -119 -131 -132 -142 -144 0
-21 -38 -41 -56 -57 -73 -74 -89 -90 -104 -105 -118 -119 -131 -132 -142 -144 0
-20 -39 -40 -56 -58 -73 -74 -89 -90 -104 -105 -118 -119 -131 -132 -142 -144 0
-21 -39 -41 -56 -58 -73 -74 -89 -90 -104 -105 -118 -119 -131 -132 -142 -144 0
-21 -40 -41 -56 -59 -73 -74 -89 -90 -104 -105 -118 -119 -131 -132 -142 -144 0
-20 -39 -40 -57 -58 -73 -75 -89 -90 -104 -105 -118 -119 -131 -132 -142 -144 0
-21 -39 -41 -57 -58 -73 -75 -89 -90 -104 -105 -118 -119 -131 -132 -142 -144 0
-21 -40 -41 -57 -59 -73 -75 -89 -90 -104 -105 -118 -119 -131 -132 -142 -144 0
-21 -40 -41 -58 -59 -73 -76 -89 -90 -104 -105 -118 -119 -131 -132 -142 -144 0
-20 -39 -40 -57 -58 -74 -75 -89 -91 -104 -105 -118 -119 -131 -132 -142 -144 0
-21 -39 -41 -57 -58 -74 -75 -89 -91 -104 -105 -118 -119 -131 -132 -142 -144 0
-21 -40 -41 -57 -59 -74 -75 -89 -91 -104 -105 -118 -119 -131 -132 -142 -144 0
-21 -40 -41 -58 -59 -74 -76 -89 -91 -104 -105 -118 -119 -131 -132 -142 -144 0
-21 -40 -41 -58 -59 -75 -76 -89 -92 -104 -105 -118 -119 -131 -132 -142 -144 0
-20 -39 -40 -57 -58 -74 -75 -90 -91 -104 -106 -118 -119 -131 -132 -142 -144 0
-21 -39 -41 -57 -58 -74 -75 -90 -91 -104 -106 -118 -119 -131 -132 -142 -144 0
-21 -40 -41 -57 -59 -74 -75 -90 -91 -104 -106 -118 -119 -131 -132 -142 -144 0
-21 -40 -41 -58 -59 -74 -76 -90 -91 -104 -106 -118 -119 -131 -132 -142 -144 0
-21 -40 -41 -58 -59 -75 -76 -90 -92 -104 -106 -118 -119 -131 -132 -142 -144 0
-21 -40 -41 -58 -59 -75 -76 -91 -92 -104 -107 -118 -119 -131 -132 -142 -144 0
-20 -39 -40 -57 -58 -74 -75 -90 -91 -105 -106 -118 -120 -131 -132 -142 -144 0
-21 -39 -41 -57 -58 -74 -75 -90 -91 -105 -106 -118 -120 -131 -132 -142 -144 0
-21 -40 -41 -57 -59 -74 -75 -90 -91 -105 -106 -118 -120 -131 -132 -142 -144 0
-21 -40 -41 -58 -59 -74 -76 -90 -91 -105 -106 -118 -120 -131 -132 -142 -144 0
-21 -40 -41 -58 -59 -75 -76 -90 -92 -105 -106 -118 -120 -131 -132 -142 -144 0
-21 -40 -41 -58 -59 -75 -76 -91 -92 -105 -107 -118 -120 -131 -132 -142 -144 0
-21 -40 -41 -58 -59 -75 -76 -91 -92 -106 -107 -118 -121 -131 -132 -142 -144 0
-20 -39 -40 -57 -58 -74 -75 -90 -91 -105 -106 -119 -120 -131 -133 -142 -144 0
-21 -39 -41 -57 -58 -74 -75 -90 -91 -105 -106 -119 -120 -131 -133 -142 -144 0
-21 -40 -41 -57 -59 -74 -75 -90 -91 -105 -106 -119 -120 -131 -133 -142 -144 0
-21 -40 -41 -58 -59 -74 -76 -90 -91 -105 -106 -119 -120 -131 -133 -142 -144 0
-21 -40 -41 -58 -59 -75 -76 -90 -92 -105 -106 -119 -120 -131 -133 -142 -144 0
-21 -40 -41 -58 -59 -75 -76 -91 -92 -105 -107 -119 -120 -131 -133 -142 -144 0
-21 -40 -41 -58 -59 -75 -76 -91 -92 -106 -107 -119 -121 -131 -133 -142 -144 0
-21 -40 -41 -58 -59 -75 -76 -91 -92 -106 -107 -120 -121 -131 -134 -142 -144 0
-20 -39 -40 -57 -58 -74 -75 -90 -91 -105 -106 -119 -120 -132 -133 -142 -145 0
-21 -39 -41 -57 -58 -74 -75 -90 -91 -105 -106 -119 -120 -132 -133 -142 -145 0
-21 -40 -41 -57 -59 -74 -75 -90 -91 -105 -106 -119 -120 -132 -133 -142 -145 0
-21 -40 -41 -58 -59 -74 -76 -90 -91 -105 -106 -119 -120 -132 -133 -142 -145 0
-21 -40 -41 -58 -59 -75 -76 -90 -92 -105 -106 -119 -120 -132 -133 -142 -145 0
-21 -40 -41 -58 -59 -75 -76 -91 -92 -105 -107 -119 -120 -132 -133 -142 -145 0
-21 -40 -41 -58 -59 -75 -76 -91 -92 -106 -107 -119 -121 -132 -133 -142 -145 0
-21 -40 -41 -58 -59 -75 -76 -91 -92 -106 -107 -120 -121 -132 -134 -142 -145 0
-21 -40 -41 -58 -59 -75 -76 -91 -92 -106 -107 -120 -121 -133 -134 -142 -146 0
-19 -38 -39 -56 -57 -73 -74 -89 -90 -104 -105 -118 -119 -131 -132 -143 -144 0
-20 -38 -40 -56 -57 -73 -74 -89 -90 -104 -105 -118 -119 -131 -132 -143 -144 0
-21 -38 -41 -56 -57 -73 -74 -89 -90 -104 -105 -118 -119 -131 -132 -143 -144 0
-20 -39 -40 -56 -58 -73 -74 -89 -90 -104 -105 -118 -119 -131 -132 -143 -144 0
-21 -39 -41 -56 -58 -73 -74 -89 -90 -104 -105 -118 -119 -131 -132 -143 -144 0
-21 -40 -41 -56 -59 -73 -74 -89 -90 -104 -105 -118 -119 -131 -132 -143 -144 0
-20 -39 -40 -57 -58 -73 -75 -89 -90 -104 -105 -118 -119 -131 -132 -143 -144 0
-21 -39 -41 -57 -58 -73 -75 -89 -90 -104 -105 -118 -119 -131 -132 -143 -144 0
-21 -40 -41 -57 -59 -73 -75 -89 -90 -104 -105 -118 -119 -131 -132 -143 -144 0
-21 -40 -41 -58 -59 -73 -76 -89 -90 -104 -105 -118 -119 -131 -132 -143 -144 0
-20 -39 -40 -57 -58 -74 -75 -89 -91 -104 -105 -118 -119 -131 -132 -143 -144 0
-21 -39 -41 -57 -58 -74 -75 -89 -91 -104 -105 -118 -119 -131 -132 -143 -144 0
-21 -40 -41 -57 -59 -74 -75 -89 -91 -104 -105 -118 -119 -131 -132 -143 -144 0
-21 -40 -41 -58 -59 -74 -76 -89 -91 -104 -105 -118 -119 -131 -132 -143 -144 0
-21 -40 -41 -58 -59 -75 -76 -89 -92 -104 -105 -118 -119 -131 -132 -143 -144 0
-20 -39 -40 -57 -58 -74 -75 -90 -91 -104 -106 -118 -119 -131 -132 -143 -144 0
-21 -39 -41 -57 -58 -74 -75 -90 -91 -104 -106 -118 -119 -131 -132 -143 -144 0
-21 -40 -41 -57 -59 -74 -75 -90 -91 -104 -106 -118 -119 -131 -132 -143 -144 0
-21 -40 -41 -58 -59 -74 -76 -90 -91 -104 -106 -118 -119 -131 -132 -143 -144 0
-21 -40 -41 -58 -59 -75 -76 -90 -92 -104 -106 -118 -119 -131 -132 -143 -144 0
-21 -40 -41 -58 -59 -75 -76 -91 -92 -104 -107 -118 -119 -131 -132 -143 -144 0
-20 -39 -40 -57 -58 -74 -75 -90 -91 -105 -106 -118 -120 -131 -132 -143 -144 0
-21 -39 -41 -57 -58 -74 -75 -90 -91 -105 -106 -118 -120 -131 -132 -143 -144 0
-21 -40 -41 -57 -59 -74 -75 -90 -91 -105 -106 -118 -120 -131 -132 -143 -144 0
-21 -40 -41 -58 -59 -74 -76 -90 -91 -105 -106 -118 -120 -131 -132 -143 -144 0
-21 -40 -41 -58 -59 -75 -76 -90 -92 -105 -106 -118 -120 -131 -132 -143 -144 0
-21 -40 -41 -58 -59 -75 -76 -91 -92 -105 -107 -118 -120 -131 -132 -143 -144 0
-21 -40 -41 -58 -59 -75 -76 -91 -92 -106 -107 -118 -121 -131 -132 -143 -144 0
-20 -39 -40 -57 -58 -74 -75 -90 -91 -105 -106 -119 -120 -131 -133 -143 -144 0
-21 -39 -41 -57 -58 -74 -75 -90 -91 -105 -106 -119 -120 -131 -133 -143 -144 0
-21 -40 -41 -57 -59 -74 -75 -90 -91 -105 -106 -119 -120 -131 -133 -143 -144 0
-21 -40 -41 -58 -59 -74 -76 -90 -91 -105 -106 -119 -120 -131 -133 -143 -144 0
-21 -40 -41 -58 -59 -75 -76 -90 -92 -105 -106 -119 -120 -131 -133 -143 -144 0
-21 -40 -41 -58 -59 -75 -76 -91 -92 -105 -107 -119 -120 -131 -133 -143 -144 0
-21 -40 -41 -58 -59 -75 -76 -91 -92 -106 -107 -119 -121 -131 -133 -143 -144 0
-21 -40 -41 -58 -59 -75 -76 -91 -92 -106 -107 -120 -121 -131 -134 -143 -144 0
-20 -39 -40 -57 -58 -74 -75 -90 -91 -105 -106 -119 -120 -132 -133 -143 -145 0
-21 -39 -41 -57 -58 -74 -75 -90 -91 -105 -106 -119 -120 -132 -133 -143 -145 0
-21 -40 -41 -57 -59 -74 -75 -90 -91 -105 -106 -119 -120 -132 -133 -143 -145 0
-21 -40 -41 -58 -59 -74 -76 -90 -91 -105 -106 -119 -120 -132 -133 -143 -145 0
-21 -40 -41 -58 -59 -75 -76 -90 -92 -105 -106 -119 -120 -132 -133 -143 -145 0
-21 -40 -41 -58 -59 -75 -76 -91 -92 -105 -107 -119 -120 -132 -133 -143 -145 0
-21 -40 -41 -58 -59 -75 -76 -91 -92 -106 -107 -119 -121 -132 -133 -143 -145 0
-21 -40 -41 -58 -59 -75 -76 -91 -92 -106 -107 -120 -121 -132 -134 -143 -145 0
-21 -40 -41 -58 -59 -75 -76 -91 -92 -106 -107 -120 -121 -133 -134 -143 -146 0
-20 -39 -40 -57 -58 -74 -75 -90 -91 -105 -106 -119 -120 -132 -133 -144 -145 0
-21 -39 -41 -57 -58 -74 -75 -90 -91 -105 -106 -119 -120 -132 -133 -144 -145 0
-21 -40 -41 -57 -59 -74 -75 -90 -91 -105 -106 -119 -120 -132 -133 -144 -145 0
-21 -40 -41 -58 -59 -74 -76 -90 -91 -105 -106 -119 -120 -132 -133 -144 -145 0
-21 -40 -41 -58 -59 -75 -76 -90 -92 -105 -106 -119 -120 -132 -133 -144 -145 0
-21 -40 -41 -58 -59 -75 -76 -91 -92 -105 -107 -119 -120 -132 -133 -144 -145 0
-21 -40 -41 -58 -59 -75 -76 -91 -92 -106 -107 -119 -121 -132 -133 -144 -145 0
-21 -40 -41 -58 -59 -75 -76 -91 -92 -106 -107 -120 -121 -132 -134 -144 -145 0
-21 -40 -41 -58 -59 -75 -76 -91 -92 -106 -107 -120 -121 -133 -134 -144 -146 0
-21 -40 -41 -58 -59 -75 -76 -91 -92 -106 -107 -120 -121 -133 -134 -145 -146 0
-18 -37 -38 -55 -56 -72 -73 -88 -89 -103 -104 -117 -118 -130 -131 -154 -155 0
-19 -37 -39 -55 -56 -72 -73 -88 -89 -103 -104 -117 -118 -130 -131 -154 -155 0
-20 -37 -40 -55 -56 -72 -73 -88 -89 -103 -104 -117 -118 -130 -131 -154 -155 0
-21 -37 -41 -55 -56 -72 -73 -88 -89 -103 -104 -117 -118 -130 -131 -154 -155 0
-19 -38 -39 -55 -57 -72 -73 -88 -89 -103 -104 -117 -118 -130 -131 -154 -155 0
-20 -38 -40 -55 -57 -72 -73 -88 -89 -103 -104 -117 -118 -130 -131 -154 -155 0
-21 -38 -41 -55 -57 -72 -73 -88 -89 -103 -104 -117 -118 -130 -131 -154 -155 0
-20 -39 -40 -55 -58 -72 -73 -88 -89 -103 -104 -117 -118 -130 -131 -154 -155 0
-21 -39 -41 -55 -58 -72 -73 -88 -89 -103 -104 -117 -118 -130 -131 -154 -155 0
-21 -40 -41 -55 -59 -72 -73 -88 -89 -103 -104 -117 -118 -130 -131 -154 -155 0
-19 -38 -39 -56 -57 -72 -74 -88 -89 -103 -104 -117 -118 -130 -131 -154 -155 0
-20 -38 -40 -56 -57 -72 -74 -88 -89 -103 -104 -117 -118 -130 -131 -154 -155 0
-21 -38 -41 -56 -57 -72 -74 -88 -89 -103 -104 -117 -118 -130 -131 -154 -155 0
-20 -39 -40 -56 -58 -72 -74 -88 -89 -103 -104 -117 -118 -130 -131 -154 -155 0
-21 -39 -41 -56 -58 -72 -74 -88 -89 -103 -104 -117 -118 -130 -131 -154 -155 0
-21 -40 -41 -56 -59 -72 -74 -88 -89 -103 -104 -117 -118 -130 -131 -154 -155 0
-20 -39 -40 -57 -58 -72 -75 -88 -89 -103 -104 -117 -118 -130 -131 -154 -155 0
-21 -39 -41 -57 -58 -72 -75 -88 -89 -103 -104 -117 -118 -130 -131 -154 -155 0
-21 -40 -41 -57 -59 -72 -75 -88 -89 -103 -104 -117 -118 -130 -131 -154 -155 0
-21 -40 -41 -58 -59 -72 -76 -88 -89 -103 -104 -117 -118 -130 -131 -154 -155 0
-19 -38 -39 -56 -57 -73 -74 -88 -90 -103 -104 -117 -118 -130 -131 -154 -155 0
-20 -38 -40 -56 -57 -73 -74 -88 -90 -103 -104 -117 -118 -130 -131 -154 -155 0
-21 -38 -41 -56 -57 -73 -74 -88 -90 -103 -104 -117 -118 -130 -131 -154 -155 0
-20 -39 -40 -56 -58 -73 -74 -88 -90 -103 -104 -117 -118 -130 -131 -154 -155 0
-21 -39 -41 -56 -58 -73 -74 -88 -90 -103 -104 -117 -118 -130 -131 -154 -155 0
-21 -40 -41 -56 -59 -73 -74 -88 -90 -103 -104 -117 -118 -130 -131 -154 -155 0
-20 -39 -40 -57 -58 -73 -75 -88 -90 -103 -104 -117 -118 -130 -131 -154 -155 0
-21 -39 -41 -57 -58 -73 -75 -88 -90 -103 -104 -117 -118 -130 -131 -154 -155 0
-21 -40 -41 -57 -59 -73 -75 -88 -90 -103 -104 -117 -118 -130 -131 -154 -155 0
-21 -40 -41 -58 -59 -73 -76 -88 -90 -103 -104 -117 -118 -130 -131 -154 -155 0
-20 -39 -40 -57 -58 -74 -75 -88 -91 -103 -104 -117 -118 -130 -131 -154 -155 0
-21 -39 -41 -57 -58 -74 -75 -88 -91 -103 -104 -117 -118 -130 -131 -154 -155 0
-21 -40 -41 -57 -59 -74 -75 -88 -91 -103 -104 -117 -118 -130 -131 -154 -155 0
-21 -40 -41 -58 -59 -74 -76 -88 -91 -103 -104 -117 -118 -130 -131 -154 -155 0
-21 -40 -41 -58 -59 -75 -76 -88 -92 -103 -104 -117 -118 -130 -131 -154 -155 0
-19 -38 -39 -56 -57 -73 -74 -89 -90 -103 -105 -117 -118 -130 -131 -154 -155 0
-20 -38 -40 -56 -57 -73 -74 -89 -90 -103 -105 -117 -118 -130 -131 -154 -155 0
-21 -38 -41 -56 -57 -73 -74 -89 -90 -103 -105 -117 -118 -130 -131 -154 -155 0
-20 -39 -40 -56 -58 -73 -74 -89 -90 -103 -105 -117 -118 -130 -131 -154 -155 0
-21 -39 -41 -56 -58 -73 -74 -89 -90 -103 -105 -117 -118 -130 -131 -154 -155 0
-21 -40 -41 -56 -59 -73 -74 -89 -90 -103 -105 -117 -118 -130 -131 -154 -155 0
-20 -39 -40 -57 -58 -73 -75 -89 -90 -103 -105 -117 -118 -130 -131 -154 -155 0
-21 -39 -41 -57 -58 -73 -75 -89 -90 -103 -105 -117 -118 -130 -131 -154 -155 0
-21 -40 -41 -57 -59 -73 -75 -89 -90 -103 -105 -117 -118 -130 -131 -154 -155 0
-21 -40 -41 -58 -59 -73 -76 -89 -90 -103 -105 -117 -118 -130 -131 -154 -155 0
-20 -39 -40 -57 -58 -74 -75 -89 -91 -103 -105 -117 -118 -130 -131 -154 -155 0
-21 -39 -41 -57 -58 -74 -75 -89 -91 -103 -105 -117 -118 -130 -131 -154 -155 0
-21 -40 -41 -57 -59 -74 -75 -89 -91 -103 -105 -117 -118 -130 -131 -154 -155 0
-21 -40 -41 -58 -59 -74 -76 -89 -91 -103 -105 -117 -118 -130 -131 -154 -155 0
-21 -40 -41 -58 -59 -75 -76 -89 -92 -103 -105 -117 -118 -130 -131 -154 -155 0
-20 -39 -40 -57 -58 -74 -75 -90 -91 -103 -106 -117 -118 -130 -131 -154 -155 0
-21 -39 -41 -57 -58 -74 -75 -90 -91 -103 -106 -117 -118 -130 -131 -154 -155 0
-21 -40 -41 -57 -59 -74 -75 -90 -91 -103 -106 -117 -118 -130 -131 -154 -155 0
-21 -40 -41 -58 -59 -74 -76 -90 -91 -103 -106 -117 -118 -130 -131 -154 -155 0
-21 -40 -41 -58 -59 -75 -76 -90 -92 -103 -106 -117 -118 -130 -131 -154 -155 0
-21 -40 -41 -58 -59 -75 -76 -91 -92 -103 -107 -117 -118 -130 -131 -154 -155 0
-19 -38 -39 -56 -57 -73 -74 -89 -90 -104 -105 -117 -119 -130 -131 -154 -155 0
-20 -38 -40 -56 -57 -73 -74 -89 -90 -104 -105 -117 -119 -130 -131 -154 -155 0
-21 -38 -41 -56 -57 -73 -74 -89 -90 -104 -105 -117 -119 -130 -131 -154 -155 0
-20 -39 -40 -56 -58 -73 -74 -89 -90 -104 -105 -117 -119 -130 -131 -154 -155 0
-21 -39 -41 -56 -58 -73 -74 -89 -90 -104 -105 -117 -119 -130 -131 -154 -155 0
-21 -40 -41 -56 -59 -73 -74 -89 -90 -104 -105 -117 -119 -130 -131 -154 -155 0
-20 -39 -40 -57 -58 -73 -75 -89 -90 -104 -105 -117 -119 -130 -131 -154 -155 0
-21 -39 -41 -57 -58 -73 -75 -89 -90 -104 -105 -117 -119 -130 -131 -154 -155 0
-21 -40 -41 -57 -59 -73 -75 -89 -90 -104 -105 -117 -119 -130 -131 -154 -155 0
-21 -40 -41 -58 -59 -73 -76 -89 -90 -104 -105 -117 -119 -130 -131 -154 -155 0
-20 -39 -40 -57 -58 -74 -75 -89 -91 -104 -105 -117 -119 -130 -131 -154 -155 0
-21 -39 -41 -57 -58 -74 -75 -89 -91 -104 -105 -117 -119 -130 -131 -154 -155 0
-21 -40 -41 -57 -59 -74 -75 -89 -91 -104 -105 -117 -119 -130 -131 -154 -155 0
-21 -40 -41 -58 -59 -74 -76 -89 -91 -104 -105 -117 -119 -130 -131 -154 -155 0
-21 -40 -41 -58 -59 -75 -76 -89 -92 -104 -105 -117 -119 -130 -131 -154 -155 0
-20 -39 -40 -57 -58 -74 -75 -90 -91 -104 -106 -117 -119 -130 -131 -154 -155 0
-21 -39 -41 -57 -58 -74 -75 -90 -91 -104 -106 -117 -119 -130 -131 -154 -155 0
-21 -40 -41 -57 -59 -74 -75 -90 -91 -104 -106 -117 -119 -130 -131 -154 -155 0
-21 -40 -41 -58 -59 -74 -76 -90 -91 -104 -106 -117 -119 -130 -131 -154 -155 0
-21 -40 -41 -58 -59 -75 -76 -90 -92 -104 -106 -117 -119 -130 -131 -154 -155 0
-21 -40 -41 -58 -59 -75 -76 -91 -92 -104 -107 -117 -119 -130 -131 -154 -155 0
-20 -39 -40 -57 -58 -74 -75 -90 -91 -105 -106 -117 -120 -130 -131 -154 -155 0
-21 -39 -41 -57 -58 -74 -75 -90 -91 -105 -106 -117 -120 -130 -131 -154 -155 0
-21 -40 -41 -57 -59 -74 -75 -90 -91 -105 -106 -117 -120 -130 -131 -154 -155 0
-21 -40 -41 -58 -59 -74 -76 -90 -91 -105 -106 -117 -120 -130 -131 -154 -155 0
-21 -40 -41 -58 -59 -75 -76 -90 -92 -105 -106 -117 -120 -130 -131 -154 -155 0
-21 -40 -41 -58 -59 -75 -76 -91 -92 -105 -107 -117 -120 -130 -131 -154 -155 0
-21 -40 -41 -58 -59 -75 -76 -91 -92 -106 -107 -117 -121 -130 -131 -154 -155 0
-19 -38 -39 -56 -57 -73 -74 -89 -90 -104 -105 -118 -119 -130 -132 -154 -155 0
-20 -38 -40 -56 -57 -73 -74 -89 -90 -104 -105 -118 -119 -130 -132 -154 -155 0
-21 -38 -41 -56 -57 -73 -74 -89 -90 -104 -105 -118 -119 -130 -132 -154 -155 0
-20 -39 -40 -56 -58 -73 -74 -89 -90 -104 -105 -118 -119 -130 -132 -154 -155 0
-21 -39 -41 -56 -58 -73 -74 -89 -90 -104 -105 -118 -119 -130 -132 -154 -155 0
-21 -40 -41 -56 -59 -73 -74 -89 -90 -104 -105 -118 -119 -130 -132 -154 -155 0
-20 -39 -40 -57 -58 -73 -75 -89 -90 -104 -105 -118 -119 -130 -132 -154 -155 0
-21 -39 -41 -57 -58 -73 -75 -89 -90 -104 -105 -118 -119 -130 -132 -154 -155 0
-21 -40 -41 -57 -59 -73 -75 -89 -90 -104 -105 -118 -119 -130 -132 -154 -155 0
-21 -40 -41 -58 -59 -73 -76 -89 -90 -104 -105 -118 -119 -130 -132 -154 -155 0
-20 -39 -40 -57 -58 -74 -75 -89 -91 -104 -105 -118 -119 -130 -132 -154 -155 0
-21 -39 -41 -57 -58 -74 -75 -89 -91 -104 -105 -118 -119 -130 -132 -154 -155 0
-21 -40 -41 -57 -59 -74 -75 -89 -91 -104 -105 -118 -119 -130 -132 -154 -155 0
-21 -40 -41 -58 -59 -74 -76 -89 -91 -104 -105 -118 -119 -130 -132 -154 -155 0
-21 -40 -41 -58 -59 -75 -76 -89 -92 -104 -105 -118 -119 -130 -132 -154 -155 0
-20 -39 -40 -57 -58 -74 -75 -90 -91 -104 -106 -118 -119 -130 -132 -154 -155 0
-21 -39 -41 -57 -58 -74 -75 -90 -91 -104 -106 -118 -119 -130 -132 -154 -155 0
-21 -40 -41 -57 -59 -74 -75 -90 -91 -104 -106 -118 -119 -130 -132 -154 -155 0
-21 -40 -41 -58 -59 -74 -76 -90 -91 -104 -106 -118 -119 -130 -132 -154 -155 0
-21 -40 -41 -58 -59 -75 -76 -90 -92 -104 -106 -118 -119 -130 -132 -154 -155 0
-21 -40 -41 -58 -59 -75 -76 -91 -92 -104 -107 -118 -119 -130 -132 -154 -155 0
-20 -39 -40 -57 -58 -74 -75 -90 -91 -105 -106 -118 -120 -130 -132 -154 -155 0
-21 -39 -41 -57 -58 -74 -75 -90 -91 -105 -106 -118 -120 -130 -132 -154 -155 0
-21 -40 -41 -57 -59 -74 -75 -90 -91 -105 -106 -118 -120 -130 -132 -154 -155 0
-21 -40 -41 -58 -59 -74 -76 -90 -91 -105 -106 -118 -120 -130 -132 -154 -155 0
-21 -40 -41 -58 -59 -75 -76 -90 -92 -105 -106 -118 -120 -130 -132 -154 -155 0
-21 -40 -41 -58 -59 -75 -76 -91 -92 -105 -107 -118 -120 -130 -132 -154 -155 0
-21 -40 -41 -58 -59 -75 -76 -91 -92 -106 -107 -118 -121 -130 -132 -154 -155 0
-20 -39 -40 -57 -58 -74 -75 -90 -91 -105 -106 -119 -120 -130 -133 -154 -155 0
-21 -39 -41 -57 -58 -74 -75 -90 -91 -105 -106 -119 -120 -130 -133 -154 -155 0
-21 -40 -41 -57 -59 -74 -75 -90 -91 -105 -106 -119 -120 -130 -133 -154 -155 0
-21 -40 -41 -58 -59 -74 -76 -90 -91 -105 -106 -119 -120 -130 -133 -154 -155 0
-21 -40 -41 -58 -59 -75 -76 -90 -92 -105 -106 -119 -120 -130 -133 -154 -155 0
-21 -40 -41 -58 -59 -75 -76 -91 -92 -105 -107 -119 -120 -130 -133 -154 -155 0
-21 -40 -41 -58 -59 -75 -76 -91 -92 -106 -107 -119 -121 -130 -133 -154 -155 0
-21 -40 -41 -58 -59 -75 -76 -91 -92 -106 -107 -120 -121 -130 -134 -154 -155 0
-19 -38 -39 -56 -57 -73 -74 -89 -90 -104 -105 -118 -119 -131 -132 -154 -156 0
-20 -38 -40 -56 -57 -73 -74 -89 -90 -104 -105 -118 -119 -131 -132 -154 -156 0
-21 -38 -41 -56 -57 -73 -74 -89 -90 -104 -105 -118 -119 -131 -132 -154 -156 0
-20 -39 -40 -56 -58 -73 -74 -89 -90 -104 -105 -118 -119 -131 -132 -154 -156 0
-21 -39 -41 -56 -58 -73 -74 -89 -90 -104 -105 -118 -119 -131 -132 -154 -156 0
-21 -40 -41 -56 -59 -73 -74 -89 -90 -104 -105 -118 -119 -131 -132 -154 -156 0
-20 -39 -40 -57 -58 -73 -75 -89 -90 -104 -105 -118 -119 -131 -132 -154 -156 0
-21 -39 -41 -57 -58 -73 -75 -89 -90 -104 -105 -118 -119 -131 -132 -154 -156 0
-21 -40 -41 -57 -59 -73 -75 -89 -90 -104 -105 -118 -119 -131 -132 -154 -156 0
-21 -40 -41 -58 -59 -73 -76 -89 -90 -104 -105 -118 -119 -131 -132 -154 -156 0
-20 -39 -40 -57 -58 -74 -75 -89 -91 -104 -105 -118 -119 -131 -132 -154 -156 0
-21 -39 -41 -57 -58 -74 -75 -89 -91 -104 -105 -118 -119 -131 -132 -154 -156 0
-21 -40 -41 -57 -59 -74 -75 -89 -91 -104 -105 -118 -119 -131 -132 -154 -156 0
-21 -40 -41 -58 -59 -74 -76 -89 -91 -104 -105 -118 -119 -131 -132 -154 -156 0
-21 -40 -41 -58 -59 -75 -76 -89 -92 -104 -105 -118 -119 -131 -132 -154 -156 0
-20 -39 -40 -57 -58 -74 -75 -90 -91 -104 -106 -118 -119 -131 -132 -154 -156 0
-21 -39 -41 -57 -58 -74 -75 -90 -91 -104 -106 -118 -119 -131 -132 -154 -156 0
-21 -40 -41 -57 -59 -74 -75 -90 -91 -104 -106 -118 -119 -131 -132 -154 -156 0
-21 -40 -41 -58 -59 -74 -76 -90 -91 -104 -106 -118 -119 -131 -132 -154 -156 0
-21 -40 -41 -58 -59 -75 -76 -90 -92 -104 -106 -118 -119 -131 -132 -154 -156 0
-21 -40 -41 -58 -59 -75 -76 -91 -92 -104 -107 -118 -119 -131 -132 -154 -156 0
-20 -39 -40 -57 -58 -74 -75 -90 -91 -105 -106 -118 -120 -131 -132 -154 -156 0
-21 -39 -41 -57 -58 -74 -75 -90 -91 -105 -106 -118 -120 -131 -132 -154 -156 0
-21 -40 -41 -57 -59 -74 -75 -90 -91 -105 -106 -118 -120 -131 -132 -154 -156 0
-21 -40 -41 -58 -59 -74 -76 -90 -91 -105 -106 -118 -120 -131 -132 -154 -156 0
-21 -40 -41 -58 -59 -75 -76 -90 -92 -105 -106 -118 -120 -131 -132 -154 -156 0
-21 -40 -41 -58 -59 -75 -76 -91 -92 -105 -107 -118 -120 -131 -132 -154 -156 0
-21 -40 -41 -58 -59 -75 -76 -91 -92 -106 -107 -118 -121 -131 -132 -154 -156 0
-20 -39 -40 -57 -58 -74 -75 -90 -91 -105 -106 -119 -120 -131 -133 -154 -156 0
-21 -39 -41 -57 -58 -74 -75 -90 -91 -105 -106 -119 -120 -131 -133 -154 -156 0
-21 -40 -41 -57 -59 -74 -75 -90 -91 -105 -106 -119 -120 -131 -133 -154 -156 0
-21 -40 -41 -58 -59 -74 -76 -90 -91 -105 -106 -119 -120 -131 -133 -154 -156 0
-21 -40 -41 -58 -59 -75 -76 -90 -92 -105 -106 -119 -120 -131 -133 -154 -156 0
-21 -40 -41 -58 -59 -75 -76 -91 -92 -105 -107 -119 -120 -131 -133 -154 -156 0
-21 -40 -41 -58 -59 -75 -76 -91 -92 -106 -107 -119 -121 -131 -133 -154 -156 0
-21 -40 -41 -58 -59 -75 -76 -91 -92 -106 -107 -120 -121 -131 -134 -154 -156 0
-20 -39 -40 -57 -58 -74 -75 -90 -91 -105 -106 -119 -120 -132 -133 -154 -157 0
-21 -39 -41 -57 -58 -74 -75 -90 -91 -105 -106 -119 -120 -132 -133 -154 -157 0
-21 -40 -41 -57 -59 -74 -75 -90 -91 -105 -106 -119 -120 -132 -133 -154 -157 0
-21 -40 -41 -58 -59 -74 -76 -90 -91 -105 -106 -119 -120 -132 -133 -154 -157 0
-21 -40 -41 -58 -59 -75 -76 -90 -92 -105 -106 -119 -120 -132 -133 -154 -157 0
-21 -40 -41 -58 -59 -75 -76 -91 -92 -105 -107 -119 -120 -132 -133 -154 -157 0
-21 -40 -41 -58 -59 -75 -76 -91 -92 -106 -107 -119 -121 -132 -133 -154 -157 0
-21 -40 -41 -58 -59 -75 -76 -91 -92 -106 -107 -120 -121 -132 -134 -154 -157 0
-21 -40 -41 -58 -59 -75 -76 -91 -92 -106 -107 -120 -121 -133 -134 -154 -158 0
-19 -38 -39 -56 -57 -73 -74 -89 -90 -104 -105 -118 -119 -131 -132 -155 -156 0
-20 -38 -40 -56 -57 -73 -74 -89 -90 -104 -105 -118 -119 -131 -132 -155 -156 0
-21 -38 -41 -56 -57 -73 -74 -89 -90 -104 -105 -118 -119 -131 -132 -155 -156 0
-20 -39 -40 -56 -58 -73 -74 -89 -90 -104 -105 -118 -119 -131 -132 -155 -156 0
-21 -39 -41 -56 -58 -73 -74 -89 -90 -104 -105 -118 -119 -131 -132 -155 -156 0
-21 -40 -41 -56 -59 -73 -74 -89 -90 -104 -105 -118 -119 -131 -132 -155 -156 0
-20 -39 -40 -57 -58 -73 -75 -89 -90 -104 -105 -118 -119 -131 -132 -155 -156 0
-21 -39 -41 -57 -58 -73 -75 -89 -90 -104 -105 -118 -119 -131 -132 -155 -156 0
-21 -40 -41 -57 -59 -73 -75 -89 -90 -104 -105 -118 -119 -131 -132 -155 -156 0
-21 -40 -41 -58 -59 -73 -76 -89 -90 -104 -105 -118 -119 -131 -132 -155 -156 0
-20 -39 -40 -57 -58 -74 -75 -89 -91 -104 -105 -118 -119 -131 -132 -155 -156 0
-21 -39 -41 -57 -58 -74 -75 -89 -91 -104 -105 -118 -119 -131 -132 -155 -156 0
-21 -40 -41 -57 -59 -74 -75 -89 -91 -104 -105 -118 -119 -131 -132 -155 -156 0
-21 -40 -41 -58 -59 -74 -76 -89 -91 -104 -105 -118 -119 -131 -132 -155 -156 0
-21 -40 -41 -58 -59 -75 -76 -89 -92 -104 -105 -118 -119 -131 -132 -155 -156 0
-20 -39 -40 -57 -58 -74 -75 -90 -91 -104 -106 -118 -119 -131 -132 -155 -156 0
-21 -39 -41 -57 -58 -74 -75 -90 -91 -104 -106 -118 -119 -131 -132 -155 -156 0
-21 -40 -41 -57 -59 -74 -75 -90 -91 -104 -106 -118 -119 -131 -132 -155 -156 0
-21 -40 -41 -58 -59 -74 -76 -90 -91 -104 -106 -118 -119 -131 -132 -155 -156 0
-21 -40 -41 -58 -59 -75 -76 -90 -92 -104 -106 -118 -119 -131 -132 -155 -156 0
-21 -40 -41 -58 -59 -75 -76 -91 -92 -104 -107 -118 -119 -131 -132 -155 -156 0
-20 -39 -40 -57 -58 -74 -75 -90 -91 -105 -106 -118 -120 -131 -132 -155 -156 0
-21 -39 -41 -57 -58 -74 -75 -90 -91 -105 -106 -118 -120 -131 -132 -155 -156 0
-21 -40 -41 -57 -59 -74 -75 -90 -91 -105 -106 -118 -120 -131 -132 -155 -156 0
-21 -40 -41 -58 -59 -74 -76 -90 -91 -105 -106 -118 -120 -131 -132 -155 -156 0
-21 -40 -41 -58 -59 -75 -76 -90 -92 -105 -106 -118 -120 -131 -132 -155 -156 0
-21 -40 -41 -58 -59 -75 -76 -91 -92 -105 -107 -118 -120 -131 -132 -155 -156 0
-21 -40 -41 -58 -59 -75 -76 -91 -92 -106 -107 -118 -121 -131 -132 -155 -156 0
-20 -39 -40 -57 -58 -74 -75 -90 -91 -105 -106 -119 -120 -131 -133 -155 -156 0
-21 -39 -41 -57 -58 -74 -75 -90 -91 -105 -106 -119 -120 -131 -133 -155 -156 0
-21 -40 -41 -57 -59 -74 -75 -90 -91 -105 -106 -119 -120 -131 -133 -155 -156 0
-21 -40 -41 -58 -59 -74 -76 -90 -91 -105 -106 -119 -120 -131 -133 -155 -156 0
-21 -40 -41 -58 -59 -75 -76 -90 -92 -105 -106 -119 -120 -131 -133 -155 -156 0
-21 -40 -41 -58 -59 -75 -76 -91 -92 -105 -107 -119 -120 -131 -133 -155 -156 0
-21 -40 -41 -58 -59 -75 -76 -91 -92 -106 -107 -119 -121 -131 -133 -155 -156 0
-21 -40 -41 -58 -59 -75 -76 -91 -92 -106 -107 -120 -121 -131 -134 -155 -156 0
-20 -39 -40 -57 -58 -74 -75 -90 -91 -105 -106 -119 -120 -132 -133 -155 -157 0
-21 -39 -41 -57 -58 -74 -75 -90 -91 -105 -106 -119 -120 -132 -133 -155 -157 0
-21 -40 -41 -57 -59 -74 -75 -90 -91 -105 -106 -119 -120 -132 -133 -155 -157 0
-21 -40 -41 -58 -59 -74 -76 -90 -91 -105 -106 -119 -120 -132 -133 -155 -157 0
-21 -40 -41 -58 -59 -75 -76 -90 -92 -105 -106 -119 -120 -132 -133 -155 -157 0
-21 -40 -41 -58 -59 -75 -76 -91 -92 -105 -107 -119 -120 -132 -133 -155 -157 0
-21 -40 -41 -58 -59 -75 -76 -91 -92 -106 -107 -119 -121 -132 -133 -155 -157 0
-21 -40 -41 -58 -59 -75 -76 -91 -92 -106 -107 -120 -121 -132 -134 -155 -157 0
-21 -40 -41 -58 -59 -75 -76 -91 -92 -106 -107 -120 -121 -133 -134 -155 -158 0
-20 -39 -40 -57 -58 -74 -75 -90 -91 -105 -106 -119 -120 -132 -133 -156 -157 0
-21 -39 -41 -57 -58 -74 -75 -90 -91 -105 -106 -119 -120 -132 -133 -156 -157 0
-21 -40 -41 -57 -59 -74 -75 -90 -91 -105 -106 -119 -120 -132 -133 -156 -157 0
-21 -40 -41 -58 -59 -74 -76 -90 -91 -105 -106 -119 -120 -132 -133 -156 -157 0
-21 -40 -41 -58 -59 -75 -76 -90 -92 -105 -106 -119 -120 -132 -133 -156 -157 0
-21 -40 -41 -58 -59 -75 -76 -91 -92 -105 -107 -119 -120 -132 -133 -156 -157 0
-21 -40 -41 -58 -59 -75 -76 -91 -92 -106 -107 -119 -121 -132 -133 -156 -157 0
-21 -40 -41 -58 -59 -75 -76 -91 -92 -106 -107 -120 -121 -132 -134 -156 -157 0
-21 -40 -41 -58 -59 -75 -76 -91 -92 -106 -107 -120 -121 -133 -134 -156 -158 0
-21 -40 -41 -58 -59 -75 -76 -91 -92 -106 -107 -120 -121 -133 -134 -157 -158 0
-19 -38 -39 -56 -57 -73 -74 -89 -90 -104 -105 -118 -119 -131 -132 -166 -167 0
-20 -38 -40 -56 -57 -73 -74 -89 -90 -104 -105 -118 -119 -131 -132 -166 -167 0
-21 -38 -41 -56 -57 -73 -74 -89 -90 -104 -105 -118 -119 -131 -132 -166 -167 0
-20 -39 -40 -56 -58 -73 -74 -89 -90 -104 -105 -118 -119 -131 -132 -166 -167 0
-21 -39 -41 -56 -58 -73 -74 -89 -90 -104 -105 -118 -119 -131 -132 -166 -167 0
-21 -40 -41 -56 -59 -73 -74 -89 -90 -104 -105 -118 -119 -131 -132 -166 -167 0
-20 -39 -40 -57 -58 -73 -75 -89 -90 -104 -105 -118 -119 -131 -132 -166 -167 0
-21 -39 -41 -57 -58 -73 -75 -89 -90 -104 -105 -118 -119 -131 -132 -166 -167 0
-21 -40 -41 -57 -59 -73 -75 -89 -90 -104 -105 -118 -119 -131 -132 -166 -167 0
-21 -40 -41 -58 -59 -73 -76 -89 -90 -104 -105 -118 -119 -131 -132 -166 -167 0
-20 -39 -40 -57 -58 -74 -75 -89 -91 -104 -105 -118 -119 -131 -132 -166 -167 0
-21 -39 -41 -57 -58 -74 -75 -89 -91 -104 -105 -118 -119 -131 -132 -166 -167 0
-21 -40 -41 -57 -59 -74 -75 -89 -91 -104 -105 -118 -119 -131 -132 -166 -167 0
-21 -40 -41 -58 -59 -74 -76 -89 -91 -104 -105 -118 -119 -131 -132 -166 -167 0
-21 -40 -41 -58 -59 -75 -76 -89 -92 -104 -105 -118 -119 -131 -132 -166 -167 0
-20 -39 -40 -57 -58 -74 -75 -90 -91 -104 -106 -118 -119 -131 -132 -166 -167 0
-21 -39 -41 -57 -58 -74 -75 -90 -91 -104 -106 -118 -119 -131 -132 -166 -167 0
-21 -40 -41 -57 -59 -74 -75 -90 -91 -104 -106 -118 -119 -131 -132 -166 -167 0
-21 -40 -41 -58 -59 -74 -76 -90 -91 -104 -106 -118 -119 -131 -132 -166 -167 0
-21 -40 -41 -58 -59 -75 -76 -90 -92 -104 -106 -118 -119 -131 -132 -166 -167 0
-21 -40 -41 -58 -59 -75 -76 -91 -92 -104 -107 -118 -119 -131 -132 -166 -167 0
-20 -39 -40 -57 -58 -74 -75 -90 -91 -105 -106 -118 -120 -131 -132 -166 -167 0
-21 -39 -41 -57 -58 -74 -75 -90 -91 -105 -106 -118 -120 -131 -132 -166 -167 0
-21 -40 -41 -57 -59 -74 -75 -90 -91 -105 -106 -118 -120 -131 -132 -166 -167 0
-21 -40 -41 -58 -59 -74 -76 -90 -91 -105 -106 -118 -120 -131 -132 -166 -167 0
-21 -40 -41 -58 -59 -75 -76 -90 -92 -105 -106 -118 -120 -131 -132 -166 -167 0
-21 -40 -41 -58 -59 -75 -76 -91 -92 -105 -107 -118 -120 -131 -132 -166 -167 0
-21 -40 -41 -58 -59 -75 -76 -91 -92 -106 -107 -118 -121 -131 -132 -166 -167 0
-20 -39 -40 -57 -58 -74 -75 -90 -91 -105 -106 -119 -120 -131 -133 -166 -167 0
-21 -39 -41 -57 -58 -74 -75 -90 -91 -105 -106 -119 -120 -131 -133 -166 -167 0
-21 -40 -41 -57 -59 -74 -75 -90 -91 -105 -106 -119 -120 -131 -133 -166 -167 0
-21 -40 -41 -58 -59 -74 -76 -90 -91 -105 -106 -119 -120 -131 -133 -166 -167 0
-21 -40 -41 -58 -59 -75 -76 -90 -92 -105 -106 -119 -120 -131 -133 -166 -167 0
-21 -40 -41 -58 -59 -75 -76 -91 -92 -105 -107 -119 -120 -131 -133 -166 -167 0
-21 -40 -41 -58 -59 -75 -76 -91 -92 -106 -107 -119 -121 -131 -133 -166 -167 0
-21 -40 -41 -58 -59 -75 -76 -91 -92 -106 -107 -120 -121 -131 -134 -166 -167 0
-20 -39 -40 -57 -58 -74 -75 -90 -91 -105 -106 -119 -120 -132 -133 -166 -168 0
-21 -39 -41 -57 -58 -74 -75 -90 -91 -105 -106 -119 -120 -132 -133 -166 -168 0
-21 -40 -41 -57 -59 -74 -75 -90 -91 -105 -106 -119 -120 -132 -133 -166 -168 0
-21 -40 -41 -58 -59 -74 -76 -90 -91 -105 -106 -119 -120 -132 -133 -166 -168 0
-21 -40 -41 -58 -59 -75 -76 -90 -92 -105 -106 -119 -120 -132 -133 -166 -168 0
-21 -40 -41 -58 -59 -75 -76 -91 -92 -105 -107 -119 -120 -132 -133 -166 -168 0
-21 -40 -41 -58 -59 -75 -76 -91 -92 -106 -107 -119 -121 -132 -133 -166 -168 0
-21 -40 -41 -58 -59 -75 -76 -91 -92 -106 -107 -120 -121 -132 -134 -166 -168 0
-21 -40 -41 -58 -59 -75 -76 -91 -92 -106 -107 -120 -121 -133 -134 -166 -169 0
-20 -39 -40 -57 -58 -74 -75 -90 -91 -105 -106 -119 -120 -132 -133 -167 -168 0
-21 -39 -41 -57 -58 -74 -75 -90 -91 -105 -106 -119 -120 -132 -133 -167 -168 0
-21 -40 -41 -57 -59 -74 -75 -90 -91 -105 -106 -119 -120 -132 -133 -167 -168 0
-21 -40 -41 -58 -59 -74 -76 -90 -91 -105 -106 -119 -120 -132 -133 -167 -168 0
-21 -40 -41 -58 -59 -75 -76 -90 -92 -105 -106 -119 -120 -132 -133 -167 -168 0
-21 -40 -41 -58 -59 -75 -76 -91 -92 -105 -107 -119 -120 -132 -133 -167 -168 0
-21 -40 -41 -58 -59 -75 -76 -91 -92 -106 -107 -119 -121 -132 -133 -167 -168 0
-21 -40 -41 -58 -59 -75 -76 -91 -92 -106 -107 -120 -121 -132 -134 -167 -168 0
-21 -40 -41 -58 -59 -75 -76 -91 -92 -106 -107 -120 -121 -133 -134 -167 -169 0
-21 -40 -41 -58 -59 -75 -76 -91 -92 -106 -107 -120 -121 -133 -134 -168 -169 0
-20 -39 -40 -57 -58 -74 -75 -90 -91 -105 -106 -119 -120 -132 -133 -177 -178 0
-21 -39 -41 -57 -58 -74 -75 -90 -91 -105 -106 -119 -120 -132 -133 -177 -178 0
-21 -40 -41 -57 -59 -74 -75 -90 -91 -105 -106 -119 -120 -132 -133 -177 -178 0
-21 -40 -41 -58 -59 -74 -76 -90 -91 -105 -106 -119 -120 -132 -133 -177 -178 0
-21 -40 -41 -58 -59 -75 -76 -90 -92 -105 -106 -119 -120 -132 -133 -177 -178 0
-21 -40 -41 -58 -59 -75 -76 -91 -92 -105 -107 -119 -120 -132 -133 -177 -178 0
-21 -40 -41 -58 -59 -75 -76 -91 -92 -106 -107 -119 -121 -132 -133 -177 -178 0
-21 -40 -41 -58 -59 -75 -76 -91 -92 -106 -107 -120 -121 -132 -134 -177 -178 0
-21 -40 -41 -58 -59 -75 -76 -91 -92 -106 -107 -120 -121 -133 -134 -177 -179 0
-21 -40 -41 -58 -59 -75 -76 -91 -92 -106 -107 -120 -121 -133 -134 -178 -179 0
-21 -40 -41 -58 -59 -75 -76 -91 -92 -106 -107 -120 -121 -133 -134 -187 -188 0
-18 -37 -38 -55 -56 -72 -73 -88 -89 -103 -104 -117 -118 -143 -144 -154 -155 0
-19 -37 -39 -55 -56 -72 -73 -88 -89 -103 -104 -117 -118 -143 -144 -154 -155 0
-20 -37 -40 -55 -56 -72 -73 -88 -89 -103 -104 -117 -118 -143 -144 -154 -155 0
-21 -37 -41 -55 -56 -72 -73 -88 -89 -103 -104 -117 -118 -143 -144 -154 -155 0
-19 -38 -39 -55 -57 -72 -73 -88 -89 -103 -104 -117 -118 -143 -144 -154 -155 0
-20 -38 -40 -55 -57 -72 -73 -88 -89 -103 -104 -117 -118 -143 -144 -154 -155 0
-21 -38 -41 -55 -57 -72 -73 -88 -89 -103 -104 -117 -118 -143 -144 -154 -155 0
-20 -39 -40 -55 -58 -72 -73 -88 -89 -103 -104 -117 -118 -143 -144 -154 -155 0
-21 -39 -41 -55 -58 -72 -73 -88 -89 -103 -104 -117 -118 -143 -144 -154 -155 0
-21 -40 -41 -55 -59 -72 -73 -88 -89 -103 -104 -117 -118 -143 -144 -154 -155 0
-19 -38 -39 -56 -57 -72 -74 -88 -89 -103 -104 -117 -118 -143 -144 -154 -155 0
-20 -38 -40 -56 -57 -72 -74 -88 -89 -103 -104 -117 -118 -143 -144 -154 -155 0
-21 -38 -41 -56 -57 -72 -74 -88 -89 -103 -104 -117 -118 -143 -144 -154 -155 0
-20 -39 -40 -56 -58 -72 -74 -88 -89 -103 -104 -117 -118 -143 -144 -154 -155 0
-21 -39 -41 -56 -58 -72 -74 -88 -89 -103 -104 -117 -118 -143 -144 -154 -155 0
-21 -40 -41 -56 -59 -72 -74 -88 -89 -103 -104 -117 -118 -143 -144 -154 -155 0
-20 -39 -40 -57 -58 -72 -75 -88 -89 -103 -104 -117 -118 -143 -144 -154 -155 0
-21 -39 -41 -57 -58 -72 -75 -88 -89 -103 -104 -117 -118 -143 -144 -154 -155 0
-21 -40 -41 -57 -59 -72 -75 -88 -89 -103 -104 -117 -118 -143 -144 -154 -155 0
-21 -40 -41 -58 -59 -72 -76 -88 -89 -103 -104 -117 -118 -143 -144 -154 -155 0
-19 -38 -39 -56 -57 -73 -74 -88 -90 -103 -104 -117 -118 -143 -144 -154 -155 0
-20 -38 -40 -56 -57 -73 -74 -88 -90 -103 -104 -117 -118 -143 -144 -154 -155 0
-21 -38 -41 -56 -57 -73 -74 -88 -90 -103 -104 -117 -118 -143 -144 -154 -155 0
-20 -39 -40 -56 -58 -73 -74 -88 -90 -103 -104 -117 -118 -143 -144 -154 -155 0
-21 -39 -41 -56 -58 -73 -74 -88 -90 -103 -104 -117 -118 -143 -144 -154 -155 0
-21 -40 -41 -56 -59 -73 -74 -88 -90 -103 -104 -117 -118 -143 -144 -154 -155 0
-20 -39 -40 -57 -58 -73 -75 -88 -90 -103 -104 -117 -118 -143 -144 -154 -155 0
-21 -39 -41 -57 -58 -73 -75 -88 -90 -103 -104 -117 -118 -143 -144 -154 -155 0
-21 -40 -41 -57 -59 -73 -75 -88 -90 -103 -104 -117 -118 -143 -144 -154 -155 0
-21 -40 -41 -58 -59 -73 -76 -88 -90 -103 -104 -117 -118 -143 -144 -154 -155 0
-20 -39 -40 -57 -58 -74 -75 -88 -91 -103 -104 -117 -118 -143 -144 -154 -155 0
-21 -39 -41 -57 -58 -74 -75 -88 -91 -103 -104 -117 -118 -143 -144 -154 -155 0
-21 -40 -41 -57 -59 -74 -75 -88 -91 -103 -104 -117 -118 -143 -144 -154 -155 0
-21 -40 -41 -58 -59 -74 -76 -88 -91 -103 -104 -117 -118 -143 -144 -154 -155 0
-21 -40 -41 -58 -59 -75 -76 -88 -92 -103 -104 -117 -118 -143 -144 -154 -155 0
-19 -38 -39 -56 -57 -73 -74 -89 -90 -103 -105 -117 -118 -143 -144 -154 -155 0
-20 -38 -40 -56 -57 -73 -74 -89 -90 -103 -105 -117 -118 -143 -144 -154 -155 0
-21 -38 -41 -56 -57 -73 -74 -89 -90 -103 -105 -117 -118 -143 -144 -154 -155 0
-20 -39 -40 -56 -58 -73 -74 -89 -90 -103 -105 -117 -118 -143 -144 -154 -155 0
-21 -39 -41 -56 -58 -73 -74 -89 -90 -103 -105 -117 -118 -143 -144 -154 -155 0
-21 -40 -41 -56 -59 -73 -74 -89 -90 -103 -105 -117 -118 -143 -144 -154 -155 0
-20 -39 -40 -57 -58 -73 -75 -89 -90 -103 -105 -117 -118 -143 -144 -154 -155 0
-21 -39 -41 -57 -58 -73 -75 -89 -90 -103 -105 -117 -118 -143 -144 -154 -155 0
-21 -40 -41 -57 -59 -73 -75 -89 -90 -103 -105 -117 -118 -143 -144 -154 -155 0
-21 -40 -41 -58 -59 -73 -76 -89 -90 -103 -105 -117 -118 -143 -144 -154 -155 0
-20 -39 -40 -57 -58 -74 -75 -89 -91 -103 -105 -117 -118 -143 -144 -154 -155 0
-21 -39 -41 -57 -58 -74 -75 -89 -91 -103 -105 -117 -118 -143 -144 -154 -155 0
-21 -40 -41 -57 -59 -74 -75 -89 -91 -103 -105 -117 -118 -143 -144 -154 -155 0
-21 -40 -41 -58 -59 -74 -76 -89 -91 -103 -105 -117 -118 -143 -144 -154 -155 0
-21 -40 -41 -58 -59 -75 -76 -89 -92 -103 -105 -117 -118 -143 -144 -154 -155 0
-20 -39 -40 -57 -58 -74 -75 -90 -91 -103 -106 -117 -118 -143 -144 -154 -155 0
-21 -39 -41 -57 -58 -74 -75 -90 -91 -103 -106 -117 -118 -143 -144 -154 -155 0
-21 -40 -41 -57 -59 -74 -75 -90 -91 -103 -106 -117 -118 -143 -144 -154 -155 0
-21 -40 -41 -58 -59 -74 -76 -90 -91 -103 -106 -117 -118 -143 -144 -154 -155 0
-21 -40 -41 -58 -59 -75 -76 -90 -92 -103 -106 -117 -118 -143 -144 -154 -155 0
-21 -40 -41 -58 -59 -75 -76 -91 -92 -103 -107 -117 -118 -143 -144 -154 -155 0
-19 -38 -39 -56 -57 -73 -74 -89 -90 -104 -105 -117 -119 -143 -144 -154 -155 0
-20 -38 -40 -56 -57 -73 -74 -89 -90 -104 -105 -117 -119 -143 -144 -154 -155 0
-21 -38 -41 -56 -57 -73 -74 -89 -90 -104 -105 -117 -119 -143 -144 -154 -155 0
-20 -39 -40 -56 -58 -73 -74 -89 -90 -104 -105 -117 -119 -143 -144 -154 -155 0
-21 -39 -41 -56 -58 -73 -74 -89 -90 -104 -105 -117 -119 -143 -144 -154 -155 0
-21 -40 -41 -56 -59 -73 -74 -89 -90 -104 -105 -117 -119 -143 -144 -154 -155 0
-20 -39 -40 -57 -58 -73 -75 -89 -90 -104 -105 -117 -119 -143 -144 -154 -155 0
-21 -39 -41 -57 -58 -73 -75 -89 -90 -104 -105 -117 -119 -143 -144 -154 -155 0
-21 -40 -41 -57 -59 -73 -75 -89 -90 -104 -105 -117 -119 -143 -144 -154 -155 0
-21 -40 -41 -58 -59 -73 -76 -89 -90 -104 -105 -117 -119 -143 -144 -154 -155 0
-20 -39 -40 -57 -58 -74 -75 -89 -91 -104 -105 -117 -119 -143 -144 -154 -155 0
-21 -39 -41 -57 -58 -74 -75 -89 -91 -104 -105 -117 -119 -143 -144 -154 -155 0
-21 -40 -41 -57 -59 -74 -75 -89 -91 -104 -105 -117 -119 -143 -144 -154 -155 0
-21 -40 -41 -58 -59 -74 -76 -89 -91 -104 -105 -117 -119 -143 -144 -154 -155 0
-21 -40 -41 -58 -59 -75 -76 -89 -92 -104 -105 -117 -119 -143 -144 -154 -155 0
-20 -39 -40 -57 -58 -74 -75 -90 -91 -104 -106 -117 -119 -143 -144 -154 -155 0
-21 -39 -41 -57 -58 -74 -75 -90 -91 -104 -106 -117 -119 -143 -144 -154 -155 0
-21 -40 -41 -57 -59 -74 -75 -90 -91 -104 -106 -117 -119 -143 -144 -154 -155 0
-21 -40 -41 -58 -59 -74 -76 -90 -91 -104 -106 -117 -119 -143 -144 -154 -155 0
-21 -40 -41 -58 -59 -75 -76 -90 -92 -104 -106 -117 -119 -143 -144 -154 -155 0
-21 -40 -41 -58 -59 -75 -76 -91 -92 -104 -107 -117 -119 -143 -144 -154 -155 0
-20 -39 -40 -57 -58 -74 -75 -90 -91 -105 -106 -117 -120 -143 -144 -154 -155 0
-21 -39 -41 -57 -58 -74 -75 -90 -91 -105 -106 -117 -120 -143 -144 -154 -155 0
-21 -40 -41 -57 -59 -74 -75 -90 -91 -105 -106 -117 -120 -143 -144 -154 -155 0
-21 -40 -41 -58 -59 -74 -76 -90 -91 -105 -106 -117 -120 -143 -144 -154 -155 0
-21 -40 -41 -58 -59 -75 -76 -90 -92 -105 -106 -117 -120 -143 -144 -154 -155 0
-21 -40 -41 -58 -59 -75 -76 -91 -92 -105 -107 -117 -120 -143 -144 -154 -155 0
-21 -40 -41 -58 -59 -75 -76 -91 -92 -106 -107 -117 -121 -143 -144 -154 -155 0
-19 -38 -39 -56 -57 -73 -74 -89 -90 -104 -105 -118 -119 -143 -145 -154 -155 0
-20 -38 -40 -56 -57 -73 -74 -89 -90 -104 -105 -118 -119 -143 -145 -154 -155 0
-21 -38 -41 -56 -57 -73 -74 -89 -90 -104 -105 -118 -119 -143 -145 -154 -155 0
-20 -39 -40 -56 -58 -73 -74 -89 -90 -104 -105 -118 -119 -143 -145 -154 -155 0
-21 -39 -41 -56 -58 -73 -74 -89 -90 -104 -105 -118 -119 -143 -145 -154 -155 0
-21 -40 -41 -56 -59 -73 -74 -89 -90 -104 -105 -118 -119 -143 -145 -154 -155 0
-20 -39 -40 -57 -58 -73 -75 -89 -90 -104 -105 -118 -119 -143 -145 -154 -155 0
-21 -39 -41 -57 -58 -73 -75 -89 -90 -104 -105 -118 -119 -143 -145 -154 -155 0
-21 -40 -41 -57 -59 -73 -75 -89 -90 -104 -105 -118 -119 -143 -145 -154 -155 0
-21 -40 -41 -58 -59 -73 -76 -89 -90 -104 -105 -118 -119 -143 -145 -154 -155 0
-20 -39 -40 -57 -58 -74 -75 -89 -91 -104 -105 -118 -119 -143 -145 -154 -155 0
-21 -39 -41 -57 -58 -74 -75 -89 -91 -104 -105 -118 -119 -143 -145 -154 -155 0
-21 -40 -41 -57 -59 -74 -75 -89 -91 -104 -105 -118 -119 -143 -145 -154 -155 0
-21 -40 -41 -58 -59 -74 -76 -89 -91 -104 -105 -118 -119 -143 -145 -154 -155 0
-21 -40 -41 -58 -59 -75 -76 -89 -92 -104 -105 -118 -119 -143 -145 -154 -155 0
-20 -39 -40 -57 -58 -74 -75 -90 -91 -104 -106 -118 -119 -143 -145 -154 -155 0
-21 -39 -41 -57 -58 -74 -75 -90 -91 -104 -106 -118 -119 -143 -145 -154 -155 0
-21 -40 -41 -57 -59 -74 -75 -90 -91 -104 -106 -118 -119 -143 -145 -154 -155 0
-21 -40 -41 -58 -59 -74 -76 -90 -91 -104 -106 -118 -119 -143 -145 -154 -155 0
-21 -40 -41 -58 -59 -75 -76 -90 -92 -104 -106 -118 -119 -143 -145 -154 -155 0
-21 -40 -41 -58 -59 -75 -76 -91 -92 -104 -107 -118 -119 -143 -145 -154 -155 0
-20 -39 -40 -57 -58 -74 -75 -90 -91 -105 -106 -118 -120 -143 -145 -154 -155 0
-21 -39 -41 -57 -58 -74 -75 -90 -91 -105 -106 -118 -120 -143 -145 -154 -155 0
-21 -40 -41 -57 -59 -74 -75 -90 -91 -105 -106 -118 -120 -143 -145 -154 -155 0
-21 -40 -41 -58 -59 -74 -76 -90 -91 -105 -106 -118 -120 -143 -145 -154 -155 0
-21 -40 -41 -58 -59 -75 -76 -90 -92 -105 -106 -118 -120 -143 -145 -154 -155 0
-21 -40 -41 -58 -59 -75 -76 -91 -92 -105 -107 -118 -120 -143 -145 -154 -155 0
-21 -40 -41 -58 -59 -75 -76 -91 -92 -106 -107 -118 -121 -143 -145 -154 -155 0
-20 -39 -40 -57 -58 -74 -75 -90 -91 -105 -106 -119 -120 -143 -146 -154 -155 0
-21 -39 -41 -57 -58 -74 -75 -90 -91 -105 -106 -119 -120 -143 -146 -154 -155 0
-21 -40 -41 -57 -59 -74 -75 -90 -91 -105 -106 -119 -120 -143 -146 -154 -155 0
-21 -40 -41 -58 -59 -74 -76 -90 -91 -105 -106 -119 -120 -143 -146 -154 -155 0
-21 -40 -41 -58 -59 -75 -76 -90 -92 -105 -106 -119 -120 -143 -146 -154 -155 0
-21 -40 -41 -58 -59 -75 -76 -91 -92 -105 -107 -119 -120 -143 -146 -154 -155 0
-21 -40 -41 -58 -59 -75 -76 -91 -92 -106 -107 -119 -121 -143 -146 -154 -155 0
-21 -40 -41 -58 -59 -75 -76 -91 -92 -106 -107 -120 -121 -143 -147 -154 -155 0
-19 -38 -39 -56 -57 -73 -74 -89 -90 -104 -105 -118 -119 -144 -145 -154 -156 0
-20 -38 -40 -56 -57 -73 -74 -89 -90 -104 -105 -118 -119 -144 -145 -154 -156 0
-21 -38 -41 -56 -57 -73 -74 -89 -90 -104 -105 -118 -119 -144 -145 -154 -156 0
-20 -39 -40 -56 -58 -73 -74 -89 -90 -104 -105 -118 -119 -144 -145 -154 -156 0
-21 -39 -41 -56 -58 -73 -74 -89 -90 -104 -105 -118 -119 -144 -145 -154 -156 0
-21 -40 -41 -56 -59 -73 -74 -89 -90 -104 -105 -118 -119 -144 -145 -154 -156 0
-20 -39 -40 -57 -58 -73 -75 -89 -90 -104 -105 -118 -119 -144 -145 -154 -156 0
-21 -39 -41 -57 -58 -73 -75 -89 -90 -104 -105 -118 -119 -144 -145 -154 -156 0
-21 -40 -41 -57 -59 -73 -75 -89 -90 -104 -105 -118 -119 -144 -145 -154 -156 0
-21 -40 -41 -58 -59 -73 -76 -89 -90 -104 -105 -118 -119 -144 -145 -154 -156 0
-20 -39 -40 -57 -58 -74 -75 -89 -91 -104 -105 -118 -119 -144 -145 -154 -156 0
-21 -39 -41 -57 -58 -74 -75 -89 -91 -104 -105 -118 -119 -144 -145 -154 -156 0
-21 -40 -41 -57 -59 -74 -75 -89 -91 -104 -105 -118 -119 -144 -145 -154 -156 0
-21 -40 -41 -58 -59 -74 -76 -89 -91 -104 -105 -118 -119 -144 -145 -154 -156 0
-21 -40 -41 -58 -59 -75 -76 -89 -92 -104 -105 -118 -119 -144 -145 -154 -156 0
-20 -39 -40 -57 -58 -74 -75 -90 -91 -104 -106 -118 -119 -144 -145 -154 -156 0
-21 -39 -41 -57 -58 -74 -75 -90 -91 -104 -106 -118 -119 -144 -145 -154 -156 0
-21 -40 -41 -57 -59 -74 -75 -90 -91 -104 -106 -118 -119 -144 -145 -154 -156 0
-21 -40 -41 -58 -59 -74 -76 -90 -91 -104 -106 -118 -119 -144 -145 -154 -156 0
-21 -40 -41 -58 -59 -75 -76 -90 -92 -104 -106 -118 -119 -144 -145 -154 -156 0
-21 -40 -41 -58 -59 -75 -76 -91 -92 -104 -107 -118 -119 -144 -145 -154 -156 0
-20 -39 -40 -57 -58 -74 -75 -90 -91 -105 -106 -118 -120 -144 -145 -154 -156 0
-21 -39 -41 -57 -58 -74 -75 -90 -91 -105 -106 -118 -120 -144 -145 -154 -156 0
-21 -40 -41 -57 -59 -74 -75 -90 -91 -105 -106 -118 -120 -144 -145 -154 -156 0
-21 -40 -41 -58 -59 -74 -76 -90 -91 -105 -106 -118 -120 -144 -145 -154 -156 0
-21 -40 -41 -58 -59 -75 -76 -90 -92 -105 -106 -118 -120 -144 -145 -154 -156 0
-21 -40 -41 -58 -59 -75 -76 -91 -92 -105 -107 -118 -120 -144 -145 -154 -156 0
-21 -40 -41 -58 -59 -75 -76 -91 -92 -106 -107 -118 -121 -144 -145 -154 -156 0
-20 -39 -40 -57 -58 -74 -75 -90 -91 -105 -106 -119 -120 -144 -146 -154 -156 0
-21 -39 -41 -57 -58 -74 -75 -90 -91 -105 -106 -119 -120 -144 -146 -154 -156 0
-21 -40 -41 -57 -59 -74 -75 -90 -91 -105 -106 -119 -120 -144 -146 -154 -156 0
-21 -40 -41 -58 -59 -74 -76 -90 -91 -105 -106 -119 -120 -144 -146 -154 -156 0
-21 -40 -41 -58 -59 -75 -76 -90 -92 -105 -106 -119 -120 -144 -146 -154 -156 0
-21 -40 -41 -58 -59 -75 -76 -91 -92 -105 -107 -119 -120 -144 -146 -154 -156 0
-21 -40 -41 -58 -59 -75 -76 -91 -92 -106 -107 -119 -121 -144 -146 -154 -156 0
-21 -40 -41 -58 -59 -75 -76 -91 -92 -106 -107 -120 -121 -144 -147 -154 -156 0
-20 -39 -40 -57 -58 -74 -75 -90 -91 -105 -106 -119 -120 -145 -146 -154 -157 0
-21 -39 -41 -57 -58 -74 -75 -90 -91 -105 -106 -119 -120 -145 -146 -154 -157 0
-21 -40 -41 -57 -59 -74 -75 -90 -91 -105 -106 -119 -120 -145 -146 -154 -157 0
-21 -40 -41 -58 -59 -74 -76 -90 -91 -105 -106 -119 -120 -145 -146 -154 -157 0
-21 -40 -41 -58 -59 -75 -76 -90 -92 -105 -106 -119 -120 -145 -146 -154 -157 0
-21 -40 -41 -58 -59 -75 -76 -91 -92 -105 -107 -119 -120 -145 -146 -154 -157 0
-21 -40 -41 -58 -59 -75 -76 -91 -92 -106 -107 -119 -121 -145 -146 -154 -157 0
-21 -40 -41 -58 -59 -75 -76 -91 -92 -106 -107 -120 -121 -145 -147 -154 -157 0
-21 -40 -41 -58 -59 -75 -76 -91 -92 -106 -107 -120 -121 -146 -147 -154 -158 0
-19 -38 -39 -56 -57 -73 -74 -89 -90 -104 -105 -118 -119 -144 -145 -155 -156 0
-20 -38 -40 -56 -57 -73 -74 -89 -90 -104 -105 -118 -119 -144 -145 -155 -156 0
-21 -38 -41 -56 -57 -73 -74 -89 -90 -104 -105 -118 -119 -144 -145 -155 -156 0
-20 -39 -40 -56 -58 -73 -74 -89 -90 -104 -105 -118 -119 -144 -145 -155 -156 0
-21 -39 -41 -56 -58 -73 -74 -89 -90 -104 -105 -118 -119 -144 -145 -155 -156 0
-21 -40 -41 -56 -59 -73 -74 -89 -90 -104 -105 -118 -119 -144 -145 -155 -156 0
-20 -39 -40 -57 -58 -73 -75 -89 -90 -104 -105 -118 -119 -144 -145 -155 -156 0
-21 -39 -41 -57 -58 -73 -75 -89 -90 -104 -105 -118 -119 -144 -145 -155 -156 0
-21 -40 -41 -57 -59 -73 -75 -89 -90 -104 -105 -118 -119 -144 -145 -155 -156 0
-21 -40 -41 -58 -59 -73 -76 -89 -90 -104 -105 -118 -119 -144 -145 -155 -156 0
-20 -39 -40 -57 -58 -74 -75 -89 -91 -104 -105 -118 -119 -144 -145 -155 -156 0
-21 -39 -41 -57 -58 -74 -75 -89 -91 -104 -105 -118 -119 -144 -145 -155 -156 0
-21 -40 -41 -57 -59 -74 -75 -89 -91 -104 -105 -118 -119 -144 -145 -155 -156 0
-21 -40 -41 -58 -59 -74 -76 -89 -91 -104 -105 -118 -119 -144 -145 -155 -156 0
-21 -40 -41 -58 -59 -75 -76 -89 -92 -104 -105 -118 -119 -144 -145 -155 -156 0
-20 -39 -40 -57 -58 -74 -75 -90 -91 -104 -106 -118 -119 -144 -145 -155 -156 0
-21 -39 -41 -57 -58 -74 -75 -90 -91 -104 -106 -118 -119 -144 -145 -155 -156 0
-21 -40 -41 -57 -59 -74 -75 -90 -91 -104 -106 -118 -119 -144 -145 -155 -156 0
-21 -40 -41 -58 -59 -74 -76 -90 -91 -104 -106 -118 -119 -144 -145 -155 -156 0
-21 -40 -41 -58 -59 -75 -76 -90 -92 -104 -106 -118 -119 -144 -145 -155 -156 0
-21 -40 -41 -58 -59 -75 -76 -91 -92 -104 -107 -118 -119 -144 -145 -155 -156 0
-20 -39 -40 -57 -58 -74 -75 -90 -91 -105 -106 -118 -120 -144 -145 -155 -156 0
-21 -39 -41 -57 -58 -74 -75 -90 -91 -105 -106 -118 -120 -144 -145 -155 -156 0
-21 -40 -41 -57 -59 -74 -75 -90 -91 -105 -106 -118 -120 -144 -145 -155 -156 0
-21 -40 -41 -58 -59 -74 -76 -90 -91 -105 -106 -118 -120 -144 -145 -155 -156 0
-21 -40 -41 -58 -59 -75 -76 -90 -92 -105 -106 -118 -120 -144 -145 -155 -156 0
-21 -40 -41 -58 -59 -75 -76 -91 -92 -105 -107 -118 -120 -144 -145 -155 -156 0
-21 -40 -41 -58 -59 -75 -76 -91 -92 -106 -107 -118 -121 -144 -145 -155 -156 0
-20 -39 -40 -57 -58 -74 -75 -90 -91 -105 -106 -119 -120 -144 -146 -155 -156 0
-21 -39 -41 -57 -58 -74 -75 -90 -91 -105 -106 -119 -120 -144 -146 -155 -156 0
-21 -40 -41 -57 -59 -74 -75 -90 -91 -105 -106 -119 -120 -144 -146 -155 -156 0
-21 -40 -41 -58 -59 -74 -76 -90 -91 -105 -106 -119 -120 -144 -146 -155 -156 0
-21 -40 -41 -58 -59 -75 -76 -90 -92 -105 -106 -119 -120 -144 -146 -155 -156 0
-21 -40 -41 -58 -59 -75 -76 -91 -92 -105 -107 -119 -120 -144 -146 -155 -156 0
-21 -40 -41 -58 -59 -75 -76 -91 -92 -106 -107 -119 -121 -144 -146 -155 -156 0
-21 -40 -41 -58 -59 -75 -76 -91 -92 -106 -107 -120 -121 -144 -147 -155 -156 0
-20 -39 -40 -57 -58 -74 -75 -90 -91 -105 -106 -119 -120 -145 -146 -155 -157 0
-21 -39 -41 -57 -58 -74 -75 -90 -91 -105 -106 -119 -120 -145 -146 -155 -157 0
-21 -40 -41 -57 -59 -74 -75 -90 -91 -105 -106 -119 -120 -145 -146 -155 -157 0
-21 -40 -41 -58 -59 -74 -76 -90 -91 -105 -106 -119 -120 -145 -146 -155 -157 0
-21 -40 -41 -58 -59 -75 -76 -90 -92 -105 -106 -119 -120 -145 -146 -155 -157 0
-21 -40 -41 -58 -59 -75 -76 -91 -92 -105 -107 -119 -120 -145 -146 -155 -157 0
-21 -40 -41 -58 -59 -75 -76 -91 -92 -106 -107 -119 -121 -145 -146 -155 -157 0
-21 -40 -41 -58 -59 -75 -76 -91 -92 -106 -107 -120 -121 -145 -147 -155 -157 0
-21 -40 -41 -58 -59 -75 -76 -91 -92 -106 -107 -120 -121 -146 -147 -155 -158 0
-20 -39 -40 -57 -58 -74 -75 -90 -91 -105 -106 -119 -120 -145 -146 -156 -157 0
-21 -39 -41 -57 -58 -74 -75 -90 -91 -105 -106 -119 -120 -145 -146 -156 -157 0
-21 -40 -41 -57 -59 -74 -75 -90 -91 -105 -106 -119 -120 -145 -146 -156 -157 0
-21 -40 -41 -58 -59 -74 -76 -90 -91 -105 -106 -119 -120 -145 -146 -156 -157 0
-21 -40 -41 -58 -59 -75 -76 -90 -92 -105 -106 -119 -120 -145 -146 -156 -157 0
-21 -40 -41 -58 -59 -75 -76 -91 -92 -105 -107 -119 -120 -145 -146 -156 -157 0
-21 -40 -41 -58 -59 -75 -76 -91 -92 -106 -107 -119 -121 -145 -146 -156 -157 0
-21 -40 -41 -58 -59 -75 -76 -91 -92 -106 -107 -120 -121 -145 -147 -156 -157 0
-21 -40 -41 -58 -59 -75 -76 -91 -92 -106 -107 -120 -121 -146 -147 -156 -158 0
-21 -40 -41 -58 -59 -75 -76 -91 -92 -106 -107 -120 -121 -146 -147 -157 -158 0
-19 -38 -39 -56 -57 -73 -74 -89 -90 -104 -105 -118 -119 -144 -145 -166 -167 0
-20 -38 -40 -56 -57 -73 -74 -89 -90 -104 -105 -118 -119 -144 -145 -166 -167 0
-21 -38 -41 -56 -57 -73 -74 -89 -90 -104 -105 -118 -119 -144 -145 -166 -167 0
-20 -39 -40 -56 -58 -73 -74 -89 -90 -104 -105 -118 -119 -144 -145 -166 -167 0
-21 -39 -41 -56 -58 -73 -74 -89 -90 -104 -105 -118 -119 -144 -145 -166 -167 0
-21 -40 -41 -56 -59 -73 -74 -89 -90 -104 -105 -118 -119 -144 -145 -166 -167 0
-20 -39 -40 -57 -58 -73 -75 -89 -90 -104 -105 -118 -119 -144 -145 -166 -167 0
-21 -39 -41 -57 -58 -73 -75 -89 -90 -104 -105 -118 -119 -144 -145 -166 -167 0
-21 -40 -41 -57 -59 -73 -75 -89 -90 -104 -105 -118 -119 -144 -145 -166 -167 0
-21 -40 -41 -58 -59 -73 -76 -89 -90 -104 -105 -118 -119 -144 -145 -166 -167 0
-20 -39 -40 -57 -58 -74 -75 -89 -91 -104 -105 -118 -119 -144 -145 -166 -167 0
-21 -39 -41 -57 -58 -74 -75 -89 -91 -104 -105 -118 -119 -144 -145 -166 -167 0
-21 -40 -41 -57 -59 -74 -75 -89 -91 -104 -105 -118 -119 -144 -145 -166 -167 0
-21 -40 -41 -58 -59 -74 -76 -89 -91 -104 -105 -118 -119 -144 -145 -166 -167 0
-21 -40 -41 -58 -59 -75 -76 -89 -92 -104 -105 -118 -119 -144 -145 -166 -167 0
-20 -39 -40 -57 -58 -74 -75 -90 -91 -104 -106 -118 -119 -144 -145 -166 -167 0
-21 -39 -41 -57 -58 -74 -75 -90 -91 -104 -106 -118 -119 -144 -145 -166 -167 0
-21 -40 -41 -57 -59 -74 -75 -90 -91 -104 -106 -118 -119 -144 -145 -166 -167 0
-21 -40 -41 -58 -59 -74 -76 -90 -91 -104 -106 -118 -119 -144 -145 -166 -167 0
-21 -40 -41 -58 -59 -75 -76 -90 -92 -104 -106 -118 -119 -144 -145 -166 -167 0
-21 -40 -41 -58 -59 -75 -76 -91 -92 -104 -107 -118 -119 -144 -145 -166 -167 0
-20 -39 -40 -57 -58 -74 -75 -90 -91 -105 -106 -118 -120 -144 -145 -166 -167 0
-21 -39 -41 -57 -58 -74 -75 -90 -91 -105 -106 -118 -120 -144 -145 -166 -167 0
-21 -40 -41 -57 -59 -74 -75 -90 -91 -105 -106 -118 -120 -144 -145 -166 -167 0
-21 -40 -41 -58 -59 -74 -76 -90 -91 -105 -106 -118 -120 -144 -145 -166 -167 0
-21 -40 -41 -58 -59 -75 -76 -90 -92 -105 -106 -118 -120 -144 -145 -166 -167 0
-21 -40 -41 -58 -59 -75 -76 -91 -92 -105 -107 -118 -120 -144 -145 -166 -167 0
-21 -40 -41 -58 -59 -75 -76 -91 -92 -106 -107 -118 -121 -144 -145 -166 -167 0
-20 -39 -40 -57 -58 -74 -75 -90 -91 -105 -106 -119 -120 -144 -146 -166 -167 0
-21 -39 -41 -57 -58 -74 -75 -90 -91 -105 -106 -119 -120 -144 -146 -166 -167 0
-21 -40 -41 -57 -59 -74 -75 -90 -91 -105 -106 -119 -120 -144 -146 -166 -167 0
-21 -40 -41 -58 -59 -74 -76 -90 -91 -105 -106 -119 -120 -144 -146 -166 -167 0
-21 -40 -41 -58 -59 -75 -76 -90 -92 -105 -106 -119 -120 -144 -146 -166 -167 0
-21 -40 -41 -58 -59 -75 -76 -91 -92 -105 -107 -119 -120 -144 -146 -166 -167 0
-21 -40 -41 -58 -59 -75 -76 -91 -92 -106 -107 -119 -121 -144 -146 -166 -167 0
-21 -40 -41 -58 -59 -75 -76 -91 -92 -106 -107 -120 -121 -144 -147 -166 -167 0
-20 -39 -40 -57 -58 -74 -75 -90 -91 -105 -106 -119 -120 -145 -146 -166 -168 0
-21 -39 -41 -57 -58 -74 -75 -90 -91 -105 -106 -119 -120 -145 -146 -166 -168 0
-21 -40 -41 -57 -59 -74 -75 -90 -91 -105 -106 -119 -120 -145 -146 -166 -168 0
-21 -40 -41 -58 -59 -74 -76 -90 -91 -105 -106 -119 -120 -145 -146 -166 -168 0
-21 -40 -41 -58 -59 -75 -76 -90 -92 -105 -106 -119 -120 -145 -146 -166 -168 0
-21 -40 -41 -58 -59 -75 -76 -91 -92 -105 -107 -119 -120 -145 -146 -166 -168 0
-21 -40 -41 -58 -59 -75 -76 -91 -92 -106 -107 -119 -121 -145 -146 -166 -168 0
-21 -40 -41 -58 -59 -75 -76 -91 -92 -106 -107 -120 -121 -145 -147 -166 -168 0
-21 -40 -41 -58 -59 -75 -76 -91 -92 -106 -107 -120 -121 -146 -147 -166 -169 0
-20 -39 -40 -57 -58 -74 -75 -90 -91 -105 -106 -119 -120 -145 -146 -167 -168 0
-21 -39 -41 -57 -58 -74 -75 -90 -91 -105 -106 -119 -120 -145 -146 -167 -168 0
-21 -40 -41 -57 -59 -74 -75 -90 -91 -105 -106 -119 -120 -145 -146 -167 -168 0
-21 -40 -41 -58 -59 -74 -76 -90 -91 -105 -106 -119 -120 -145 -146 -167 -168 0
-21 -40 -41 -58 -59 -75 -76 -90 -92 -105 -106 -119 -120 -145 -146 -167 -168 0
-21 -40 -41 -58 -59 -75 -76 -91 -92 -105 -107 -119 -120 -145 -146 -167 -168 0
-21 -40 -41 -58 -59 -75 -76 -91 -92 -106 -107 -119 -121 -145 -146 -167 -168 0
-21 -40 -41 -58 -59 -75 -76 -91 -92 -106 -107 -120 -121 -145 -147 -167 -168 0
-21 -40 -41 -58 -59 -75 -76 -91 -92 -106 -107 -120 -121 -146 -147 -167 -169 0
-21 -40 -41 -58 -59 -75 -76 -91 -92 -106 -107 -120 -121 -146 -147 -168 -169 0
-20 -39 -40 -57 -58 -74 -75 -90 -91 -105 -106 -119 -120 -145 -146 -177 -178 0
-21 -39 -41 -57 -58 -74 -75 -90 -91 -105 -106 -119 -120 -145 -146 -177 -178 0
-21 -40 -41 -57 -59 -74 -75 -90 -91 -105 -106 -119 -120 -145 -146 -177 -178 0
-21 -40 -41 -58 -59 -74 -76 -90 -91 -105 -106 -119 -120 -145 -146 -177 -178 0
-21 -40 -41 -58 -59 -75 -76 -90 -92 -105 -106 -119 -120 -145 -146 -177 -178 0
-21 -40 -41 -58 -59 -75 -76 -91 -92 -105 -107 -119 -120 -145 -146 -177 -178 0
-21 -40 -41 -58 -59 -75 -76 -91 -92 -106 -107 -119 -121 -145 -146 -177 -178 0
-21 -40 -41 -58 -59 -75 -76 -91 -92 -106 -107 -120 -121 -145 -147 -177 -178 0
-21 -40 -41 -58 -59 -75 -76 -91 -92 -106 -107 -120 -121 -146 -147 -177 -179 0
-21 -40 -41 -58 -59 -75 -76 -91 -92 -106 -107 -120 -121 -146 -147 -178 -179 0
-21 -40 -41 -58 -59 -75 -76 -91 -92 -106 -107 -120 -121 -146 -147 -187 -188 0
-19 -38 -39 -56 -57 -73 -74 -89 -90 -104 -105 -118 -119 -156 -157 -166 -167 0
-20 -38 -40 -56 -57 -73 -74 -89 -90 -104 -105 -118 -119 -156 -157 -166 -167 0
-21 -38 -41 -56 -57 -73 -74 -89 -90 -104 -105 -118 -119 -156 -157 -166 -167 0
-20 -39 -40 -56 -58 -73 -74 -89 -90 -104 -105 -118 -119 -156 -157 -166 -167 0
-21 -39 -41 -56 -58 -73 -74 -89 -90 -104 -105 -118 -119 -156 -157 -166 -167 0
-21 -40 -41 -56 -59 -73 -74 -89 -90 -104 -105 -118 -119 -156 -157 -166 -167 0
-20 -39 -40 -57 -58 -73 -75 -89 -90 -104 -105 -118 -119 -156 -157 -166 -167 0
-21 -39 -41 -57 -58 -73 -75 -89 -90 -104 -105 -118 -119 -156 -157 -166 -167 0
-21 -40 -41 -57 -59 -73 -75 -89 -90 -104 -105 -118 -119 -156 -157 -166 -167 0
-21 -40 -41 -58 -59 -73 -76 -89 -90 -104 -105 -118 -119 -156 -157 -166 -167 0
-20 -39 -40 -57 -58 -74 -75 -89 -91 -104 -105 -118 -119 -156 -157 -166 -167 0
-21 -39 -41 -57 -58 -74 -75 -89 -91 -104 -105 -118 -119 -156 -157 -166 -167 0
-21 -40 -41 -57 -59 -74 -75 -89 -91 -104 -105 -118 -119 -156 -157 -166 -167 0
-21 -40 -41 -58 -59 -74 -76 -89 -91 -104 -105 -118 -119 -156 -157 -166 -167 0
-21 -40 -41 -58 -59 -75 -76 -89 -92 -104 -105 -118 -119 -156 -157 -166 -167 0
-20 -39 -40 -57 -58 -74 -75 -90 -91 -104 -106 -118 -119 -156 -157 -166 -167 0
-21 -39 -41 -57 -58 -74 -75 -90 -91 -104 -106 -118 -119 -156 -157 -166 -167 0
-21 -40 -41 -57 -59 -74 -75 -90 -91 -104 -106 -118 -119 -156 -157 -166 -167 0
-21 -40 -41 -58 -59 -74 -76 -90 -91 -104 -106 -118 -119 -156 -157 -166 -167 0
-21 -40 -41 -58 -59 -75 -76 -90 -92 -104 -106 -118 -119 -156 -157 -166 -167 0
-21 -40 -41 -58 -59 -75 -76 -91 -92 -104 -107 -118 -119 -156 -157 -166 -167 0
-20 -39 -40 -57 -58 -74 -75 -90 -91 -105 -106 -118 -120 -156 -157 -166 -167 0
-21 -39 -41 -57 -58 -74 -75 -90 -91 -105 -106 -118 -120 -156 -157 -166 -167 0
-21 -40 -41 -57 -59 -74 -75 -90 -91 -105 -106 -118 -120 -156 -157 -166 -167 0
-21 -40 -41 -58 -59 -74 -76 -90 -91 -105 -106 -118 -120 -156 -157 -166 -167 0
-21 -40 -41 -58 -59 -75 -76 -90 -92 -105 -106 -118 -120 -156 -157 -166 -167 0
-21 -40 -41 -58 -59 -75 -76 -91 -92 -105 -107 -118 -120 -156 -157 -166 -167 0
-21 -40 -41 -58 -59 -75 -76 -91 -92 -106 -107 -118 -121 -156 -157 -166 -167 0
-20 -39 -40 -57 -58 -74 -75 -90 -91 -105 -106 -119 -120 -156 -158 -166 -167 0
-21 -39 -41 -57 -58 -74 -75 -90 -91 -105 -106 -119 -120 -156 -158 -166 -167 0
-21 -40 -41 -57 -59 -74 -75 -90 -91 -105 -106 -119 -120 -156 -158 -166 -167 0
-21 -40 -41 -58 -59 -74 -76 -90 -91 -105 -106 -119 -120 -156 -158 -166 -167 0
-21 -40 -41 -58 -59 -75 -76 -90 -92 -105 -106 -119 -120 -156 -158 -166 -167 0
-21 -40 -41 -58 -59 -75 -76 -91 -92 -105 -107 -119 -120 -156 -158 -166 -167 0
-21 -40 -41 -58 -59 -75 -76 -91 -92 -106 -107 -119 -121 -156 -158 -166 -167 0
-21 -40 -41 -58 -59 -75 -76 -91 -92 -106 -107 -120 -121 -156 -159 -166 -167 0
-20 -39 -40 -57 -58 -74 -75 -90 -91 -105 -106 -119 -120 -157 -158 -166 -168 0
-21 -39 -41 -57 -58 -74 -75 -90 -91 -105 -106 -119 -120 -157 -158 -166 -168 0
-21 -40 -41 -57 -59 -74 -75 -90 -91 -105 -106 -119 -120 -157 -158 -166 -168 0
-21 -40 -41 -58 -59 -74 -76 -90 -91 -105 -106 -119 -120 -157 -158 -166 -168 0
-21 -40 -41 -58 -59 -75 -76 -90 -92 -105 -106 -119 -120 -157 -158 -166 -168 0
-21 -40 -41 -58 -59 -75 -76 -91 -92 -105 -107 -119 -120 -157 -158 -166 -168 0
-21 -40 -41 -58 -59 -75 -76 -91 -92 -106 -107 -119 -121 -157 -158 -166 -168 0
-21 -40 -41 -58 -59 -75 -76 -91 -92 -106 -107 -120 -121 -157 -159 -166 -168 0
-21 -40 -41 -58 -59 -75 -76 -91 -92 -106 -107 -120 -121 -158 -159 -166 -169 0
-20 -39 -40 -57 -58 -74 -75 -90 -91 -105 -106 -119 -120 -157 -158 -167 -168 0
-21 -39 -41 -57 -58 -74 -75 -90 -91 -105 -106 -119 -120 -157 -158 -167 -168 0
-21 -40 -41 -57 -59 -74 -75 -90 -91 -105 -106 -119 -120 -157 -158 -167 -168 0
-21 -40 -41 -58 -59 -74 -76 -90 -91 -105 -106 -119 -120 -157 -158 -167 -168 0
-21 -40 -41 -58 -59 -75 -76 -90 -92 -105 -106 -119 -120 -157 -158 -167 -168 0
-21 -40 -41 -58 -59 -75 -76 -91 -92 -105 -107 -119 -120 -157 -158 -167 -168 0
-21 -40 -41 -58 -59 -75 -76 -91 -92 -106 -107 -119 -121 -157 -158 -167 -168 0
-21 -40 -41 -58 -59 -75 -76 -91 -92 -106 -107 -120 -121 -157 -159 -167 -168 0
-21 -40 -41 -58 -59 -75 -76 -91 -92 -106 -107 -120 -121 -158 -159 -167 -169 0
-21 -40 -41 -58 -59 -75 -76 -91 -92 -106 -107 -120 -121 -158 -159 -168 -169 0
-20 -39 -40 -57 -58 -74 -75 -90 -91 -105 -106 -119 -120 -157 -158 -177 -178 0
-21 -39 -41 -57 -58 -74 -75 -90 -91 -105 -106 -119 -120 -157 -158 -177 -178 0
-21 -40 -41 -57 -59 -74 -75 -90 -91 -105 -106 -119 -120 -157 -158 -177 -178 0
-21 -40 -41 -58 -59 -74 -76 -90 -91 -105 -106 -119 -120 -157 -158 -177 -178 0
-21 -40 -41 -58 -59 -75 -76 -90 -92 -105 -106 -119 -120 -157 -158 -177 -178 0
-21 -40 -41 -58 -59 -75 -76 -91 -92 -105 -107 -119 -120 -157 -158 -177 -178 0
-21 -40 -41 -58 -59 -75 -76 -91 -92 -106 -107 -119 -121 -157 -158 -177 -178 0
-21 -40 -41 -58 -59 -75 -76 -91 -92 -106 -107 -120 -121 -157 -159 -177 -178 0
-21 -40 -41 -58 -59 -75 -76 -91 -92 -106 -107 -120 -121 -158 -159 -177 -179 0
-21 -40 -41 -58 -59 -75 -76 -91 -92 -106 -107 -120 -121 -158 -159 -178 -179 0
-21 -40 -41 -58 -59 -75 -76 -91 -92 -106 -107 -120 -121 -158 -159 -187 -188 0
-20 -39 -40 -57 -58 -74 -75 -90 -91 -105 -106 -119 -120 -168 -169 -177 -178 0
-21 -39 -41 -57 -58 -74 -75 -90 -91 -105 -106 -119 -120 -168 -169 -177 -178 0
-21 -40 -41 -57 -59 -74 -75 -90 -91 -105 -106 -119 -120 -168 -169 -177 -178 0
-21 -40 -41 -58 -59 -74 -76 -90 -91 -105 -106 -119 -120 -168 -169 -177 -178 0
-21 -40 -41 -58 -59 -75 -76 -90 -92 -105 -106 -119 -120 -168 -169 -177 -178 0
-21 -40 -41 -58 -59 -75 -76 -91 -92 -105 -107 -119 -120 -168 -169 -177 -178 0
-21 -40 -41 -58 -59 -75 -76 -91 -92 -106 -107 -119 -121 -168 -169 -177 -178 0
-21 -40 -41 -58 -59 -75 -76 -91 -92 -106 -107 -120 -121 -168 -170 -177 -178 0
-21 -40 -41 -58 -59 -75 -76 -91 -92 -106 -107 -120 -121 -169 -170 -177 -179 0
-21 -40 -41 -58 -59 -75 -76 -91 -92 -106 -107 -120 -121 -169 -170 -178 -179 0
-21 -40 -41 -58 -59 -75 -76 -91 -92 -106 -107 -120 -121 -169 -170 -187 -188 0
-21 -40 -41 -58 -59 -75 -76 -91 -92 -106 -107 -120 -121 -179 -180 -187 -188 0
-18 -37 -38 -55 -56 -72 -73 -88 -89 -103 -104 -131 -132 -143 -144 -154 -155 0
-19 -37 -39 -55 -56 -72 -73 -88 -89 -103 -104 -131 -132 -143 -144 -154 -155 0
-20 -37 -40 -55 -56 -72 -73 -88 -89 -103 -104 -131 -132 -143 -144 -154 -155 0
-21 -37 -41 -55 -56 -72 -73 -88 -89 -103 -104 -131 -132 -143 -144 -154 -155 0
-19 -38 -39 -55 -57 -72 -73 -88 -89 -103 -104 -131 -132 -143 -144 -154 -155 0
-20 -38 -40 -55 -57 -72 -73 -88 -89 -103 -104 -131 -132 -143 -144 -154 -155 0
-21 -38 -41 -55 -57 -72 -73 -88 -89 -103 -104 -131 -132 -143 -144 -154 -155 0
-20 -39 -40 -55 -58 -72 -73 -88 -89 -103 -104 -131 -132 -143 -144 -154 -155 0
-21 -39 -41 -55 -58 -72 -73 -88 -89 -103 -104 -131 -132 -143 -144 -154 -155 0
-21 -40 -41 -55 -59 -72 -73 -88 -89 -103 -104 -131 -132 -143 -144 -154 -155 0
-19 -38 -39 -56 -57 -72 -74 -88 -89 -103 -104 -131 -132 -143 -144 -154 -155 0
-20 -38 -40 -56 -57 -72 -74 -88 -89 -103 -104 -131 -132 -143 -144 -154 -155 0
-21 -38 -41 -56 -57 -72 -74 -88 -89 -103 -104 -131 -132 -143 -144 -154 -155 0
-20 -39 -40 -56 -58 -72 -74 -88 -89 -103 -104 -131 -132 -143 -144 -154 -155 0
-21 -39 -41 -56 -58 -72 -74 -88 -89 -103 -104 -131 -132 -143 -144 -154 -155 0
-21 -40 -41 -56 -59 -72 -74 -88 -89 -103 -104 -131 -132 -143 -144 -154 -155 0
-20 -39 -40 -57 -58 -72 -75 -88 -89 -103 -104 -131 -132 -143 -144 -154 -155 0
-21 -39 -41 -57 -58 -72 -75 -88 -89 -103 -104 -131 -132 -143 -144 -154 -155 0
-21 -40 -41 -57 -59 -72 -75 -88 -89 -103 -104 -131 -132 -143 -144 -154 -155 0
-21 -40 -41 -58 -59 -72 -76 -88 -89 -103 -104 -131 -132 -143 -144 -154 -155 0
-19 -38 -39 -56 -57 -73 -74 -88 -90 -103 -104 -131 -132 -143 -144 -154 -155 0
-20 -38 -40 -56 -57 -73 -74 -88 -90 -103 -104 -131 -132 -143 -144 -154 -155 0
-21 -38 -41 -56 -57 -73 -74 -88 -90 -103 -104 -131 -132 -143 -144 -154 -155 0
-20 -39 -40 -56 -58 -73 -74 -88 -90 -103 -104 -131 -132 -143 -144 -154 -155 0
-21 -39 -41 -56 -58 -73 -74 -88 -90 -103 -104 -131 -132 -143 -144 -154 -155 0
-21 -40 -41 -56 -59 -73 -74 -88 -90 -103 -104 -131 -132 -143 -144 -154 -155 0
-20 -39 -40 -57 -58 -73 -75 -88 -90 -103 -104 -131 -132 -143 -144 -154 -155 0
-21 -39 -41 -57 -58 -73 -75 -88 -90 -103 -104 -131 -132 -143 -144 -154 -155 0
-21 -40 -41 -57 -59 -73 -75 -88 -90 -103 -104 -131 -132 -143 -144 -154 -155 0
-21 -40 -41 -58 -59 -73 -76 -88 -90 -103 -104 -131 -132 -143 -144 -154 -155 0
-20 -39 -40 -57 -58 -74 -75 -88 -91 -103 -104 -131 -132 -143 -144 -154 -155 0
-21 -39 -41 -57 -58 -74 -75 -88 -91 -103 -104 -131 -132 -143 -144 -154 -155 0
-21 -40 -41 -57 -59 -74 -75 -88 -91 -103 -104 -131 -132 -143 -144 -154 -155 0
-21 -40 -41 -58 -59 -74 -76 -88 -91 -103 -104 -131 -132 -143 -144 -154 -155 0
-21 -40 -41 -58 -59 -75 -76 -88 -92 -103 -104 -131 -132 -143 -144 -154 -155 0
-19 -38 -39 -56 -57 -73 -74 -89 -90 -103 -105 -131 -132 -143 -144 -154 -155 0
-20 -38 -40 -56 -57 -73 -74 -89 -90 -103 -105 -131 -132 -143 -144 -154 -155 0
-21 -38 -41 -56 -57 -73 -74 -89 -90 -103 -105 -131 -132 -143 -144 -154 -155 0
-20 -39 -40 -56 -58 -73 -74 -89 -90 -103 -105 -131 -132 -143 -144 -154 -155 0
-21 -39 -41 -56 -58 -73 -74 -89 -90 -103 -105 -131 -132 -143 -144 -154 -155 0
-21 -40 -41 -56 -59 -73 -74 -89 -90 -103 -105 -131 -132 -143 -144 -154 -155 0
-20 -39 -40 -57 -58 -73 -75 -89 -90 -103 -105 -131 -132 -143 -144 -154 -155 0
-21 -39 -41 -57 -58 -73 -75 -89 -90 -103 -105 -131 -132 -143 -144 -154 -155 0
-21 -40 -41 -57 -59 -73 -75 -89 -90 -103 -105 -131 -132 -143 -144 -154 -155 0
-21 -40 -41 -58 -59 -73 -76 -89 -90 -103 -105 -131 -132 -143 -144 -154 -155 0
-20 -39 -40 -57 -58 -74 -75 -89 -91 -103 -105 -131 -132 -143 -144 -154 -155 0
-21 -39 -41 -57 -58 -74 -75 -89 -91 -103 -105 -131 -132 -143 -144 -154 -155 0
-21 -40 -41 -57 -59 -74 -75 -89 -91 -103 -105 -131 -132 -143 -144 -154 -155 0
-21 -40 -41 -58 -59 -74 -76 -89 -91 -103 -105 -131 -132 -143 -144 -154 -155 0
-21 -40 -41 -58 -59 -75 -76 -89 -92 -103 -105 -131 -132 -143 -144 -154 -155 0
-20 -39 -40 -57 -58 -74 -75 -90 -91 -103 -106 -131 -132 -143 -144 -154 -155 0
-21 -39 -41 -57 -58 -74 -75 -90 -91 -103 -106 -131 -132 -143 -144 -154 -155 0
-21 -40 -41 -57 -59 -74 -75 -90 -91 -103 -106 -131 -132 -143 -144 -154 -155 0
-21 -40 -41 -58 -59 -74 -76 -90 -91 -103 -106 -131 -132 -143 -144 -154 -155 0
-21 -40 -41 -58 -59 -75 -76 -90 -92 -103 -106 -131 -132 -143 -144 -154 -155 0
-21 -40 -41 -58 -59 -75 -76 -91 -92 -103 -107 -131 -132 -143 -144 -154 -155 0
-19 -38 -39 -56 -57 -73 -74 -89 -90 -104 -105 -131 -133 -143 -144 -154 -155 0
-20 -38 -40 -56 -57 -73 -74 -89 -90 -104 -105 -131 -133 -143 -144 -154 -155 0
-21 -38 -41 -56 -57 -73 -74 -89 -90 -104 -105 -131 -133 -143 -144 -154 -155 0
-20 -39 -40 -56 -58 -73 -74 -89 -90 -104 -105 -131 -133 -143 -144 -154 -155 0
-21 -39 -41 -56 -58 -73 -74 -89 -90 -104 -105 -131 -133 -143 -144 -154 -155 0
-21 -40 -41 -56 -59 -73 -74 -89 -90 -104 -105 -131 -133 -143 -144 -154 -155 0
-20 -39 -40 -57 -58 -73 -75 -89 -90 -104 -105 -131 -133 -143 -144 -154 -155 0
-21 -39 -41 -57 -58 -73 -75 -89 -90 -104 -105 -131 -133 -143 -144 -154 -155 0
-21 -40 -41 -57 -59 -73 -75 -89 -90 -104 -105 -131 -133 -143 -144 -154 -155 0
-21 -40 -41 -58 -59 -73 -76 -89 -90 -104 -105 -131 -133 -143 -144 -154 -155 0
-20 -39 -40 -57 -58 -74 -75 -89 -91 -104 -105 -131 -133 -143 -144 -154 -155 0
-21 -39 -41 -57 -58 -74 -75 -89 -91 -104 -105 -131 -133 -143 -144 -154 -155 0
-21 -40 -41 -57 -59 -74 -75 -89 -91 -104 -105 -131 -133 -143 -144 -154 -155 0
-21 -40 -41 -58 -59 -74 -76 -89 -91 -104 -105 -131 -133 -143 -144 -154 -155 0
-21 -40 -41 -58 -59 -75 -76 -89 -92 -104 -105 -131 -133 -143 -144 -154 -155 0
-20 -39 -40 -57 -58 -74 -75 -90 -91 -104 -106 -131 -133 -143 -144 -154 -155 0
-21 -39 -41 -57 -58 -74 -75 -90 -91 -104 -106 -131 -133 -143 -144 -154 -155 0
-21 -40 -41 -57 -59 -74 -75 -90 -91 -104 -106 -131 -133 -143 -144 -154 -155 0
-21 -40 -41 -58 -59 -74 -76 -90 -91 -104 -106 -131 -133 -143 -144 -154 -155 0
-21 -40 -41 -58 -59 -75 -76 -90 -92 -104 -106 -131 -133 -143 -144 -154 -155 0
-21 -40 -41 -58 -59 -75 -76 -91 -92 -104 -107 -131 -133 -143 -144 -154 -155 0
-20 -39 -40 -57 -58 -74 -75 -90 -91 -105 -106 -131 -134 -143 -144 -154 -155 0
-21 -39 -41 -57 -58 -74 -75 -90 -91 -105 -106 -131 -134 -143 -144 -154 -155 0
-21 -40 -41 -57 -59 -74 -75 -90 -91 -105 -106 -131 -134 -143 -144 -154 -155 0
-21 -40 -41 -58 -59 -74 -76 -90 -91 -105 -106 -131 -134 -143 -144 -154 -155 0
-21 -40 -41 -58 -59 -75 -76 -90 -92 -105 -106 -131 -134 -143 -144 -154 -155 0
-21 -40 -41 -58 -59 -75 -76 -91 -92 -105 -107 -131 -134 -143 -144 -154 -155 0
-21 -40 -41 -58 -59 -75 -76 -91 -92 -106 -107 -131 -135 -143 -144 -154 -155 0
-19 -38 -39 -56 -57 -73 -74 -89 -90 -104 -105 -132 -133 -143 -145 -154 -155 0
-20 -38 -40 -56 -57 -73 -74 -89 -90 -104 -105 -132 -133 -143 -145 -154 -155 0
-21 -38 -41 -56 -57 -73 -74 -89 -90 -104 -105 -132 -133 -143 -145 -154 -155 0
-20 -39 -40 -56 -58 -73 -74 -89 -90 -104 -105 -132 -133 -143 -145 -154 -155 0
-21 -39 -41 -56 -58 -73 -74 -89 -90 -104 -105 -132 -133 -143 -145 -154 -155 0
-21 -40 -41 -56 -59 -73 -74 -89 -90 -104 -105 -132 -133 -143 -145 -154 -155 0
-20 -39 -40 -57 -58 -73 -75 -89 -90 -104 -105 -132 -133 -143 -145 -154 -155 0
-21 -39 -41 -57 -58 -73 -75 -89 -90 -104 -105 -132 -133 -143 -145 -154 -155 0
-21 -40 -41 -57 -59 -73 -75 -89 -90 -104 -105 -132 -133 -143 -145 -154 -155 0
-21 -40 -41 -58 -59 -73 -76 -89 -90 -104 -105 -132 -133 -143 -145 -154 -155 0
-20 -39 -40 -57 -58 -74 -75 -89 -91 -104 -105 -132 -133 -143 -145 -154 -155 0
-21 -39 -41 -57 -58 -74 -75 -89 -91 -104 -105 -132 -133 -143 -145 -154 -155 0
-21 -40 -41 -57 -59 -74 -75 -89 -91 -104 -105 -132 -133 -143 -145 -154 -155 0
-21 -40 -41 -58 -59 -74 -76 -89 -91 -104 -105 -132 -133 -143 -145 -154 -155 0
-21 -40 -41 -58 -59 -75 -76 -89 -92 -104 -105 -132 -133 -143 -145 -154 -155 0
-20 -39 -40 -57 -58 -74 -75 -90 -91 -104 -106 -132 -133 -143 -145 -154 -155 0
-21 -39 -41 -57 -58 -74 -75 -90 -91 -104 -106 -132 -133 -143 -145 -154 -155 0
-21 -40 -41 -57 -59 -74 -75 -90 -91 -104 -106 -132 -133 -143 -145 -154 -155 0
-21 -40 -41 -58 -59 -74 -76 -90 -91 -104 -106 -132 -133 -143 -145 -154 -155 0
-21 -40 -41 -58 -59 -75 -76 -90 -92 -104 -106 -132 -133 -143 -145 -154 -155 0
-21 -40 -41 -58 -59 -75 -76 -91 -92 -104 -107 -132 -133 -143 -145 -154 -155 0
-20 -39 -40 -57 -58 -74 -75 -90 -91 -105 -106 -132 -134 -143 -145 -154 -155 0
-21 -39 -41 -57 -58 -74 -75 -90 -91 -105 -106 -132 -134 -143 -145 -154 -155 0
-21 -40 -41 -57 -59 -74 -75 -90 -91 -105 -106 -132 -134 -143 -145 -154 -155 0
-21 -40 -41 -58 -59 -74 -76 -90 -91 -105 -106 -132 -134 -143 -145 -154 -155 0
-21 -40 -41 -58 -59 -75 -76 -90 -92 -105 -106 -132 -134 -143 -145 -154 -155 0
-21 -40 -41 -58 -59 -75 -76 -91 -92 -105 -107 -132 -134 -143 -145 -154 -155 0
-21 -40 -41 -58 -59 -75 -76 -91 -92 -106 -107 -132 -135 -143 -145 -154 -155 0
-20 -39 -40 -57 -58 -74 -75 -90 -91 -105 -106 -133 -134 -143 -146 -154 -155 0
-21 -39 -41 -57 -58 -74 -75 -90 -91 -105 -106 -133 -134 -143 -146 -154 -155 0
-21 -40 -41 -57 -59 -74 -75 -90 -91 -105 -106 -133 -134 -143 -146 -154 -155 0
-21 -40 -41 -58 -59 -74 -76 -90 -91 -105 -106 -133 -134 -143 -146 -154 -155 0
-21 -40 -41 -58 -59 -75 -76 -90 -92 -105 -106 -133 -134 -143 -146 -154 -155 0
-21 -40 -41 -58 -59 -75 -76 -91 -92 -105 -107 -133 -134 -143 -146 -154 -155 0
-21 -40 -41 -58 -59 -75 -76 -91 -92 -106 -107 -133 -135 -143 -146 -154 -155 0
-21 -40 -41 -58 -59 -75 -76 -91 -92 -106 -107 -134 -135 -143 -147 -154 -155 0
-19 -38 -39 -56 -57 -73 -74 -89 -90 -104 -105 -132 -133 -144 -145 -154 -156 0
-20 -38 -40 -56 -57 -73 -74 -89 -90 -104 -105 -132 -133 -144 -145 -154 -156 0
-21 -38 -41 -56 -57 -73 -74 -89 -90 -104 -105 -132 -133 -144 -145 -154 -156 0
-20 -39 -40 -56 -58 -73 -74 -89 -90 -104 -105 -132 -133 -144 -145 -154 -156 0
-21 -39 -41 -56 -58 -73 -74 -89 -90 -104 -105 -132 -133 -144 -145 -154 -156 0
-21 -40 -41 -56 -59 -73 -74 -89 -90 -104 -105 -132 -133 -144 -145 -154 -156 0
-20 -39 -40 -57 -58 -73 -75 -89 -90 -104 -105 -132 -133 -144 -145 -154 -156 0
-21 -39 -41 -57 -58 -73 -75 -89 -90 -104 -105 -132 -133 -144 -145 -154 -156 0
-21 -40 -41 -57 -59 -73 -75 -89 -90 -104 -105 -132 -133 -144 -145 -154 -156 0
-21 -40 -41 -58 -59 -73 -76 -89 -90 -104 -105 -132 -133 -144 -145 -154 -156 0
-20 -39 -40 -57 -58 -74 -75 -89 -91 -104 -105 -132 -133 -144 -145 -154 -156 0
-21 -39 -41 -57 -58 -74 -75 -89 -91 -104 -105 -132 -133 -144 -145 -154 -156 0
-21 -40 -41 -57 -59 -74 -75 -89 -91 -104 -105 -132 -133 -144 -145 -154 -156 0
-21 -40 -41 -58 -59 -74 -76 -89 -91 -104 -105 -132 -133 -144 -145 -154 -156 0
-21 -40 -41 -58 -59 -75 -76 -89 -92 -104 -105 -132 -133 -144 -145 -154 -156 0
-20 -39 -40 -57 -58 -74 -75 -90 -91 -104 -106 -132 -133 -144 -145 -154 -156 0
-21 -39 -41 -57 -58 -74 -75 -90 -91 -104 -106 -132 -133 -144 -145 -154 -156 0
-21 -40 -41 -57 -59 -74 -75 -90 -91 -104 -106 -132 -133 -144 -145 -154 -156 0
-21 -40 -41 -58 -59 -74 -76 -90 -91 -104 -106 -132 -133 -144 -145 -154 -156 0
-21 -40 -41 -58 -59 -75 -76 -90 -92 -104 -106 -132 -133 -144 -145 -154 -156 0
-21 -40 -41 -58 -59 -75 -76 -91 -92 -104 -107 -132 -133 -144 -145 -154 -156 0
-20 -39 -40 -57 -58 -74 -75 -90 -91 -105 -106 -132 -134 -144 -145 -154 -156 0
-21 -39 -41 -57 -58 -74 -75 -90 -91 -105 -106 -132 -134 -144 -145 -154 -156 0
-21 -40 -41 -57 -59 -74 -75 -90 -91 -105 -106 -132 -134 -144 -145 -154 -156 0
-21 -40 -41 -58 -59 -74 -76 -90 -91 -105 -106 -132 -134 -144 -145 -154 -156 0
-21 -40 -41 -58 -59 -75 -76 -90 -92 -105 -106 -132 -134 -144 -145 -154 -156 0
-21 -40 -41 -58 -59 -75 -76 -91 -92 -105 -107 -132 -134 -144 -145 -154 -156 0
-21 -40 -41 -58 -59 -75 -76 -91 -92 -106 -107 -132 -135 -144 -145 -154 -156 0
-20 -39 -40 -57 -58 -74 -75 -90 -91 -105 -106 -133 -134 -144 -146 -154 -156 0
-21 -39 -41 -57 -58 -74 -75 -90 -91 -105 -106 -133 -134 -144 -146 -154 -156 0
-21 -40 -41 -57 -59 -74 -75 -90 -91 -105 -106 -133 -134 -144 -146 -154 -156 0
-21 -40 -41 -58 -59 -74 -76 -90 -91 -105 -106 -133 -134 -144 -146 -154 -156 0
-21 -40 -41 -58 -59 -75 -76 -90 -92 -105 -106 -133 -134 -144 -146 -154 -156 0
-21 -40 -41 -58 -59 -75 -76 -91 -92 -105 -107 -133 -134 -144 -146 -154 -156 0
-21 -40 -41 -58 -59 -75 -76 -91 -92 -106 -107 -133 -135 -144 -146 -154 -156 0
-21 -40 -41 -58 -59 -75 -76 -91 -92 -106 -107 -134 -135 -144 -147 -154 -156 0
-20 -39 -40 -57 -58 -74 -75 -90 -91 -105 -106 -133 -134 -145 -146 -154 -157 0
-21 -39 -41 -57 -58 -74 -75 -90 -91 -105 -106 -133 -134 -145 -146 -154 -157 0
-21 -40 -41 -57 -59 -74 -75 -90 -91 -105 -106 -133 -134 -145 -146 -154 -157 0
-21 -40 -41 -58 -59 -74 -76 -90 -91 -105 -106 -133 -134 -145 -146 -154 -157 0
-21 -40 -41 -58 -59 -75 -76 -90 -92 -105 -106 -133 -134 -145 -146 -154 -157 0
-21 -40 -41 -58 -59 -75 -76 -91 -92 -105 -107 -133 -134 -145 -146 -154 -157 0
-21 -40 -41 -58 -59 -75 -76 -91 -92 -106 -107 -133 -135 -145 -146 -154 -157 0
-21 -40 -41 -58 -59 -75 -76 -91 -92 -106 -107 -134 -135 -145 -147 -154 -157 0
-21 -40 -41 -58 -59 -75 -76 -91 -92 -106 -107 -134 -135 -146 -147 -154 -158 0
-19 -38 -39 -56 -57 -73 -74 -89 -90 -104 -105 -132 -133 -144 -145 -155 -156 0
-20 -38 -40 -56 -57 -73 -74 -89 -90 -104 -105 -132 -133 -144 -145 -155 -156 0
-21 -38 -41 -56 -57 -73 -74 -89 -90 -104 -105 -132 -133 -144 -145 -155 -156 0
-20 -39 -40 -56 -58 -73 -74 -89 -90 -104 -105 -132 -133 -144 -145 -155 -156 0
-21 -39 -41 -56 -58 -73 -74 -89 -90 -104 -105 -132 -133 -144 -145 -155 -156 0
-21 -40 -41 -56 -59 -73 -74 -89 -90 -104 -105 -132 -133 -144 -145 -155 -156 0
-20 -39 -40 -57 -58 -73 -75 -89 -90 -104 -105 -132 -133 -144 -145 -155 -156 0
-21 -39 -41 -57 -58 -73 -75 -89 -90 -104 -105 -132 -133 -144 -145 -155 -156 0
-21 -40 -41 -57 -59 -73 -75 -89 -90 -104 -105 -132 -133 -144 -145 -155 -156 0
-21 -40 -41 -58 -59 -73 -76 -89 -90 -104 -105 -132 -133 -144 -145 -155 -156 0
-20 -39 -40 -57 -58 -74 -75 -89 -91 -104 -105 -132 -133 -144 -145 -155 -156 0
-21 -39 -41 -57 -58 -74 -75 -89 -91 -104 -105 -132 -133 -144 -145 -155 -156 0
-21 -40 -41 -57 -59 -74 -75 -89 -91 -104 -105 -132 -133 -144 -145 -155 -156 0
-21 -40 -41 -58 -59 -74 -76 -89 -91 -104 -105 -132 -133 -144 -145 -155 -156 0
-21 -40 -41 -58 -59 -75 -76 -89 -92 -104 -105 -132 -133 -144 -145 -155 -156 0
-20 -39 -40 -57 -58 -74 -75 -90 -91 -104 -106 -132 -133 -144 -145 -155 -156 0
-21 -39 -41 -57 -58 -74 -75 -90 -91 -104 -106 -132 -133 -144 -145 -155 -156 0
-21 -40 -41 -57 -59 -74 -75 -90 -91 -104 -106 -132 -133 -144 -145 -155 -156 0
-21 -40 -41 -58 -59 -74 -76 -90 -91 -104 -106 -132 -133 -144 -145 -155 -156 0
-21 -40 -41 -58 -59 -75 -76 -90 -92 -104 -106 -132 -133 -144 -145 -155 -156 0
-21 -40 -41 -58 -59 -75 -76 -91 -92 -104 -107 -132 -133 -144 -145 -155 -156 0
-20 -39 -40 -57 -58 -74 -75 -90 -91 -105 -106 -132 -134 -144 -145 -155 -156 0
-21 -39 -41 -57 -58 -74 -75 -90 -91 -105 -106 -132 -134 -144 -145 -155 -156 0
-21 -40 -41 -57 -59 -74 -75 -90 -91 -105 -106 -132 -134 -144 -145 -155 -156 0
-21 -40 -41 -58 -59 -74 -76 -90 -91 -105 -106 -132 -134 -144 -145 -155 -156 0
-21 -40 -41 -58 -59 -75 -76 -90 -92 -105 -106 -132 -134 -144 -145 -155 -156 0
-21 -40 -41 -58 -59 -75 -76 -91 -92 -105 -107 -132 -134 -144 -145 -155 -156 0
-21 -40 -41 -58 -59 -75 -76 -91 -92 -106 -107 -132 -135 -144 -145 -155 -156 0
-20 -39 -40 -57 -58 -74 -75 -90 -91 -105 -106 -133 -134 -144 -146 -155 -156 0
-21 -39 -41 -57 -58 -74 -75 -90 -91 -105 -106 -133 -134 -144 -146 -155 -156 0
-21 -40 -41 -57 -59 -74 -75 -90 -91 -105 -106 -133 -134 -144 -146 -155 -156 0
-21 -40 -41 -58 -59 -74 -76 -90 -91 -105 -106 -133 -134 -144 -146 -155 -156 0
-21 -40 -41 -58 -59 -75 -76 -90 -92 -105 -106 -133 -134 -144 -146 -155 -156 0
-21 -40 -41 -58 -59 -75 -76 -91 -92 -105 -107 -133 -134 -144 -146 -155 -156 0
-21 -40 -41 -58 -59 -75 -76 -91 -92 -106 -107 -133 -135 -144 -146 -155 -156 0
-21 -40 -41 -58 -59 -75 -76 -91 -92 -106 -107 -134 -135 -144 -147 -155 -156 0
-20 -39 -40 -57 -58 -74 -75 -90 -91 -105 -106 -133 -134 -145 -146 -155 -157 0
-21 -39 -41 -57 -58 -74 -75 -90 -91 -105 -106 -133 -134 -145 -146 -155 -157 0
-21 -40 -41 -57 -59 -74 -75 -90 -91 -105 -106 -133 -134 -145 -146 -155 -157 0
-21 -40 -41 -58 -59 -74 -76 -90 -91 -105 -106 -133 -134 -145 -146 -155 -157 0
-21 -40 -41 -58 -59 -75 -76 -90 -92 -105 -106 -133 -134 -145 -146 -155 -157 0
-21 -40 -41 -58 -59 -75 -76 -91 -92 -105 -107 -133 -134 -145 -146 -155 -157 0
-21 -40 -41 -58 -59 -75 -76 -91 -92 -106 -107 -133 -135 -145 -146 -155 -157 0
-21 -40 -41 -58 -59 -75 -76 -91 -92 -106 -107 -134 -135 -145 -147 -155 -157 0
-21 -40 -41 -58 -59 -75 -76 -91 -92 -106 -107 -134 -135 -146 -147 -155 -158 0
-20 -39 -40 -57 -58 -74 -75 -90 -91 -105 -106 -133 -134 -145 -146 -156 -157 0
-21 -39 -41 -57 -58 -74 -75 -90 -91 -105 -106 -133 -134 -145 -146 -156 -157 0
-21 -40 -41 -57 -59 -74 -75 -90 -91 -105 -106 -133 -134 -145 -146 -156 -157 0
-21 -40 -41 -58 -59 -74 -76 -90 -91 -105 -106 -133 -134 -145 -146 -156 -157 0
-21 -40 -41 -58 -59 -75 -76 -90 -92 -105 -106 -133 -134 -145 -146 -156 -157 0
-21 -40 -41 -58 -59 -75 -76 -91 -92 -105 -107 -133 -134 -145 -146 -156 -157 0
-21 -40 -41 -58 -59 -75 -76 -91 -92 -106 -107 -133 -135 -145 -146 -156 -157 0
-21 -40 -41 -58 -59 -75 -76 -91 -92 -106 -107 -134 -135 -145 -147 -156 -157 0
-21 -40 -41 -58 -59 -75 -76 -91 -92 -106 -107 -134 -135 -146 -147 -156 -158 0
-21 -40 -41 -58 -59 -75 -76 -91 -92 -106 -107 -134 -135 -146 -147 -157 -158 0
-19 -38 -39 -56 -57 -73 -74 -89 -90 -104 -105 -132 -133 -144 -145 -166 -167 0
-20 -38 -40 -56 -57 -73 -74 -89 -90 -104 -105 -132 -133 -144 -145 -166 -167 0
-21 -38 -41 -56 -57 -73 -74 -89 -90 -104 -105 -132 -133 -144 -145 -166 -167 0
-20 -39 -40 -56 -58 -73 -74 -89 -90 -104 -105 -132 -133 -144 -145 -166 -167 0
-21 -39 -41 -56 -58 -73 -74 -89 -90 -104 -105 -132 -133 -144 -145 -166 -167 0
-21 -40 -41 -56 -59 -73 -74 -89 -90 -104 -105 -132 -133 -144 -145 -166 -167 0
-20 -39 -40 -57 -58 -73 -75 -89 -90 -104 -105 -132 -133 -144 -145 -166 -167 0
-21 -39 -41 -57 -58 -73 -75 -89 -90 -104 -105 -132 -133 -144 -145 -166 -167 0
-21 -40 -41 -57 -59 -73 -75 -89 -90 -104 -105 -132 -133 -144 -145 -166 -167 0
-21 -40 -41 -58 -59 -73 -76 -89 -90 -104 -105 -132 -133 -144 -145 -166 -167 0
-20 -39 -40 -57 -58 -74 -75 -89 -91 -104 -105 -132 -133 -144 -145 -166 -167 0
-21 -39 -41 -57 -58 -74 -75 -89 -91 -104 -105 -132 -133 -144 -145 -166 -167 0
-21 -40 -41 -57 -59 -74 -75 -89 -91 -104 -105 -132 -133 -144 -145 -166 -167 0
-21 -40 -41 -58 -59 -74 -76 -89 -91 -104 -105 -132 -133 -144 -145 -166 -167 0
-21 -40 -41 -58 -59 -75 -76 -89 -92 -104 -105 -132 -133 -144 -145 -166 -167 0
-20 -39 -40 -57 -58 -74 -75 -90 -91 -104 -106 -132 -133 -144 -145 -166 -167 0
-21 -39 -41 -57 -58 -74 -75 -90 -91 -104 -106 -132 -133 -144 -145 -166 -167 0
-21 -40 -41 -57 -59 -74 -75 -90 -91 -104 -106 -132 -133 -144 -145 -166 -167 0
-21 -40 -41 -58 -59 -74 -76 -90 -91 -104 -106 -132 -133 -144 -145 -166 -167 0
-21 -40 -41 -58 -59 -75 -76 -90 -92 -104 -106 -132 -133 -144 -145 -166 -167 0
-21 -40 -41 -58 -59 -75 -76 -91 -92 -104 -107 -132 -133 -144 -145 -166 -167 0
-20 -39 -40 -57 -58 -74 -75 -90 -91 -105 -106 -132 -134 -144 -145 -166 -167 0
-21 -39 -41 -57 -58 -74 -75 -90 -91 -105 -106 -132 -134 -144 -145 -166 -167 0
-21 -40 -41 -57 -59 -74 -75 -90 -91 -105 -106 -132 -134 -144 -145 -166 -167 0
-21 -40 -41 -58 -59 -74 -76 -90 -91 -105 -106 -132 -134 -144 -145 -166 -167 0
-21 -40 -41 -58 -59 -75 -76 -90 -92 -105 -106 -132 -134 -144 -145 -166 -167 0
-21 -40 -41 -58 -59 -75 -76 -91 -92 -105 -107 -132 -134 -144 -145 -166 -167 0
-21 -40 -41 -58 -59 -75 -76 -91 -92 -106 -107 -132 -135 -144 -145 -166 -167 0
-20 -39 -40 -57 -58 -74 -75 -90 -91 -105 -106 -133 -134 -144 -146 -166 -167 0
-21 -39 -41 -57 -58 -74 -75 -90 -91 -105 -106 -133 -134 -144 -146 -166 -167 0
-21 -40 -41 -57 -59 -74 -75 -90 -91 -105 -106 -133 -134 -144 -146 -166 -167 0
-21 -40 -41 -58 -59 -74 -76 -90 -91 -105 -106 -133 -134 -144 -146 -166 -167 0
-21 -40 -41 -58 -59 -75 -76 -90 -92 -105 -106 -133 -134 -144 -146 -166 -167 0
-21 -40 -41 -58 -59 -75 -76 -91 -92 -105 -107 -133 -134 -144 -146 -166 -167 0
-21 -40 -41 -58 -59 -75 -76 -91 -92 -106 -107 -133 -135 -144 -146 -166 -167 0
-21 -40 -41 -58 -59 -75 -76 -91 -92 -106 -107 -134 -135 -144 -147 -166 -167 0
-20 -39 -40 -57 -58 -74 -75 -90 -91 -105 -106 -133 -134 -145 -146 -166 -168 0
-21 -39 -41 -57 -58 -74 -75 -90 -91 -105 -106 -133 -134 -145 -146 -166 -168 0
-21 -40 -41 -57 -59 -74 -75 -90 -91 -105 -106 -133 -134 -145 -146 -166 -168 0
-21 -40 -41 -58 -59 -74 -76 -90 -91 -105 -106 -133 -134 -145 -146 -166 -168 0
-21 -40 -41 -58 -59 -75 -76 -90 -92 -105 -106 -133 -134 -145 -146 -166 -168 0
-21 -40 -41 -58 -59 -75 -76 -91 -92 -105 -107 -133 -134 -145 -146 -166 -168 0
-21 -40 -41 -58 -59 -75 -76 -91 -92 -106 -107 -133 -135 -145 -146 -166 -168 0
-21 -40 -41 -58 -59 -75 -76 -91 -92 -106 -107 -134 -135 -145 -147 -166 -168 0
-21 -40 -41 -58 -59 -75 -76 -91 -92 -106 -107 -134 -135 -146 -147 -166 -169 0
-20 -39 -40 -57 -58 -74 -75 -90 -91 -105 -106 -133 -134 -145 -146 -167 -168 0
-21 -39 -41 -57 -58 -74 -75 -90 -91 -105 -106 -133 -134 -145 -146 -167 -168 0
-21 -40 -41 -57 -59 -74 -75 -90 -91 -105 -106 -133 -134 -145 -146 -167 -168 0
-21 -40 -41 -58 -59 -74 -76 -90 -91 -105 -106 -133 -134 -145 -146 -167 -168 0
-21 -40 -41 -58 -59 -75 -76 -90 -92 -105 -106 -133 -134 -145 -146 -167 -168 0
-21 -40 -41 -58 -59 -75 -76 -91 -92 -105 -107 -133 -134 -145 -146 -167 -168 0
-21 -40 -41 -58 -59 -75 -76 -91 -92 -106 -107 -133 -135 -145 -146 -167 -168 0
-21 -40 -41 -58 -59 -75 -76 -91 -92 -106 -107 -134 -135 -145 -147 -167 -168 0
-21 -40 -41 -58 -59 -75 -76 -91 -92 -106 -107 -134 -135 -146 -147 -167 -169 0
-21 -40 -41 -58 -59 -75 -76 -91 -92 -106 -107 -134 -135 -146 -147 -168 -169 0
-20 -39 -40 -57 -58 -74 -75 -90 -91 -105 -106 -133 -134 -145 -146 -177 -178 0
-21 -39 -41 -57 -58 -74 -75 -90 -91 -105 -106 -133 -134 -145 -146 -177 -178 0
-21 -40 -41 -57 -59 -74 -75 -90 -91 -105 -106 -133 -134 -145 -146 -177 -178 0
-21 -40 -41 -58 -59 -74 -76 -90 -91 -105 -106 -133 -134 -145 -146 -177 -178 0
-21 -40 -41 -58 -59 -75 -76 -90 -92 -105 -106 -133 -134 -145 -146 -177 -178 0
-21 -40 -41 -58 -59 -75 -76 -91 -92 -105 -107 -133 -134 -145 -146 -177 -178 0
-21 -40 -41 -58 -59 -75 -76 -91 -92 -106 -107 -133 -135 -145 -146 -177 -178 0
-21 -40 -41 -58 -59 -75 -76 -91 -92 -106 -107 -134 -135 -145 -147 -177 -178 0
-21 -40 -41 -58 -59 -75 -76 -91 -92 -106 -107 -134 -135 -146 -147 -177 -179 0
-21 -40 -41 -58 -59 -75 -76 -91 -92 -106 -107 -134 -135 -146 -147 -178 -179 0
-21 -40 -41 -58 -59 -75 -76 -91 -92 -106 -107 -134 -135 -146 -147 -187 -188 0
-19 -38 -39 -56 -57 -73 -74 -89 -90 -104 -105 -132 -133 -156 -157 -166 -167 0
-20 -38 -40 -56 -57 -73 -74 -89 -90 -104 -105 -132 -133 -156 -157 -166 -167 0
-21 -38 -41 -56 -57 -73 -74 -89 -90 -104 -105 -132 -133 -156 -157 -166 -167 0
-20 -39 -40 -56 -58 -73 -74 -89 -90 -104 -105 -132 -133 -156 -157 -166 -167 0
-21 -39 -41 -56 -58 -73 -74 -89 -90 -104 -105 -132 -133 -156 -157 -166 -167 0
-21 -40 -41 -56 -59 -73 -74 -89 -90 -104 -105 -132 -133 -156 -157 -166 -167 0
-20 -39 -40 -57 -58 -73 -75 -89 -90 -104 -105 -132 -133 -156 -157 -166 -167 0
-21 -39 -41 -57 -58 -73 -75 -89 -90 -104 -105 -132 -133 -156 -157 -166 -167 0
-21 -40 -41 -57 -59 -73 -75 -89 -90 -104 -105 -132 -133 -156 -157 -166 -167 0
-21 -40 -41 -58 -59 -73 -76 -89 -90 -104 -105 -132 -133 -156 -157 -166 -167 0
-20 -39 -40 -57 -58 -74 -75 -89 -91 -104 -105 -132 -133 -156 -157 -166 -167 0
-21 -39 -41 -57 -58 -74 -75 -89 -91 -104 -105 -132 -133 -156 -157 -166 -167 0
-21 -40 -41 -57 -59 -74 -75 -89 -91 -104 -105 -132 -133 -156 -157 -166 -167 0
-21 -40 -41 -58 -59 -74 -76 -89 -91 -104 -105 -132 -133 -156 -157 -166 -167 0
-21 -40 -41 -58 -59 -75 -76 -89 -92 -104 -105 -132 -133 -156 -157 -166 -167 0
-20 -39 -40 -57 -58 -74 -75 -90 -91 -104 -106 -132 -133 -156 -157 -166 -167 0
-21 -39 -41 -57 -58 -74 -75 -90 -91 -104 -106 -132 -133 -156 -157 -166 -167 0
-21 -40 -41 -57 -59 -74 -75 -90 -91 -104 -106 -132 -133 -156 -157 -166 -167 0
-21 -40 -41 -58 -59 -74 -76 -90 -91 -104 -106 -132 -133 -156 -157 -166 -167 0
-21 -40 -41 -58 -59 -75 -76 -90 -92 -104 -106 -132 -133 -156 -157 -166 -167 0
-21 -40 -41 -58 -59 -75 -76 -91 -92 -104 -107 -132 -133 -156 -157 -166 -167 0
-20 -39 -40 -57 -58 -74 -75 -90 -91 -105 -106 -132 -134 -156 -157 -166 -167 0
-21 -39 -41 -57 -58 -74 -75 -90 -91 -105 -106 -132 -134 -156 -157 -166 -167 0
-21 -40 -41 -57 -59 -74 -75 -90 -91 -105 -106 -132 -134 -156 -157 -166 -167 0
-21 -40 -41 -58 -59 -74 -76 -90 -91 -105 -106 -132 -134 -156 -157 -166 -167 0
-21 -40 -41 -58 -59 -75 -76 -90 -92 -105 -106 -132 -134 -156 -157 -166 -167 0
-21 -40 -41 -58 -59 -75 -76 -91 -92 -105 -107 -132 -134 -156 -157 -166 -167 0
-21 -40 -41 -58 -59 -75 -76 -91 -92 -106 -107 -132 -135 -156 -157 -166 -167 0
-20 -39 -40 -57 -58 -74 -75 -90 -91 -105 -106 -133 -134 -156 -158 -166 -167 0
-21 -39 -41 -57 -58 -74 -75 -90 -91 -105 -106 -133 -134 -156 -158 -166 -167 0
-21 -40 -41 -57 -59 -74 -75 -90 -91 -105 -106 -133 -134 -156 -158 -166 -167 0
-21 -40 -41 -58 -59 -74 -76 -90 -91 -105 -106 -133 -134 -156 -158 -166 -167 0
-21 -40 -41 -58 -59 -75 -76 -90 -92 -105 -106 -133 -134 -156 -158 -166 -167 0
-21 -40 -41 -58 -59 -75 -76 -91 -92 -105 -107 -133 -134 -156 -158 -166 -167 0
-21 -40 -41 -58 -59 -75 -76 -91 -92 -106 -107 -133 -135 -156 -158 -166 -167 0
-21 -40 -41 -58 -59 -75 -76 -91 -92 -106 -107 -134 -135 -156 -159 -166 -167 0
-20 -39 -40 -57 -58 -74 -75 -90 -91 -105 -106 -133 -134 -157 -158 -166 -168 0
-21 -39 -41 -57 -58 -74 -75 -90 -91 -105 -106 -133 -134 -157 -158 -166 -168 0
-21 -40 -41 -57 -59 -74 -75 -90 -91 -105 -106 -133 -134 -157 -158 -166 -168 0
-21 -40 -41 -58 -59 -74 -76 -90 -91 -105 -106 -133 -134 -157 -158 -166 -168 0
-21 -40 -41 -58 -59 -75 -76 -90 -92 -105 -106 -133 -134 -157 -158 -166 -168 0
-21 -40 -41 -58 -59 -75 -76 -91 -92 -105 -107 -133 -134 -157 -158 -166 -168 0
-21 -40 -41 -58 -59 -75 -76 -91 -92 -106 -107 -133 -135 -157 -158 -166 -168 0
-21 -40 -41 -58 -59 -75 -76 -91 -92 -106 -107 -134 -135 -157 -159 -166 -168 0
-21 -40 -41 -58 -59 -75 -76 -91 -92 -106 -107 -134 -135 -158 -159 -166 -169 0
-20 -39 -40 -57 -58 -74 -75 -90 -91 -105 -106 -133 -134 -157 -158 -167 -168 0
-21 -39 -41 -57 -58 -74 -75 -90 -91 -105 -106 -133 -134 -157 -158 -167 -168 0
-21 -40 -41 -57 -59 -74 -75 -90 -91 -105 -106 -133 -134 -157 -158 -167 -168 0
-21 -40 -41 -58 -59 -74 -76 -90 -91 -105 -106 -133 -134 -157 -158 -167 -168 0
-21 -40 -41 -58 -59 -75 -76 -90 -92 -105 -106 -133 -134 -157 -158 -167 -168 0
-21 -40 -41 -58 -59 -75 -76 -91 -92 -105 -107 -133 -134 -157 -158 -167 -168 0
-21 -40 -41 -58 -59 -75 -76 -91 -92 -106 -107 -133 -135 -157 -158 -167 -168 0
-21 -40 -41 -58 -59 -75 -76 -91 -92 -106 -107 -134 -135 -157 -159 -167 -168 0
-21 -40 -41 -58 -59 -75 -76 -91 -92 -106 -107 -134 -135 -158 -159 -167 -169 0
-21 -40 -41 -58 -59 -75 -76 -91 -92 -106 -107 -134 -135 -158 -159 -168 -169 0
-20 -39 -40 -57 -58 -74 -75 -90 -91 -105 -106 -133 -134 -157 -158 -177 -178 0
-21 -39 -41 -57 -58 -74 -75 -90 -91 -105 -106 -133 -134 -157 -158 -177 -178 0
-21 -40 -41 -57 -59 -74 -75 -90 -91 -105 -106 -133 -134 -157 -158 -177 -178 0
-21 -40 -41 -58 -59 -74 -76 -90 -91 -105 -106 -133 -134 -157 -158 -177 -178 0
-21 -40 -41 -58 -59 -75 -76 -90 -92 -105 -106 -133 -134 -157 -158 -177 -178 0
-21 -40 -41 -58 -59 -75 -76 -91 -92 -105 -107 -133 -134 -157 -158 -177 -178 0
-21 -40 -41 -58 -59 -75 -76 -91 -92 -106 -107 -133 -135 -157 -158 -177 -178 0
-21 -40 -41 -58 -59 -75 -76 -91 -92 -106 -107 -134 -135 -157 -159 -177 -178 0
-21 -40 -41 -58 -59 -75 -76 -91 -92 -106 -107 -134 -135 -158 -159 -177 -179 0
-21 -40 -41 -58 -59 -75 -76 -91 -92 -106 -107 -134 -135 -158 -159 -178 -179 0
-21 -40 -41 -58 -59 -75 -76 -91 -92 -106 -107 -134 -135 -158 -159 -187 -188 0
-20 -39 -40 -57 -58 -74 -75 -90 -91 -105 -106 -133 -134 -168 -169 -177 -178 0
-21 -39 -41 -57 -58 -74 -75 -90 -91 -105 -106 -133 -134 -168 -169 -177 -178 0
-21 -40 -41 -57 -59 -74 -75 -90 -91 -105 -106 -133 -134 -168 -169 -177 -178 0
-21 -40 -41 -58 -59 -74 -76 -90 -91 -105 -106 -133 -134 -168 -169 -177 -178 0
-21 -40 -41 -58 -59 -75 -76 -90 -92 -105 -106 -133 -134 -168 -169 -177 -178 0
-21 -40 -41 -58 -59 -75 -76 -91 -92 -105 -107 -133 -134 -168 -169 -177 -178 0
-21 -40 -41 -58 -59 -75 -76 -91 -92 -106 -107 -133 -135 -168 -169 -177 -178 0
-21 -40 -41 -58 -59 -75 -76 -91 -92 -106 -107 -134 -135 -168 -170 -177 -178 0
-21 -40 -41 -58 -59 -75 -76 -91 -92 -106 -107 -134 -135 -169 -170 -177 -179 0
-21 -40 -41 -58 -59 -75 -76 -91 -92 -106 -107 -134 -135 -169 -170 -178 -179 0
-21 -40 -41 -58 -59 -75 -76 -91 -92 -106 -107 -134 -135 -169 -170 -187 -188 0
-21 -40 -41 -58 -59 -75 -76 -91 -92 -106 -107 -134 -135 -179 -180 -187 -188 0
-19 -38 -39 -56 -57 -73 -74 -89 -90 -104 -105 -145 -146 -156 -157 -166 -167 0
-20 -38 -40 -56 -57 -73 -74 -89 -90 -104 -105 -145 -146 -156 -157 -166 -167 0
-21 -38 -41 -56 -57 -73 -74 -89 -90 -104 -105 -145 -146 -156 -157 -166 -167 0
-20 -39 -40 -56 -58 -73 -74 -89 -90 -104 -105 -145 -146 -156 -157 -166 -167 0
-21 -39 -41 -56 -58 -73 -74 -89 -90 -104 -105 -145 -146 -156 -157 -166 -167 0
-21 -40 -41 -56 -59 -73 -74 -89 -90 -104 -105 -145 -146 -156 -157 -166 -167 0
-20 -39 -40 -57 -58 -73 -75 -89 -90 -104 -105 -145 -146 -156 -157 -166 -167 0
-21 -39 -41 -57 -58 -73 -75 -89 -90 -104 -105 -145 -146 -156 -157 -166 -167 0
-21 -40 -41 -57 -59 -73 -75 -89 -90 -104 -105 -145 -146 -156 -157 -166 -167 0
-21 -40 -41 -58 -59 -73 -76 -89 -90 -104 -105 -145 -146 -156 -157 -166 -167 0
-20 -39 -40 -57 -58 -74 -75 -89 -91 -104 -105 -145 -146 -156 -157 -166 -167 0
-21 -39 -41 -57 -58 -74 -75 -89 -91 -104 -105 -145 -146 -156 -157 -166 -167 0
-21 -40 -41 -57 -59 -74 -75 -89 -91 -104 -105 -145 -146 -156 -157 -166 -167 0
-21 -40 -41 -58 -59 -74 -76 -89 -91 -104 -105 -145 -146 -156 -157 -166 -167 0
-21 -40 -41 -58 -59 -75 -76 -89 -92 -104 -105 -145 -146 -156 -157 -166 -167 0
-20 -39 -40 -57 -58 -74 -75 -90 -91 -104 -106 -145 -146 -156 -157 -166 -167 0
-21 -39 -41 -57 -58 -74 -75 -90 -91 -104 -106 -145 -146 -156 -157 -166 -167 0
-21 -40 -41 -57 -59 -74 -75 -90 -91 -104 -106 -145 -146 -156 -157 -166 -167 0
-21 -40 -41 -58 -59 -74 -76 -90 -91 -104 -106 -145 -146 -156 -157 -166 -167 0
-21 -40 -41 -58 -59 -75 -76 -90 -92 -104 -106 -145 -146 -156 -157 -166 -167 0
-21 -40 -41 -58 -59 -75 -76 -91 -92 -104 -107 -145 -146 -156 -157 -166 -167 0
-20 -39 -40 -57 -58 -74 -75 -90 -91 -105 -106 -145 -147 -156 -157 -166 -167 0
-21 -39 -41 -57 -58 -74 -75 -90 -91 -105 -106 -145 -147 -156 -157 -166 -167 0
-21 -40 -41 -57 -59 -74 -75 -90 -91 -105 -106 -145 -147 -156 -157 -166 -167 0
-21 -40 -41 -58 -59 -74 -76 -90 -91 -105 -106 -145 -147 -156 -157 -166 -167 0
-21 -40 -41 -58 -59 -75 -76 -90 -92 -105 -106 -145 -147 -156 -157 -166 -167 0
-21 -40 -41 -58 -59 -75 -76 -91 -92 -105 -107 -145 -147 -156 -157 -166 -167 0
-21 -40 -41 -58 -59 -75 -76 -91 -92 -106 -107 -145 -148 -156 -157 -166 -167 0
-20 -39 -40 -57 -58 -74 -75 -90 -91 -105 -106 -146 -147 -156 -158 -166 -167 0
-21 -39 -41 -57 -58 -74 -75 -90 -91 -105 -106 -146 -147 -156 -158 -166 -167 0
-21 -40 -41 -57 -59 -74 -75 -90 -91 -105 -106 -146 -147 -156 -158 -166 -167 0
-21 -40 -41 -58 -59 -74 -76 -90 -91 -105 -106 -146 -147 -156 -158 -166 -167 0
-21 -40 -41 -58 -59 -75 -76 -90 -92 -105 -106 -146 -147 -156 -158 -166 -167 0
-21 -40 -41 -58 -59 -75 -76 -91 -92 -105 -107 -146 -147 -156 -158 -166 -167 0
-21 -40 -41 -58 -59 -75 -76 -91 -92 -106 -107 -146 -148 -156 -158 -166 -167 0
-21 -40 -41 -58 -59 -75 -76 -91 -92 -106 -107 -147 -148 -156 -159 -166 -167 0
-20 -39 -40 -57 -58 -74 -75 -90 -91 -105 -106 -146 -147 -157 -158 -166 -168 0
-21 -39 -41 -57 -58 -74 -75 -90 -91 -105 -106 -146 -147 -157 -158 -166 -168 0
-21 -40 -41 -57 -59 -74 -75 -90 -91 -105 -106 -146 -147 -157 -158 -166 -168 0
-21 -40 -41 -58 -59 -74 -76 -90 -91 -105 -106 -146 -147 -157 -158 -166 -168 0
-21 -40 -41 -58 -59 -75 -76 -90 -92 -105 -106 -146 -147 -157 -158 -166 -168 0
-21 -40 -41 -58 -59 -75 -76 -91 -92 -105 -107 -146 -147 -157 -158 -166 -168 0
-21 -40 -41 -58 -59 -75 -76 -91 -92 -106 -107 -146 -148 -157 -158 -166 -168 0
-21 -40 -41 -58 -59 -75 -76 -91 -92 -106 -107 -147 -148 -157 -159 -166 -168 0
-21 -40 -41 -58 -59 -75 -76 -91 -92 -106 -107 -147 -148 -158 -159 -166 -169 0
-20 -39 -40 -57 -58 -74 -75 -90 -91 -105 -106 -146 -147 -157 -158 -167 -168 0
-21 -39 -41 -57 -58 -74 -75 -90 -91 -105 -106 -146 -147 -157 -158 -167 -168 0
-21 -40 -41 -57 -59 -74 -75 -90 -91 -105 -106 -146 -147 -157 -158 -167 -168 0
-21 -40 -41 -58 -59 -74 -76 -90 -91 -105 -106 -146 -147 -157 -158 -167 -168 0
-21 -40 -41 -58 -59 -75 -76 -90 -92 -105 -106 -146 -147 -157 -158 -167 -168 0
-21 -40 -41 -58 -59 -75 -76 -91 -92 -105 -107 -146 -147 -157 -158 -167 -168 0
-21 -40 -41 -58 -59 -75 -76 -91 -92 -106 -107 -146 -148 -157 -158 -167 -168 0
-21 -40 -41 -58 -59 -75 -76 -91 -92 -106 -107 -147 -148 -157 -159 -167 -168 0
-21 -40 -41 -58 -59 -75 -76 -91 -92 -106 -107 -147 -148 -158 -159 -167 -169 0
-21 -40 -41 -58 -59 -75 -76 -91 -92 -106 -107 -147 -148 -158 -159 -168 -169 0
-20 -39 -40 -57 -58 -74 -75 -90 -91 -105 -106 -146 -147 -157 -158 -177 -178 0
-21 -39 -41 -57 -58 -74 -75 -90 -91 -105 -106 -146 -147 -157 -158 -177 -178 0
-21 -40 -41 -57 -59 -74 -75 -90 -91 -105 -106 -146 -147 -157 -158 -177 -178 0
-21 -40 -41 -58 -59 -74 -76 -90 -91 -105 -106 -146 -147 -157 -158 -177 -178 0
-21 -40 -41 -58 -59 -75 -76 -90 -92 -105 -106 -146 -147 -157 -158 -177 -178 0
-21 -40 -41 -58 -59 -75 -76 -91 -92 -105 -107 -146 -147 -157 -158 -177 -178 0
-21 -40 -41 -58 -59 -75 -76 -91 -92 -106 -107 -146 -148 -157 -158 -177 -178 0
-21 -40 -41 -58 -59 -75 -76 -91 -92 -106 -107 -147 -148 -157 -159 -177 -178 0
-21 -40 -41 -58 -59 -75 -76 -91 -92 -106 -107 -147 -148 -158 -159 -177 -179 0
-21 -40 -41 -58 -59 -75 -76 -91 -92 -106 -107 -147 -148 -158 -159 -178 -179 0
-21 -40 -41 -58 -59 -75 -76 -91 -92 -106 -107 -147 -148 -158 -159 -187 -188 0
-20 -39 -40 -57 -58 -74 -75 -90 -91 -105 -106 -146 -147 -168 -169 -177 -178 0
-21 -39 -41 -57 -58 -74 -75 -90 -91 -105 -106 -146 -147 -168 -169 -177 -178 0
-21 -40 -41 -57 -59 -74 -75 -90 -91 -105 -106 -146 -147 -168 -169 -177 -178 0
-21 -40 -41 -58 -59 -74 -76 -90 -91 -105 -106 -146 -147 -168 -169 -177 -178 0
-21 -40 -41 -58 -59 -75 -76 -90 -92 -105 -106 -146 -147 -168 -169 -177 -178 0
-21 -40 -41 -58 -59 -75 -76 -91 -92 -105 -107 -146 -147 -168 -169 -177 -178 0
-21 -40 -41 -58 -59 -75 -76 -91 -92 -106 -107 -146 -148 -168 -169 -177 -178 0
-21 -40 -41 -58 -59 -75 -76 -91 -92 -106 -107 -147 -148 -168 -170 -177 -178 0
-21 -40 -41 -58 -59 -75 -76 -91 -92 -106 -107 -147 -148 -169 -170 -177 -179 0
-21 -40 -41 -58 -59 -75 -76 -91 -92 -106 -107 -147 -148 -169 -170 -178 -179 0
-21 -40 -41 -58 -59 -75 -76 -91 -92 -106 -107 -147 -148 -169 -170 -187 -188 0
-21 -40 -41 -58 -59 -75 -76 -91 -92 -106 -107 -147 -148 -179 -180 -187 -188 0
-20 -39 -40 -57 -58 -74 -75 -90 -91 -105 -106 -158 -159 -168 -169 -177 -178 0
-21 -39 -41 -57 -58 -74 -75 -90 -91 -105 -106 -158 -159 -168 -169 -177 -178 0
-21 -40 -41 -57 -59 -74 -75 -90 -91 -105 -106 -158 -159 -168 -169 -177 -178 0
-21 -40 -41 -58 -59 -74 -76 -90 -91 -105 -106 -158 -159 -168 -169 -177 -178 0
-21 -40 -41 -58 -59 -75 -76 -90 -92 -105 -106 -158 -159 -168 -169 -177 -178 0
-21 -40 -41 -58 -59 -75 -76 -91 -92 -105 -107 -158 -159 -168 -169 -177 -178 0
-21 -40 -41 -58 -59 -75 -76 -91 -92 -106 -107 -158 -160 -168 -169 -177 -178 0
-21 -40 -41 -58 -59 -75 -76 -91 -92 -106 -107 -159 -160 -168 -170 -177 -178 0
-21 -40 -41 -58 -59 -75 -76 -91 -92 -106 -107 -159 -160 -169 -170 -177 -179 0
-21 -40 -41 -58 -59 -75 -76 -91 -92 -106 -107 -159 -160 -169 -170 -178 -179 0
-21 -40 -41 -58 -59 -75 -76 -91 -92 -106 -107 -159 -160 -169 -170 -187 -188 0
-21 -40 -41 -58 -59 -75 -76 -91 -92 -106 -107 -159 -160 -179 -180 -187 -188 0
-21 -40 -41 -58 -59 -75 -76 -91 -92 -106 -107 -170 -171 -179 -180 -187 -188 0
-18 -37 -38 -55 -56 -72 -73 -88 -89 -118 -119 -131 -132 -143 -144 -154 -155 0
-19 -37 -39 -55 -56 -72 -73 -88 -89 -118 -119 -131 -132 -143 -144 -154 -155 0
-20 -37 -40 -55 -56 -72 -73 -88 -89 -118 -119 -131 -132 -143 -144 -154 -155 0
-21 -37 -41 -55 -56 -72 -73 -88 -89 -118 -119 -131 -132 -143 -144 -154 -155 0
-19 -38 -39 -55 -57 -72 -73 -88 -89 -118 -119 -131 -132 -143 -144 -154 -155 0
-20 -38 -40 -55 -57 -72 -73 -88 -89 -118 -119 -131 -132 -143 -144 -154 -155 0
-21 -38 -41 -55 -57 -72 -73 -88 -89 -118 -119 -131 -132 -143 -144 -154 -155 0
-20 -39 -40 -55 -58 -72 -73 -88 -89 -118 -119 -131 -132 -143 -144 -154 -155 0
-21 -39 -41 -55 -58 -72 -73 -88 -89 -118 -119 -131 -132 -143 -144 -154 -155 0
-21 -40 -41 -55 -59 -72 -73 -88 -89 -118 -119 -131 -132 -143 -144 -154 -155 0
-19 -38 -39 -56 -57 -72 -74 -88 -89 -118 -119 -131 -132 -143 -144 -154 -155 0
-20 -38 -40 -56 -57 -72 -74 -88 -89 -118 -119 -131 -132 -143 -144 -154 -155 0
-21 -38 -41 -56 -57 -72 -74 -88 -89 -118 -119 -131 -132 -143 -144 -154 -155 0
-20 -39 -40 -56 -58 -72 -74 -88 -89 -118 -119 -131 -132 -143 -144 -154 -155 0
-21 -39 -41 -56 -58 -72 -74 -88 -89 -118 -119 -131 -132 -143 -144 -154 -155 0
-21 -40 -41 -56 -59 -72 -74 -88 -89 -118 -119 -131 -132 -143 -144 -154 -155 0
-20 -39 -40 -57 -58 -72 -75 -88 -89 -118 -119 -131 -132 -143 -144 -154 -155 0
-21 -39 -41 -57 -58 -72 -75 -88 -89 -118 -119 -131 -132 -143 -144 -154 -155 0
-21 -40 -41 -57 -59 -72 -75 -88 -89 -118 -119 -131 -132 -143 -144 -154 -155 0
-21 -40 -41 -58 -59 -72 -76 -88 -89 -118 -119 -131 -132 -143 -144 -154 -155 0
-19 -38 -39 -56 -57 -73 -74 -88 -90 -118 -119 -131 -132 -143 -144 -154 -155 0
-20 -38 -40 -56 -57 -73 -74 -88 -90 -118 -119 -131 -132 -143 -144 -154 -155 0
-21 -38 -41 -56 -57 -73 -74 -88 -90 -118 -119 -131 -132 -143 -144 -154 -155 0
-20 -39 -40 -56 -58 -73 -74 -88 -90 -118 -119 -131 -132 -143 -144 -154 -155 0
-21 -39 -41 -56 -58 -73 -74 -88 -90 -118 -119 -131 -132 -143 -144 -154 -155 0
-21 -40 -41 -56 -59 -73 -74 -88 -90 -118 -119 -131 -132 -143 -144 -154 -155 0
-20 -39 -40 -57 -58 -73 -75 -88 -90 -118 -119 -131 -132 -143 -144 -154 -155 0
-21 -39 -41 -57 -58 -73 -75 -88 -90 -118 -119 -131 -132 -143 -144 -154 -155 0
-21 -40 -41 -57 -59 -73 -75 -88 -90 -118 -119 -131 -132 -143 -144 -154 -155 0
-21 -40 -41 -58 -59 -73 -76 -88 -90 -118 -119 -131 -132 -143 -144 -154 -155 0
-20 -39 -40 -57 -58 -74 -75 -88 -91 -118 -119 -131 -132 -143 -144 -154 -155 0
-21 -39 -41 -57 -58 -74 -75 -88 -91 -118 -119 -131 -132 -143 -144 -154 -155 0
-21 -40 -41 -57 -59 -74 -75 -88 -91 -118 -119 -131 -132 -143 -144 -154 -155 0
-21 -40 -41 -58 -59 -74 -76 -88 -91 -118 -119 -131 -132 -143 -144 -154 -155 0
-21 -40 -41 -58 -59 -75 -76 -88 -92 -118 -119 -131 -132 -143 -144 -154 -155 0
-19 -38 -39 -56 -57 -73 -74 -89 -90 -118 -120 -131 -132 -143 -144 -154 -155 0
-20 -38 -40 -56 -57 -73 -74 -89 -90 -118 -120 -131 -132 -143 -144 -154 -155 0
-21 -38 -41 -56 -57 -73 -74 -89 -90 -118 -120 -131 -132 -143 -144 -154 -155 0
-20 -39 -40 -56 -58 -73 -74 -89 -90 -118 -120 -131 -132 -143 -144 -154 -155 0
-21 -39 -41 -56 -58 -73 -74 -89 -90 -118 -120 -131 -132 -143 -144 -154 -155 0
-21 -40 -41 -56 -59 -73 -74 -89 -90 -118 -120 -131 -132 -143 -144 -154 -155 0
-20 -39 -40 -57 -58 -73 -75 -89 -90 -118 -120 -131 -132 -143 -144 -154 -155 0
-21 -39 -41 -57 -58 -73 -75 -89 -90 -118 -120 -131 -132 -143 -144 -154 -155 0
-21 -40 -41 -57 -59 -73 -75 -89 -90 -118 -120 -131 -132 -143 -144 -154 -155 0
-21 -40 -41 -58 -59 -73 -76 -89 -90 -118 -120 -131 -132 -143 -144 -154 -155 0
-20 -39 -40 -57 -58 -74 -75 -89 -91 -118 -120 -131 -132 -143 -144 -154 -155 0
-21 -39 -41 -57 -58 -74 -75 -89 -91 -118 -120 -131 -132 -143 -144 -154 -155 0
-21 -40 -41 -57 -59 -74 -75 -89 -91 -118 -120 -131 -132 -143 -144 -154 -155 0
-21 -40 -41 -58 -59 -74 -76 -89 -91 -118 -120 -131 -132 -143 -144 -154 -155 0
-21 -40 -41 -58 -59 -75 -76 -89 -92 -118 -120 -131 -132 -143 -144 -154 -155 0
-20 -39 -40 -57 -58 -74 -75 -90 -91 -118 -121 -131 -132 -143 -144 -154 -155 0
-21 -39 -41 -57 -58 -74 -75 -90 -91 -118 -121 -131 -132 -143 -144 -154 -155 0
-21 -40 -41 -57 -59 -74 -75 -90 -91 -118 -121 -131 -132 -143 -144 -154 -155 0
-21 -40 -41 -58 -59 -74 -76 -90 -91 -118 -121 -131 -132 -143 -144 -154 -155 0
-21 -40 -41 -58 -59 -75 -76 -90 -92 -118 -121 -131 -132 -143 -144 -154 -155 0
-21 -40 -41 -58 -59 -75 -76 -91 -92 -118 -122 -131 -132 -143 -144 -154 -155 0
-19 -38 -39 -56 -57 -73 -74 -89 -90 -119 -120 -131 -133 -143 -144 -154 -155 0
-20 -38 -40 -56 -57 -73 -74 -89 -90 -119 -120 -131 -133 -143 -144 -154 -155 0
-21 -38 -41 -56 -57 -73 -74 -89 -90 -119 -120 -131 -133 -143 -144 -154 -155 0
-20 -39 -40 -56 -58 -73 -74 -89 -90 -119 -120 -131 -133 -143 -144 -154 -155 0
-21 -39 -41 -56 -58 -73 -74 -89 -90 -119 -120 -131 -133 -143 -144 -154 -155 0
-21 -40 -41 -56 -59 -73 -74 -89 -90 -119 -120 -131 -133 -143 -144 -154 -155 0
-20 -39 -40 -57 -58 -73 -75 -89 -90 -119 -120 -131 -133 -143 -144 -154 -155 0
-21 -39 -41 -57 -58 -73 -75 -89 -90 -119 -120 -131 -133 -143 -144 -154 -155 0
-21 -40 -41 -57 -59 -73 -75 -89 -90 -119 -120 -131 -133 -143 -144 -154 -155 0
-21 -40 -41 -58 -59 -73 -76 -89 -90 -119 -120 -131 -133 -143 -144 -154 -155 0
-20 -39 -40 -57 -58 -74 -75 -89 -91 -119 -120 -131 -133 -143 -144 -154 -155 0
-21 -39 -41 -57 -58 -74 -75 -89 -91 -119 -120 -131 -133 -143 -144 -154 -155 0
-21 -40 -41 -57 -59 -74 -75 -89 -91 -119 -120 -131 -133 -143 -144 -154 -155 0
-21 -40 -41 -58 -59 -74 -76 -89 -91 -119 -120 -131 -133 -143 -144 -154 -155 0
-21 -40 -41 -58 -59 -75 -76 -89 -92 -119 -120 -131 -133 -143 -144 -154 -155 0
-20 -39 -40 -57 -58 -74 -75 -90 -91 -119 -121 -131 -133 -143 -144 -154 -155 0
-21 -39 -41 -57 -58 -74 -75 -90 -91 -119 -121 -131 -133 -143 -144 -154 -155 0
-21 -40 -41 -57 -59 -74 -75 -90 -91 -119 -121 -131 -133 -143 -144 -154 -155 0
-21 -40 -41 -58 -59 -74 -76 -90 -91 -119 -121 -131 -133 -143 -144 -154 -155 0
-21 -40 -41 -58 -59 -75 -76 -90 -92 -119 -121 -131 -133 -143 -144 -154 -155 0
-21 -40 -41 -58 -59 -75 -76 -91 -92 -119 -122 -131 -133 -143 -144 -154 -155 0
-20 -39 -40 -57 -58 -74 -75 -90 -91 -120 -121 -131 -134 -143 -144 -154 -155 0
-21 -39 -41 -57 -58 -74 -75 -90 -91 -120 -121 -131 -134 -143 -144 -154 -155 0
-21 -40 -41 -57 -59 -74 -75 -90 -91 -120 -121 -131 -134 -143 -144 -154 -155 0
-21 -40 -41 -58 -59 -74 -76 -90 -91 -120 -121 -131 -134 -143 -144 -154 -155 0
-21 -40 -41 -58 -59 -75 -76 -90 -92 -120 -121 -131 -134 -143 -144 -154 -155 0
-21 -40 -41 -58 -59 -75 -76 -91 -92 -120 -122 -131 -134 -143 -144 -154 -155 0
-21 -40 -41 -58 -59 -75 -76 -91 -92 -121 -122 -131 -135 -143 -144 -154 -155 0
-19 -38 -39 -56 -57 -73 -74 -89 -90 -119 -120 -132 -133 -143 -145 -154 -155 0
-20 -38 -40 -56 -57 -73 -74 -89 -90 -119 -120 -132 -133 -143 -145 -154 -155 0
-21 -38 -41 -56 -57 -73 -74 -89 -90 -119 -120 -132 -133 -143 -145 -154 -155 0
-20 -39 -40 -56 -58 -73 -74 -89 -90 -119 -120 -132 -133 -143 -145 -154 -155 0
-21 -39 -41 -56 -58 -73 -74 -89 -90 -119 -120 -132 -133 -143 -145 -154 -155 0
-21 -40 -41 -56 -59 -73 -74 -89 -90 -119 -120 -132 -133 -143 -145 -154 -155 0
-20 -39 -40 -57 -58 -73 -75 -89 -90 -119 -120 -132 -133 -143 -145 -154 -155 0
-21 -39 -41 -57 -58 -73 -75 -89 -90 -119 -120 -132 -133 -143 -145 -154 -155 0
-21 -40 -41 -57 -59 -73 -75 -89 -90 -119 -120 -132 -133 -143 -145 -154 -155 0
-21 -40 -41 -58 -59 -73 -76 -89 -90 -119 -120 -132 -133 -143 -145 -154 -155 0
-20 -39 -40 -57 -58 -74 -75 -89 -91 -119 -120 -132 -133 -143 -145 -154 -155 0
-21 -39 -41 -57 -58 -74 -75 -89 -91 -119 -120 -132 -133 -143 -145 -154 -155 0
-21 -40 -41 -57 -59 -74 -75 -89 -91 -119 -120 -132 -133 -143 -145 -154 -155 0
-21 -40 -41 -58 -59 -74 -76 -89 -91 -119 -120 -132 -133 -143 -145 -154 -155 0
-21 -40 -41 -58 -59 -75 -76 -89 -92 -119 -120 -132 -133 -143 -145 -154 -155 0
-20 -39 -40 -57 -58 -74 -75 -90 -91 -119 -121 -132 -133 -143 -145 -154 -155 0
-21 -39 -41 -57 -58 -74 -75 -90 -91 -119 -121 -132 -133 -143 -145 -154 -155 0
-21 -40 -41 -57 -59 -74 -75 -90 -91 -119 -121 -132 -133 -143 -145 -154 -155 0
-21 -40 -41 -58 -59 -74 -76 -90 -91 -119 -121 -132 -133 -143 -145 -154 -155 0
-21 -40 -41 -58 -59 -75 -76 -90 -92 -119 -121 -132 -133 -143 -145 -154 -155 0
-21 -40 -41 -58 -59 -75 -76 -91 -92 -119 -122 -132 -133 -143 -145 -154 -155 0
-20 -39 -40 -57 -58 -74 -75 -90 -91 -120 -121 -132 -134 -143 -145 -154 -155 0
-21 -39 -41 -57 -58 -74 -75 -90 -91 -120 -121 -132 -134 -143 -145 -154 -155 0
-21 -40 -41 -57 -59 -74 -75 -90 -91 -120 -121 -132 -134 -143 -145 -154 -155 0
-21 -40 -41 -58 -59 -74 -76 -90 -91 -120 -121 -132 -134 -143 -145 -154 -155 0
-21 -40 -41 -58 -59 -75 -76 -90 -92 -120 -121 -132 -134 -143 -145 -154 -155 0
-21 -40 -41 -58 -59 -75 -76 -91 -92 -120 -122 -132 -134 -143 -145 -154 -155 0
-21 -40 -41 -58 -59 -75 -76 -91 -92 -121 -122 -132 -135 -143 -145 -154 -155 0
-20 -39 -40 -57 -58 -74 -75 -90 -91 -120 -121 -133 -134 -143 -146 -154 -155 0
-21 -39 -41 -57 -58 -74 -75 -90 -91 -120 -121 -133 -134 -143 -146 -154 -155 0
-21 -40 -41 -57 -59 -74 -75 -90 -91 -120 -121 -133 -134 -143 -146 -154 -155 0
-21 -40 -41 -58 -59 -74 -76 -90 -91 -120 -121 -133 -134 -143 -146 -154 -155 0
-21 -40 -41 -58 -59 -75 -76 -90 -92 -120 -121 -133 -134 -143 -146 -154 -155 0
-21 -40 -41 -58 -59 -75 -76 -91 -92 -120 -122 -133 -134 -143 -146 -154 -155 0
-21 -40 -41 -58 -59 -75 -76 -91 -92 -121 -122 -133 -135 -143 -146 -154 -155 0
-21 -40 -41 -58 -59 -75 -76 -91 -92 -121 -122 -134 -135 -143 -147 -154 -155 0
-19 -38 -39 -56 -57 -73 -74 -89 -90 -119 -120 -132 -133 -144 -145 -154 -156 0
-20 -38 -40 -56 -57 -73 -74 -89 -90 -119 -120 -132 -133 -144 -145 -154 -156 0
-21 -38 -41 -56 -57 -73 -74 -89 -90 -119 -120 -132 -133 -144 -145 -154 -156 0
-20 -39 -40 -56 -58 -73 -74 -89 -90 -119 -120 -132 -133 -144 -145 -154 -156 0
-21 -39 -41 -56 -58 -73 -74 -89 -90 -119 -120 -132 -133 -144 -145 -154 -156 0
-21 -40 -41 -56 -59 -73 -74 -89 -90 -119 -120 -132 -133 -144 -145 -154 -156 0
-20 -39 -40 -57 -58 -73 -75 -89 -90 -119 -120 -132 -133 -144 -145 -154 -156 0
-21 -39 -41 -57 -58 -73 -75 -89 -90 -119 -120 -132 -133 -144 -145 -154 -156 0
-21 -40 -41 -57 -59 -73 -75 -89 -90 -119 -120 -132 -133 -144 -145 -154 -156 0
-21 -40 -41 -58 -59 -73 -76 -89 -90 -119 -120 -132 -133 -144 -145 -154 -156 0
-20 -39 -40 -57 -58 -74 -75 -89 -91 -119 -120 -132 -133 -144 -145 -154 -156 0
-21 -39 -41 -57 -58 -74 -75 -89 -91 -119 -120 -132 -133 -144 -145 -154 -156 0
-21 -40 -41 -57 -59 -74 -75 -89 -91 -119 -120 -132 -133 -144 -145 -154 -156 0
-21 -40 -41 -58 -59 -74 -76 -89 -91 -119 -120 -132 -133 -144 -145 -154 -156 0
-21 -40 -41 -58 -59 -75 -76 -89 -92 -119 -120 -132 -133 -144 -145 -154 -156 0
-20 -39 -40 -57 -58 -74 -75 -90 -91 -119 -121 -132 -133 -144 -145 -154 -156 0
-21 -39 -41 -57 -58 -74 -75 -90 -91 -119 -121 -132 -133 -144 -145 -154 -156 0
-21 -40 -41 -57 -59 -74 -75 -90 -91 -119 -121 -132 -133 -144 -145 -154 -156 0
-21 -40 -41 -58 -59 -74 -76 -90 -91 -119 -121 -132 -133 -144 -145 -154 -156 0
-21 -40 -41 -58 -59 -75 -76 -90 -92 -119 -121 -132 -133 -144 -145 -154 -156 0
-21 -40 -41 -58 -59 -75 -76 -91 -92 -119 -122 -132 -133 -144 -145 -154 -156 0
-20 -39 -40 -57 -58 -74 -75 -90 -91 -120 -121 -132 -134 -144 -145 -154 -156 0
-21 -39 -41 -57 -58 -74 -75 -90 -91 -120 -121 -132 -134 -144 -145 -154 -156 0
-21 -40 -41 -57 -59 -74 -75 -90 -91 -120 -121 -132 -134 -144 -145 -154 -156 0
-21 -40 -41 -58 -59 -74 -76 -90 -91 -120 -121 -132 -134 -144 -145 -154 -156 0
-21 -40 -41 -58 -59 -75 -76 -90 -92 -120 -121 -132 -134 -144 -145 -154 -156 0
-21 -40 -41 -58 -59 -75 -76 -91 -92 -120 -122 -132 -134 -144 -145 -154 -156 0
-21 -40 -41 -58 -59 -75 -76 -91 -92 -121 -122 -132 -135 -144 -145 -154 -156 0
-20 -39 -40 -57 -58 -74 -75 -90 -91 -120 -121 -133 -134 -144 -146 -154 -156 0
-21 -39 -41 -57 -58 -74 -75 -90 -91 -120 -121 -133 -134 -144 -146 -154 -156 0
-21 -40 -41 -57 -59 -74 -75 -90 -91 -120 -121 -133 -134 -144 -146 -154 -156 0
-21 -40 -41 -58 -59 -74 -76 -90 -91 -120 -121 -133 -134 -144 -146 -154 -156 0
-21 -40 -41 -58 -59 -75 -76 -90 -92 -120 -121 -133 -134 -144 -146 -154 -156 0
-21 -40 -41 -58 -59 -75 -76 -91 -92 -120 -122 -133 -134 -144 -146 -154 -156 0
-21 -40 -41 -58 -59 -75 -76 -91 -92 -121 -122 -133 -135 -144 -146 -154 -156 0
-21 -40 -41 -58 -59 -75 -76 -91 -92 -121 -122 -134 -135 -144 -147 -154 -156 0
-20 -39 -40 -57 -58 -74 -75 -90 -91 -120 -121 -133 -134 -145 -146 -154 -157 0
-21 -39 -41 -57 -58 -74 -75 -90 -91 -120 -121 -133 -134 -145 -146 -154 -157 0
-21 -40 -41 -57 -59 -74 -75 -90 -91 -120 -121 -133 -134 -145 -146 -154 -157 0
-21 -40 -41 -58 -59 -74 -76 -90 -91 -120 -121 -133 -134 -145 -146 -154 -157 0
-21 -40 -41 -58 -59 -75 -76 -90 -92 -120 -121 -133 -134 -145 -146 -154 -157 0
-21 -40 -41 -58 -59 -75 -76 -91 -92 -120 -122 -133 -134 -145 -146 -154 -157 0
-21 -40 -41 -58 -59 -75 -76 -91 -92 -121 -122 -133 -135 -145 -146 -154 -157 0
-21 -40 -41 -58 -59 -75 -76 -91 -92 -121 -122 -134 -135 -145 -147 -154 -157 0
-21 -40 -41 -58 -59 -75 -76 -91 -92 -121 -122 -134 -135 -146 -147 -154 -158 0
-19 -38 -39 -56 -57 -73 -74 -89 -90 -119 -120 -132 -133 -144 -145 -155 -156 0
-20 -38 -40 -56 -57 -73 -74 -89 -90 -119 -120 -132 -133 -144 -145 -155 -156 0
-21 -38 -41 -56 -57 -73 -74 -89 -90 -119 -120 -132 -133 -144 -145 -155 -156 0
-20 -39 -40 -56 -58 -73 -74 -89 -90 -119 -120 -132 -133 -144 -145 -155 -156 0
-21 -39 -41 -56 -58 -73 -74 -89 -90 -119 -120 -132 -133 -144 -145 -155 -156 0
-21 -40 -41 -56 -59 -73 -74 -89 -90 -119 -120 -132 -133 -144 -145 -155 -156 0
-20 -39 -40 -57 -58 -73 -75 -89 -90 -119 -120 -132 -133 -144 -145 -155 -156 0
-21 -39 -41 -57 -58 -73 -75 -89 -90 -119 -120 -132 -133 -144 -145 -155 -156 0
-21 -40 -41 -57 -59 -73 -75 -89 -90 -119 -120 -132 -133 -144 -145 -155 -156 0
-21 -40 -41 -58 -59 -73 -76 -89 -90 -119 -120 -132 -133 -144 -145 -155 -156 0
-20 -39 -40 -57 -58 -74 -75 -89 -91 -119 -120 -132 -133 -144 -145 -155 -156 0
-21 -39 -41 -57 -58 -74 -75 -89 -91 -119 -120 -132 -133 -144 -145 -155 -156 0
-21 -40 -41 -57 -59 -74 -75 -89 -91 -119 -120 -132 -133 -144 -145 -155 -156 0
-21 -40 -41 -58 -59 -74 -76 -89 -91 -119 -120 -132 -133 -144 -145 -155 -156 0
-21 -40 -41 -58 -59 -75 -76 -89 -92 -119 -120 -132 -133 -144 -145 -155 -156 0
-20 -39 -40 -57 -58 -74 -75 -90 -91 -119 -121 -132 -133 -144 -145 -155 -156 0
-21 -39 -41 -57 -58 -74 -75 -90 -91 -119 -121 -132 -133 -144 -145 -155 -156 0
-21 -40 -41 -57 -59 -74 -75 -90 -91 -119 -121 -132 -133 -144 -145 -155 -156 0
-21 -40 -41 -58 -59 -74 -76 -90 -91 -119 -121 -132 -133 -144 -145 -155 -156 0
-21 -40 -41 -58 -59 -75 -76 -90 -92 -119 -121 -132 -133 -144 -145 -155 -156 0
-21 -40 -41 -58 -59 -75 -76 -91 -92 -119 -122 -132 -133 -144 -145 -155 -156 0
-20 -39 -40 -57 -58 -74 -75 -90 -91 -120 -121 -132 -134 -144 -145 -155 -156 0
-21 -39 -41 -57 -58 -74 -75 -90 -91 -120 -121 -132 -134 -144 -145 -155 -156 0
-21 -40 -41 -57 -59 -74 -75 -90 -91 -120 -121 -132 -134 -144 -145 -155 -156 0
-21 -40 -41 -58 -59 -74 -76 -90 -91 -120 -121 -132 -134 -144 -145 -155 -156 0
-21 -40 -41 -58 -59 -75 -76 -90 -92 -120 -121 -132 -134 -144 -145 -155 -156 0
-21 -40 -41 -58 -59 -75 -76 -91 -92 -120 -122 -132 -134 -144 -145 -155 -156 0
-21 -40 -41 -58 -59 -75 -76 -91 -92 -121 -122 -132 -135 -144 -145 -155 -156 0
-20 -39 -40 -57 -58 -74 -75 -90 -91 -120 -121 -133 -134 -144 -146 -155 -156 0
-21 -39 -41 -57 -58 -74 -75 -90 -91 -120 -121 -133 -134 -144 -146 -155 -156 0
-21 -40 -41 -57 -59 -74 -75 -90 -91 -120 -121 -133 -134 -144 -146 -155 -156 0
-21 -40 -41 -58 -59 -74 -76 -90 -91 -120 -121 -133 -134 -144 -146 -155 -156 0
-21 -40 -41 -58 -59 -75 -76 -90 -92 -120 -121 -133 -134 -144 -146 -155 -156 0
-21 -40 -41 -58 -59 -75 -76 -91 -92 -120 -122 -133 -134 -144 -146 -155 -156 0
-21 -40 -41 -58 -59 -75 -76 -91 -92 -121 -122 -133 -135 -144 -146 -155 -156 0
-21 -40 -41 -58 -59 -75 -76 -91 -92 -121 -122 -134 -135 -144 -147 -155 -156 0
-20 -39 -40 -57 -58 -74 -75 -90 -91 -120 -121 -133 -134 -145 -146 -155 -157 0
-21 -39 -41 -57 -58 -74 -75 -90 -91 -120 -121 -133 -134 -145 -146 -155 -157 0
-21 -40 -41 -57 -59 -74 -75 -90 -91 -120 -121 -133 -134 -145 -146 -155 -157 0
-21 -40 -41 -58 -59 -74 -76 -90 -91 -120 -121 -133 -134 -145 -146 -155 -157 0
-21 -40 -41 -58 -59 -75 -76 -90 -92 -120 -121 -133 -134 -145 -146 -155 -157 0
-21 -40 -41 -58 -59 -75 -76 -91 -92 -120 -122 -133 -134 -145 -146 -155 -157 0
-21 -40 -41 -58 -59 -75 -76 -91 -92 -121 -122 -133 -135 -145 -146 -155 -157 0
-21 -40 -41 -58 -59 -75 -76 -91 -92 -121 -122 -134 -135 -145 -147 -155 -157 0
-21 -40 -41 -58 -59 -75 -76 -91 -92 -121 -122 -134 -135 -146 -147 -155 -158 0
-20 -39 -40 -57 -58 -74 -75 -90 -91 -120 -121 -133 -134 -145 -146 -156 -157 0
-21 -39 -41 -57 -58 -74 -75 -90 -91 -120 -121 -133 -134 -145 -146 -156 -157 0
-21 -40 -41 -57 -59 -74 -75 -90 -91 -120 -121 -133 -134 -145 -146 -156 -157 0
-21 -40 -41 -58 -59 -74 -76 -90 -91 -120 -121 -133 -134 -145 -146 -156 -157 0
-21 -40 -41 -58 -59 -75 -76 -90 -92 -120 -121 -133 -134 -145 -146 -156 -157 0
-21 -40 -41 -58 -59 -75 -76 -91 -92 -120 -122 -133 -134 -145 -146 -156 -157 0
-21 -40 -41 -58 -59 -75 -76 -91 -92 -121 -122 -133 -135 -145 -146 -156 -157 0
-21 -40 -41 -58 -59 -75 -76 -91 -92 -121 -122 -134 -135 -145 -147 -156 -157 0
-21 -40 -41 -58 -59 -75 -76 -91 -92 -121 -122 -134 -135 -146 -147 -156 -158 0
-21 -40 -41 -58 -59 -75 -76 -91 -92 -121 -122 -134 -135 -146 -147 -157 -158 0
-19 -38 -39 -56 -57 -73 -74 -89 -90 -119 -120 -132 -133 -144 -145 -166 -167 0
-20 -38 -40 -56 -57 -73 -74 -89 -90 -119 -120 -132 -133 -144 -145 -166 -167 0
-21 -38 -41 -56 -57 -73 -74 -89 -90 -119 -120 -132 -133 -144 -145 -166 -167 0
-20 -39 -40 -56 -58 -73 -74 -89 -90 -119 -120 -132 -133 -144 -145 -166 -167 0
-21 -39 -41 -56 -58 -73 -74 -89 -90 -119 -120 -132 -133 -144 -145 -166 -167 0
-21 -40 -41 -56 -59 -73 -74 -89 -90 -119 -120 -132 -133 -144 -145 -166 -167 0
-20 -39 -40 -57 -58 -73 -75 -89 -90 -119 -120 -132 -133 -144 -145 -166 -167 0
-21 -39 -41 -57 -58 -73 -75 -89 -90 -119 -120 -132 -133 -144 -145 -166 -167 0
-21 -40 -41 -57 -59 -73 -75 -89 -90 -119 -120 -132 -133 -144 -145 -166 -167 0
-21 -40 -41 -58 -59 -73 -76 -89 -90 -119 -120 -132 -133 -144 -145 -166 -167 0
-20 -39 -40 -57 -58 -74 -75 -89 -91 -119 -120 -132 -133 -144 -145 -166 -167 0
-21 -39 -41 -57 -58 -74 -75 -89 -91 -119 -120 -132 -133 -144 -145 -166 -167 0
-21 -40 -41 -57 -59 -74 -75 -89 -91 -119 -120 -132 -133 -144 -145 -166 -167 0
-21 -40 -41 -58 -59 -74 -76 -89 -91 -119 -120 -132 -133 -144 -145 -166 -167 0
-21 -40 -41 -58 -59 -75 -76 -89 -92 -119 -120 -132 -133 -144 -145 -166 -167 0
-20 -39 -40 -57 -58 -74 -75 -90 -91 -119 -121 -132 -133 -144 -145 -166 -167 0
-21 -39 -41 -57 -58 -74 -75 -90 -91 -119 -121 -132 -133 -144 -145 -166 -167 0
-21 -40 -41 -57 -59 -74 -75 -90 -91 -119 -121 -132 -133 -144 -145 -166 -167 0
-21 -40 -41 -58 -59 -74 -76 -90 -91 -119 -121 -132 -133 -144 -145 -166 -167 0
-21 -40 -41 -58 -59 -75 -76 -90 -92 -119 -121 -132 -133 -144 -145 -166 -167 0
-21 -40 -41 -58 -59 -75 -76 -91 -92 -119 -122 -132 -133 -144 -145 -166 -167 0
-20 -39 -40 -57 -58 -74 -75 -90 -91 -120 -121 -132 -134 -144 -145 -166 -167 0
-21 -39 -41 -57 -58 -74 -75 -90 -91 -120 -121 -132 -134 -144 -145 -166 -167 0
-21 -40 -41 -57 -59 -74 -75 -90 -91 -120 -121 -132 -134 -144 -145 -166 -167 0
-21 -40 -41 -58 -59 -74 -76 -90 -91 -120 -121 -132 -134 -144 -145 -166 -167 0
-21 -40 -41 -58 -59 -75 -76 -90 -92 -120 -121 -132 -134 -144 -145 -166 -167 0
-21 -40 -41 -58 -59 -75 -76 -91 -92 -120 -122 -132 -134 -144 -145 -166 -167 0
-21 -40 -41 -58 -59 -75 -76 -91 -92 -121 -122 -132 -135 -144 -145 -166 -167 0
-20 -39 -40 -57 -58 -74 -75 -90 -91 -120 -121 -133 -134 -144 -146 -166 -167 0
-21 -39 -41 -57 -58 -74 -75 -90 -91 -120 -121 -133 -134 -144 -146 -166 -167 0
-21 -40 -41 -57 -59 -74 -75 -90 -91 -120 -121 -133 -134 -144 -146 -166 -167 0
-21 -40 -41 -58 -59 -74 -76 -90 -91 -120 -121 -133 -134 -144 -146 -166 -167 0
-21 -40 -41 -58 -59 -75 -76 -90 -92 -120 -121 -133 -134 -144 -146 -166 -167 0
-21 -40 -41 -58 -59 -75 -76 -91 -92 -120 -122 -133 -134 -144 -146 -166 -167 0
-21 -40 -41 -58 -59 -75 -76 -91 -92 -121 -122 -133 -135 -144 -146 -166 -167 0
-21 -40 -41 -58 -59 -75 -76 -91 -92 -121 -122 -134 -135 -144 -147 -166 -167 0
-20 -39 -40 -57 -58 -74 -75 -90 -91 -120 -121 -133 -134 -145 -146 -166 -168 0
-21 -39 -41 -57 -58 -74 -75 -90 -91 -120 -121 -133 -134 -145 -146 -166 -168 0
-21 -40 -41 -57 -59 -74 -75 -90 -91 -120 -121 -133 -134 -145 -146 -166 -168 0
-21 -40 -41 -58 -59 -74 -76 -90 -91 -120 -121 -133 -134 -145 -146 -166 -168 0
-21 -40 -41 -58 -59 -75 -76 -90 -92 -120 -121 -133 -134 -145 -146 -166 -168 0
-21 -40 -41 -58 -59 -75 -76 -91 -92 -120 -122 -133 -134 -145 -146 -166 -168 0
-21 -40 -41 -58 -59 -75 -76 -91 -92 -121 -122 -133 -135 -145 -146 -166 -168 0
-21 -40 -41 -58 -59 -75 -76 -91 -92 -121 -122 -134 -135 -145 -147 -166 -168 0
-21 -40 -41 -58 -59 -75 -76 -91 -92 -121 -122 -134 -135 -146 -147 -166 -169 0
-20 -39 -40 -57 -58 -74 -75 -90 -91 -120 -121 -133 -134 -145 -146 -167 -168 0
-21 -39 -41 -57 -58 -74 -75 -90 -91 -120 -121 -133 -134 -145 -146 -167 -168 0
-21 -40 -41 -57 -59 -74 -75 -90 -91 -120 -121 -133 -134 -145 -146 -167 -168 0
-21 -40 -41 -58 -59 -74 -76 -90 -91 -120 -121 -133 -134 -145 -146 -167 -168 0
-21 -40 -41 -58 -59 -75 -76 -90 -92 -120 -121 -133 -134 -145 -146 -167 -168 0
-21 -40 -41 -58 -59 -75 -76 -91 -92 -120 -122 -133 -134 -145 -146 -167 -168 0
-21 -40 -41 -58 -59 -75 -76 -91 -92 -121 -122 -133 -135 -145 -146 -167 -168 0
-21 -40 -41 -58 -59 -75 -76 -91 -92 -121 -122 -134 -135 -145 -147 -167 -168 0
-21 -40 -41 -58 -59 -75 -76 -91 -92 -121 -122 -134 -135 -146 -147 -167 -169 0
-21 -40 -41 -58 -59 -75 -76 -91 -92 -121 -122 -134 -135 -146 -147 -168 -169 0
-20 -39 -40 -57 -58 -74 -75 -90 -91 -120 -121 -133 -134 -145 -146 -177 -178 0
-21 -39 -41 -57 -58 -74 -75 -90 -91 -120 -121 -133 -134 -145 -146 -177 -178 0
-21 -40 -41 -57 -59 -74 -75 -90 -91 -120 -121 -133 -134 -145 -146 -177 -178 0
-21 -40 -41 -58 -59 -74 -76 -90 -91 -120 -121 -133 -134 -145 -146 -177 -178 0
-21 -40 -41 -58 -59 -75 -76 -90 -92 -120 -121 -133 -134 -145 -146 -177 -178 0
-21 -40 -41 -58 -59 -75 -76 -91 -92 -120 -122 -133 -134 -145 -146 -177 -178 0
-21 -40 -41 -58 -59 -75 -76 -91 -92 -121 -122 -133 -135 -145 -146 -177 -178 0
-21 -40 -41 -58 -59 -75 -76 -91 -92 -121 -122 -134 -135 -145 -147 -177 -178 0
-21 -40 -41 -58 -59 -75 -76 -91 -92 -121 -122 -134 -135 -146 -147 -177 -179 0
-21 -40 -41 -58 -59 -75 -76 -91 -92 -121 -122 -134 -135 -146 -147 -178 -179 0
-21 -40 -41 -58 -59 -75 -76 -91 -92 -121 -122 -134 -135 -146 -147 -187 -188 0
-19 -38 -39 -56 -57 -73 -74 -89 -90 -119 -120 -132 -133 -156 -157 -166 -167 0
-20 -38 -40 -56 -57 -73 -74 -89 -90 -119 -120 -132 -133 -156 -157 -166 -167 0
-21 -38 -41 -56 -57 -73 -74 -89 -90 -119 -120 -132 -133 -156 -157 -166 -167 0
-20 -39 -40 -56 -58 -73 -74 -89 -90 -119 -120 -132 -133 -156 -157 -166 -167 0
-21 -39 -41 -56 -58 -73 -74 -89 -90 -119 -120 -132 -133 -156 -157 -166 -167 0
-21 -40 -41 -56 -59 -73 -74 -89 -90 -119 -120 -132 -133 -156 -157 -166 -167 0
-20 -39 -40 -57 -58 -73 -75 -89 -90 -119 -120 -132 -133 -156 -157 -166 -167 0
-21 -39 -41 -57 -58 -73 -75 -89 -90 -119 -120 -132 -133 -156 -157 -166 -167 0
-21 -40 -41 -57 -59 -73 -75 -89 -90 -119 -120 -132 -133 -156 -157 -166 -167 0
-21 -40 -41 -58 -59 -73 -76 -89 -90 -119 -120 -132 -133 -156 -157 -166 -167 0
-20 -39 -40 -57 -58 -74 -75 -89 -91 -119 -120 -132 -133 -156 -157 -166 -167 0
-21 -39 -41 -57 -58 -74 -75 -89 -91 -119 -120 -132 -133 -156 -157 -166 -167 0
-21 -40 -41 -57 -59 -74 -75 -89 -91 -119 -120 -132 -133 -156 -157 -166 -167 0
-21 -40 -41 -58 -59 -74 -76 -89 -91 -119 -120 -132 -133 -156 -157 -166 -167 0
-21 -40 -41 -58 -59 -75 -76 -89 -92 -119 -120 -132 -133 -156 -157 -166 -167 0
-20 -39 -40 -57 -58 -74 -75 -90 -91 -119 -121 -132 -133 -156 -157 -166 -167 0
-21 -39 -41 -57 -58 -74 -75 -90 -91 -119 -121 -132 -133 -156 -157 -166 -167 0
-21 -40 -41 -57 -59 -74 -75 -90 -91 -119 -121 -132 -133 -156 -157 -166 -167 0
-21 -40 -41 -58 -59 -74 -76 -90 -91 -119 -121 -132 -133 -156 -157 -166 -167 0
-21 -40 -41 -58 -59 -75 -76 -90 -92 -119 -121 -132 -133 -156 -157 -166 -167 0
-21 -40 -41 -58 -59 -75 -76 -91 -92 -119 -122 -132 -133 -156 -157 -166 -167 0
-20 -39 -40 -57 -58 -74 -75 -90 -91 -120 -121 -132 -134 -156 -157 -166 -167 0
-21 -39 -41 -57 -58 -74 -75 -90 -91 -120 -121 -132 -134 -156 -157 -166 -167 0
-21 -40 -41 -57 -59 -74 -75 -90 -91 -120 -121 -132 -134 -156 -157 -166 -167 0
-21 -40 -41 -58 -59 -74 -76 -90 -91 -120 -121 -132 -134 -156 -157 -166 -167 0
-21 -40 -41 -58 -59 -75 -76 -90 -92 -120 -121 -132 -134 -156 -157 -166 -167 0
-21 -40 -41 -58 -59 -75 -76 -91 -92 -120 -122 -132 -134 -156 -157 -166 -167 0
-21 -40 -41 -58 -59 -75 -76 -91 -92 -121 -122 -132 -135 -156 -157 -166 -167 0
-20 -39 -40 -57 -58 -74 -75 -90 -91 -120 -121 -133 -134 -156 -158 -166 -167 0
-21 -39 -41 -57 -58 -74 -75 -90 -91 -120 -121 -133 -134 -156 -158 -166 -167 0
-21 -40 -41 -57 -59 -74 -75 -90 -91 -120 -121 -133 -134 -156 -158 -166 -167 0
-21 -40 -41 -58 -59 -74 -76 -90 -91 -120 -121 -133 -134 -156 -158 -166 -167 0
-21 -40 -41 -58 -59 -75 -76 -90 -92 -120 -121 -133 -134 -156 -158 -166 -167 0
-21 -40 -41 -58 -59 -75 -76 -91 -92 -120 -122 -133 -134 -156 -158 -166 -167 0
-21 -40 -41 -58 -59 -75 -76 -91 -92 -121 -122 -133 -135 -156 -158 -166 -167 0
-21 -40 -41 -58 -59 -75 -76 -91 -92 -121 -122 -134 -135 -156 -159 -166 -167 0
-20 -39 -40 -57 -58 -74 -75 -90 -91 -120 -121 -133 -134 -157 -158 -166 -168 0
-21 -39 -41 -57 -58 -74 -75 -90 -91 -120 -121 -133 -134 -157 -158 -166 -168 0
-21 -40 -41 -57 -59 -74 -75 -90 -91 -120 -121 -133 -134 -157 -158 -166 -168 0
-21 -40 -41 -58 -59 -74 -76 -90 -91 -120 -121 -133 -134 -157 -158 -166 -168 0
-21 -40 -41 -58 -59 -75 -76 -90 -92 -120 -121 -133 -134 -157 -158 -166 -168 0
-21 -40 -41 -58 -59 -75 -76 -91 -92 -120 -122 -133 -134 -157 -158 -166 -168 0
-21 -40 -41 -58 -59 -75 -76 -91 -92 -121 -122 -133 -135 -157 -158 -166 -168 0
-21 -40 -41 -58 -59 -75 -76 -91 -92 -121 -122 -134 -135 -157 -159 -166 -168 0
-21 -40 -41 -58 -59 -75 -76 -91 -92 -121 -122 -134 -135 -158 -159 -166 -169 0
-20 -39 -40 -57 -58 -74 -75 -90 -91 -120 -121 -133 -134 -157 -158 -167 -168 0
-21 -39 -41 -57 -58 -74 -75 -90 -91 -120 -121 -133 -134 -157 -158 -167 -168 0
-21 -40 -41 -57 -59 -74 -75 -90 -91 -120 -121 -133 -134 -157 -158 -167 -168 0
-21 -40 -41 -58 -59 -74 -76 -90 -91 -120 -121 -133 -134 -157 -158 -167 -168 0
-21 -40 -41 -58 -59 -75 -76 -90 -92 -120 -121 -133 -134 -157 -158 -167 -168 0
-21 -40 -41 -58 -59 -75 -76 -91 -92 -120 -122 -133 -134 -157 -158 -167 -168 0
-21 -40 -41 -58 -59 -75 -76 -91 -92 -121 -122 -133 -135 -157 -158 -167 -168 0
-21 -40 -41 -58 -59 -75 -76 -91 -92 -121 -122 -134 -135 -157 -159 -167 -168 0
-21 -40 -41 -58 -59 -75 -76 -91 -92 -121 -122 -134 -135 -158 -159 -167 -169 0
-21 -40 -41 -58 -59 -75 -76 -91 -92 -121 -122 -134 -135 -158 -159 -168 -169 0
-20 -39 -40 -57 -58 -74 -75 -90 -91 -120 -121 -133 -134 -157 -158 -177 -178 0
-21 -39 -41 -57 -58 -74 -75 -90 -91 -120 -121 -133 -134 -157 -158 -177 -178 0
-21 -40 -41 -57 -59 -74 -75 -90 -91 -120 -121 -133 -134 -157 -158 -177 -178 0
-21 -40 -41 -58 -59 -74 -76 -90 -91 -120 -121 -133 -134 -157 -158 -177 -178 0
-21 -40 -41 -58 -59 -75 -76 -90 -92 -120 -121 -133 -134 -157 -158 -177 -178 0
-21 -40 -41 -58 -59 -75 -76 -91 -92 -120 -122 -133 -134 -157 -158 -177 -178 0
-21 -40 -41 -58 -59 -75 -76 -91 -92 -121 -122 -133 -135 -157 -158 -177 -178 0
-21 -40 -41 -58 -59 -75 -76 -91 -92 -121 -122 -134 -135 -157 -159 -177 -178 0
-21 -40 -41 -58 -59 -75 -76 -91 -92 -121 -122 -134 -135 -158 -159 -177 -179 0
-21 -40 -41 -58 -59 -75 -76 -91 -92 -121 -122 -134 -135 -158 -159 -178 -179 0
-21 -40 -41 -58 -59 -75 -76 -91 -92 -121 -122 -134 -135 -158 -159 -187 -188 0
-20 -39 -40 -57 -58 -74 -75 -90 -91 -120 -121 -133 -134 -168 -169 -177 -178 0
-21 -39 -41 -57 -58 -74 -75 -90 -91 -120 -121 -133 -134 -168 -169 -177 -178 0
-21 -40 -41 -57 -59 -74 -75 -90 -91 -120 -121 -133 -134 -168 -169 -177 -178 0
-21 -40 -41 -58 -59 -74 -76 -90 -91 -120 -121 -133 -134 -168 -169 -177 -178 0
-21 -40 -41 -58 -59 -75 -76 -90 -92 -120 -121 -133 -134 -168 -169 -177 -178 0
-21 -40 -41 -58 -59 -75 -76 -91 -92 -120 -122 -133 -134 -168 -169 -177 -178 0
-21 -40 -41 -58 -59 -75 -76 -91 -92 -121 -122 -133 -135 -168 -169 -177 -178 0
-21 -40 -41 -58 -59 -75 -76 -91 -92 -121 -122 -134 -135 -168 -170 -177 -178 0
-21 -40 -41 -58 -59 -75 -76 -91 -92 -121 -122 -134 -135 -169 -170 -177 -179 0
-21 -40 -41 -58 -59 -75 -76 -91 -92 -121 -122 -134 -135 -169 -170 -178 -179 0
-21 -40 -41 -58 -59 -75 -76 -91 -92 -121 -122 -134 -135 -169 -170 -187 -188 0
-21 -40 -41 -58 -59 -75 -76 -91 -92 -121 -122 -134 -135 -179 -180 -187 -188 0
-19 -38 -39 -56 -57 -73 -74 -89 -90 -119 -120 -145 -146 -156 -157 -166 -167 0
-20 -38 -40 -56 -57 -73 -74 -89 -90 -119 -120 -145 -146 -156 -157 -166 -167 0
-21 -38 -41 -56 -57 -73 -74 -89 -90 -119 -120 -145 -146 -156 -157 -166 -167 0
-20 -39 -40 -56 -58 -73 -74 -89 -90 -119 -120 -145 -146 -156 -157 -166 -167 0
-21 -39 -41 -56 -58 -73 -74 -89 -90 -119 -120 -145 -146 -156 -157 -166 -167 0
-21 -40 -41 -56 -59 -73 -74 -89 -90 -119 -120 -145 -146 -156 -157 -166 -167 0
-20 -39 -40 -57 -58 -73 -75 -89 -90 -119 -120 -145 -146 -156 -157 -166 -167 0
-21 -39 -41 -57 -58 -73 -75 -89 -90 -119 -120 -145 -146 -156 -157 -166 -167 0
-21 -40 -41 -57 -59 -73 -75 -89 -90 -119 -120 -145 -146 -156 -157 -166 -167 0
-21 -40 -41 -58 -59 -73 -76 -89 -90 -119 -120 -145 -146 -156 -157 -166 -167 0
-20 -39 -40 -57 -58 -74 -75 -89 -91 -119 -120 -145 -146 -156 -157 -166 -167 0
-21 -39 -41 -57 -58 -74 -75 -89 -91 -119 -120 -145 -146 -156 -157 -166 -167 0
-21 -40 -41 -57 -59 -74 -75 -89 -91 -119 -120 -145 -146 -156 -157 -166 -167 0
-21 -40 -41 -58 -59 -74 -76 -89 -91 -119 -120 -145 -146 -156 -157 -166 -167 0
-21 -40 -41 -58 -59 -75 -76 -89 -92 -119 -120 -145 -146 -156 -157 -166 -167 0
-20 -39 -40 -57 -58 -74 -75 -90 -91 -119 -121 -145 -146 -156 -157 -166 -167 0
-21 -39 -41 -57 -58 -74 -75 -90 -91 -119 -121 -145 -146 -156 -157 -166 -167 0
-21 -40 -41 -57 -59 -74 -75 -90 -91 -119 -121 -145 -146 -156 -157 -166 -167 0
-21 -40 -41 -58 -59 -74 -76 -90 -91 -119 -121 -145 -146 -156 -157 -166 -167 0
-21 -40 -41 -58 -59 -75 -76 -90 -92 -119 -121 -145 -146 -156 -157 -166 -167 0
-21 -40 -41 -58 -59 -75 -76 -91 -92 -119 -122 -145 -146 -156 -157 -166 -167 0
-20 -39 -40 -57 -58 -74 -75 -90 -91 -120 -121 -145 -147 -156 -157 -166 -167 0
-21 -39 -41 -57 -58 -74 -75 -90 -91 -120 -121 -145 -147 -156 -157 -166 -167 0
-21 -40 -41 -57 -59 -74 -75 -90 -91 -120 -121 -145 -147 -156 -157 -166 -167 0
-21 -40 -41 -58 -59 -74 -76 -90 -91 -120 -121 -145 -147 -156 -157 -166 -167 0
-21 -40 -41 -58 -59 -75 -76 -90 -92 -120 -121 -145 -147 -156 -157 -166 -167 0
-21 -40 -41 -58 -59 -75 -76 -91 -92 -120 -122 -145 -147 -156 -157 -166 -167 0
-21 -40 -41 -58 -59 -75 -76 -91 -92 -121 -122 -145 -148 -156 -157 -166 -167 0
-20 -39 -40 -57 -58 -74 -75 -90 -91 -120 -121 -146 -147 -156 -158 -166 -167 0
-21 -39 -41 -57 -58 -74 -75 -90 -91 -120 -121 -146 -147 -156 -158 -166 -167 0
-21 -40 -41 -57 -59 -74 -75 -90 -91 -120 -121 -146 -147 -156 -158 -166 -167 0
-21 -40 -41 -58 -59 -74 -76 -90 -91 -120 -121 -146 -147 -156 -158 -166 -167 0
-21 -40 -41 -58 -59 -75 -76 -90 -92 -120 -121 -146 -147 -156 -158 -166 -167 0
-21 -40 -41 -58 -59 -75 -76 -91 -92 -120 -122 -146 -147 -156 -158 -166 -167 0
-21 -40 -41 -58 -59 -75 -76 -91 -92 -121 -122 -146 -148 -156 -158 -166 -167 0
-21 -40 -41 -58 -59 -75 -76 -91 -92 -121 -122 -147 -148 -156 -159 -166 -167 0
-20 -39 -40 -57 -58 -74 -75 -90 -91 -120 -121 -146 -147 -157 -158 -166 -168 0
-21 -39 -41 -57 -58 -74 -75 -90 -91 -120 -121 -146 -147 -157 -158 -166 -168 0
-21 -40 -41 -57 -59 -74 -75 -90 -91 -120 -121 -146 -147 -157 -158 -166 -168 0
-21 -40 -41 -58 -59 -74 -76 -90 -91 -120 -121 -146 -147 -157 -158 -166 -168 0
-21 -40 -41 -58 -59 -75 -76 -90 -92 -120 -121 -146 -147 -157 -158 -166 -168 0
-21 -40 -41 -58 -59 -75 -76 -91 -92 -120 -122 -146 -147 -157 -158 -166 -168 0
-21 -40 -41 -58 -59 -75 -76 -91 -92 -121 -122 -146 -148 -157 -158 -166 -168 0
-21 -40 -41 -58 -59 -75 -76 -91 -92 -121 -122 -147 -148 -157 -159 -166 -168 0
-21 -40 -41 -58 -59 -75 -76 -91 -92 -121 -122 -147 -148 -158 -159 -166 -169 0
-20 -39 -40 -57 -58 -74 -75 -90 -91 -120 -121 -146 -147 -157 -158 -167 -168 0
-21 -39 -41 -57 -58 -74 -75 -90 -91 -120 -121 -146 -147 -157 -158 -167 -168 0
-21 -40 -41 -57 -59 -74 -75 -90 -91 -120 -121 -146 -147 -157 -158 -167 -168 0
-21 -40 -41 -58 -59 -74 -76 -90 -91 -120 -121 -146 -147 -157 -158 -167 -168 0
-21 -40 -41 -58 -59 -75 -76 -90 -92 -120 -121 -146 -147 -157 -158 -167 -168 0
-21 -40 -41 -58 -59 -75 -76 -91 -92 -120 -122 -146 -147 -157 -158 -167 -168 0
-21 -40 -41 -58 -59 -75 -76 -91 -92 -121 -122 -146 -148 -157 -158 -167 -168 0
-21 -40 -41 -58 -59 -75 -76 -91 -92 -121 -122 -147 -148 -157 -159 -167 -168 0
-21 -40 -41 -58 -59 -75 -76 -91 -92 -121 -122 -147 -148 -158 -159 -167 -169 0
-21 -40 -41 -58 -59 -75 -76 -91 -92 -121 -122 -147 -148 -158 -159 -168 -169 0
-20 -39 -40 -57 -58 -74 -75 -90 -91 -120 -121 -146 -147 -157 -158 -177 -178 0
-21 -39 -41 -57 -58 -74 -75 -90 -91 -120 -121 -146 -147 -157 -158 -177 -178 0
-21 -40 -41 -57 -59 -74 -75 -90 -91 -120 -121 -146 -147 -157 -158 -177 -178 0
-21 -40 -41 -58 -59 -74 -76 -90 -91 -120 -121 -146 -147 -157 -158 -177 -178 0
-21 -40 -41 -58 -59 -75 -76 -90 -92 -120 -121 -146 -147 -157 -158 -177 -178 0
-21 -40 -41 -58 -59 -75 -76 -91 -92 -120 -122 -146 -147 -157 -158 -177 -178 0
-21 -40 -41 -58 -59 -75 -76 -91 -92 -121 -122 -146 -148 -157 -158 -177 -178 0
-21 -40 -41 -58 -59 -75 -76 -91 -92 -121 -122 -147 -148 -157 -159 -177 -178 0
-21 -40 -41 -58 -59 -75 -76 -91 -92 -121 -122 -147 -148 -158 -159 -177 -179 0
-21 -40 -41 -58 -59 -75 -76 -91 -92 -121 -122 -147 -148 -158 -159 -178 -179 0
-21 -40 -41 -58 -59 -75 -76 -91 -92 -121 -122 -147 -148 -158 -159 -187 -188 0
-20 -39 -40 -57 -58 -74 -75 -90 -91 -120 -121 -146 -147 -168 -169 -177 -178 0
-21 -39 -41 -57 -58 -74 -75 -90 -91 -120 -121 -146 -147 -168 -169 -177 -178 0
-21 -40 -41 -57 -59 -74 -75 -90 -91 -120 -121 -146 -147 -168 -169 -177 -178 0
-21 -40 -41 -58 -59 -74 -76 -90 -91 -120 -121 -146 -147 -168 -169 -177 -178 0
-21 -40 -41 -58 -59 -75 -76 -90 -92 -120 -121 -146 -147 -168 -169 -177 -178 0
-21 -40 -41 -58 -59 -75 -76 -91 -92 -120 -122 -146 -147 -168 -169 -177 -178 0
-21 -40 -41 -58 -59 -75 -76 -91 -92 -121 -122 -146 -148 -168 -169 -177 -178 0
-21 -40 -41 -58 -59 -75 -76 -91 -92 -121 -122 -147 -148 -168 -170 -177 -178 0
-21 -40 -41 -58 -59 -75 -76 -91 -92 -121 -122 -147 -148 -169 -170 -177 -179 0
-21 -40 -41 -58 -59 -75 -76 -91 -92 -121 -122 -147 -148 -169 -170 -178 -179 0
-21 -40 -41 -58 -59 -75 -76 -91 -92 -121 -122 -147 -148 -169 -170 -187 -188 0
-21 -40 -41 -58 -59 -75 -76 -91 -92 -121 -122 -147 -148 -179 -180 -187 -188 0
-20 -39 -40 -57 -58 -74 -75 -90 -91 -120 -121 -158 -159 -168 -169 -177 -178 0
-21 -39 -41 -57 -58 -74 -75 -90 -91 -120 -121 -158 -159 -168 -169 -177 -178 0
-21 -40 -41 -57 -59 -74 -75 -90 -91 -120 -121 -158 -159 -168 -169 -177 -178 0
-21 -40 -41 -58 -59 -74 -76 -90 -91 -120 -121 -158 -159 -168 -169 -177 -178 0
-21 -40 -41 -58 -59 -75 -76 -90 -92 -120 -121 -158 -159 -168 -169 -177 -178 0
-21 -40 -41 -58 -59 -75 -76 -91 -92 -120 -122 -158 -159 -168 -169 -177 -178 0
-21 -40 -41 -58 -59 -75 -76 -91 -92 -121 -122 -158 -160 -168 -169 -177 -178 0
-21 -40 -41 -58 -59 -75 -76 -91 -92 -121 -122 -159 -160 -168 -170 -177 -178 0
-21 -40 -41 -58 -59 -75 -76 -91 -92 -121 -122 -159 -160 -169 -170 -177 -179 0
-21 -40 -41 -58 -59 -75 -76 -91 -92 -121 -122 -159 -160 -169 -170 -178 -179 0
-21 -40 -41 -58 -59 -75 -76 -91 -92 -121 -122 -159 -160 -169 -170 -187 -188 0
-21 -40 -41 -58 -59 -75 -76 -91 -92 -121 -122 -159 -160 -179 -180 -187 -188 0
-21 -40 -41 -58 -59 -75 -76 -91 -92 -121 -122 -170 -171 -179 -180 -187 -188 0
-19 -38 -39 -56 -57 -73 -74 -89 -90 -133 -134 -145 -146 -156 -157 -166 -167 0
-20 -38 -40 -56 -57 -73 -74 -89 -90 -133 -134 -145 -146 -156 -157 -166 -167 0
-21 -38 -41 -56 -57 -73 -74 -89 -90 -133 -134 -145 -146 -156 -157 -166 -167 0
-20 -39 -40 -56 -58 -73 -74 -89 -90 -133 -134 -145 -146 -156 -157 -166 -167 0
-21 -39 -41 -56 -58 -73 -74 -89 -90 -133 -134 -145 -146 -156 -157 -166 -167 0
-21 -40 -41 -56 -59 -73 -74 -89 -90 -133 -134 -145 -146 -156 -157 -166 -167 0
-20 -39 -40 -57 -58 -73 -75 -89 -90 -133 -134 -145 -146 -156 -157 -166 -167 0
-21 -39 -41 -57 -58 -73 -75 -89 -90 -133 -134 -145 -146 -156 -157 -166 -167 0
-21 -40 -41 -57 -59 -73 -75 -89 -90 -133 -134 -145 -146 -156 -157 -166 -167 0
-21 -40 -41 -58 -59 -73 -76 -89 -90 -133 -134 -145 -146 -156 -157 -166 -167 0
-20 -39 -40 -57 -58 -74 -75 -89 -91 -133 -134 -145 -146 -156 -157 -166 -167 0
-21 -39 -41 -57 -58 -74 -75 -89 -91 -133 -134 -145 -146 -156 -157 -166 -167 0
-21 -40 -41 -57 -59 -74 -75 -89 -91 -133 -134 -145 -146 -156 -157 -166 -167 0
-21 -40 -41 -58 -59 -74 -76 -89 -91 -133 -134 -145 -146 -156 -157 -166 -167 0
-21 -40 -41 -58 -59 -75 -76 -89 -92 -133 -134 -145 -146 -156 -157 -166 -167 0
-20 -39 -40 -57 -58 -74 -75 -90 -91 -133 -135 -145 -146 -156 -157 -166 -167 0
-21 -39 -41 -57 -58 -74 -75 -90 -91 -133 -135 -145 -146 -156 -157 -166 -167 0
-21 -40 -41 -57 -59 -74 -75 -90 -91 -133 -135 -145 -146 -156 -157 -166 -167 0
-21 -40 -41 -58 -59 -74 -76 -90 -91 -133 -135 -145 -146 -156 -157 -166 -167 0
-21 -40 -41 -58 -59 -75 -76 -90 -92 -133 -135 -145 -146 -156 -157 -166 -167 0
-21 -40 -41 -58 -59 -75 -76 -91 -92 -133 -136 -145 -146 -156 -157 -166 -167 0
-20 -39 -40 -57 -58 -74 -75 -90 -91 -134 -135 -145 -147 -156 -157 -166 -167 0
-21 -39 -41 -57 -58 -74 -75 -90 -91 -134 -135 -145 -147 -156 -157 -166 -167 0
-21 -40 -41 -57 -59 -74 -75 -90 -91 -134 -135 -145 -147 -156 -157 -166 -167 0
-21 -40 -41 -58 -59 -74 -76 -90 -91 -134 -135 -145 -147 -156 -157 -166 -167 0
-21 -40 -41 -58 -59 -75 -76 -90 -92 -134 -135 -145 -147 -156 -157 -166 -167 0
-21 -40 -41 -58 -59 -75 -76 -91 -92 -134 -136 -145 -147 -156 -157 -166 -167 0
-21 -40 -41 -58 -59 -75 -76 -91 -92 -135 -136 -145 -148 -156 -157 -166 -167 0
-20 -39 -40 -57 -58 -74 -75 -90 -91 -134 -135 -146 -147 -156 -158 -166 -167 0
-21 -39 -41 -57 -58 -74 -75 -90 -91 -134 -135 -146 -147 -156 -158 -166 -167 0
-21 -40 -41 -57 -59 -74 -75 -90 -91 -134 -135 -146 -147 -156 -158 -166 -167 0
-21 -40 -41 -58 -59 -74 -76 -90 -91 -134 -135 -146 -147 -156 -158 -166 -167 0
-21 -40 -41 -58 -59 -75 -76 -90 -92 -134 -135 -146 -147 -156 -158 -166 -167 0
-21 -40 -41 -58 -59 -75 -76 -91 -92 -134 -136 -146 -147 -156 -158 -166 -167 0
-21 -40 -41 -58 -59 -75 -76 -91 -92 -135 -136 -146 -148 -156 -158 -166 -167 0
-21 -40 -41 -58 -59 -75 -76 -91 -92 -135 -136 -147 -148 -156 -159 -166 -167 0
-20 -39 -40 -57 -58 -74 -75 -90 -91 -134 -135 -146 -147 -157 -158 -166 -168 0
-21 -39 -41 -57 -58 -74 -75 -90 -91 -134 -135 -146 -147 -157 -158 -166 -168 0
-21 -40 -41 -57 -59 -74 -75 -90 -91 -134 -135 -146 -147 -157 -158 -166 -168 0
-21 -40 -41 -58 -59 -74 -76 -90 -91 -134 -135 -146 -147 -157 -158 -166 -168 0
-21 -40 -41 -58 -59 -75 -76 -90 -92 -134 -135 -146 -147 -157 -158 -166 -168 0
-21 -40 -41 -58 -59 -75 -76 -91 -92 -134 -136 -146 -147 -157 -158 -166 -168 0
-21 -40 -41 -58 -59 -75 -76 -91 -92 -135 -136 -146 -148 -157 -158 -166 -168 0
-21 -40 -41 -58 -59 -75 -76 -91 -92 -135 -136 -147 -148 -157 -159 -166 -168 0
-21 -40 -41 -58 -59 -75 -76 -91 -92 -135 -136 -147 -148 -158 -159 -166 -169 0
-20 -39 -40 -57 -58 -74 -75 -90 -91 -134 -135 -146 -147 -157 -158 -167 -168 0
-21 -39 -41 -57 -58 -74 -75 -90 -91 -134 -135 -146 -147 -157 -158 -167 -168 0
-21 -40 -41 -57 -59 -74 -75 -90 -91 -134 -135 -146 -147 -157 -158 -167 -168 0
-21 -40 -41 -58 -59 -74 -76 -90 -91 -134 -135 -146 -147 -157 -158 -167 -168 0
-21 -40 -41 -58 -59 -75 -76 -90 -92 -134 -135 -146 -147 -157 -158 -167 -168 0
-21 -40 -41 -58 -59 -75 -76 -91 -92 -134 -136 -146 -147 -157 -158 -167 -168 0
-21 -40 -41 -58 -59 -75 -76 -91 -92 -135 -136 -146 -148 -157 -158 -167 -168 0
-21 -40 -41 -58 -59 -75 -76 -91 -92 -135 -136 -147 -148 -157 -159 -167 -168 0
-21 -40 -41 -58 -59 -75 -76 -91 -92 -135 -136 -147 -148 -158 -159 -167 -169 0
-21 -40 -41 -58 -59 -75 -76 -91 -92 -135 -136 -147 -148 -158 -159 -168 -169 0
-20 -39 -40 -57 -58 -74 -75 -90 -91 -134 -135 -146 -147 -157 -158 -177 -178 0
-21 -39 -41 -57 -58 -74 -75 -90 -91 -134 -135 -146 -147 -157 -158 -177 -178 0
-21 -40 -41 -57 -59 -74 -75 -90 -91 -134 -135 -146 -147 -157 -158 -177 -178 0
-21 -40 -41 -58 -59 -74 -76 -90 -91 -134 -135 -146 -147 -157 -158 -177 -178 0
-21 -40 -41 -58 -59 -75 -76 -90 -92 -134 -135 -146 -147 -157 -158 -177 -178 0
-21 -40 -41 -58 -59 -75 -76 -91 -92 -134 -136 -146 -147 -157 -158 -177 -178 0
-21 -40 -41 -58 -59 -75 -76 -91 -92 -135 -136 -146 -148 -157 -158 -177 -178 0
-21 -40 -41 -58 -59 -75 -76 -91 -92 -135 -136 -147 -148 -157 -159 -177 -178 0
-21 -40 -41 -58 -59 -75 -76 -91 -92 -135 -136 -147 -148 -158 -159 -177 -179 0
-21 -40 -41 -58 -59 -75 -76 -91 -92 -135 -136 -147 -148 -158 -159 -178 -179 0
-21 -40 -41 -58 -59 -75 -76 -91 -92 -135 -136 -147 -148 -158 -159 -187 -188 0
-20 -39 -40 -57 -58 -74 -75 -90 -91 -134 -135 -146 -147 -168 -169 -177 -178 0
-21 -39 -41 -57 -58 -74 -75 -90 -91 -134 -135 -146 -147 -168 -169 -177 -178 0
-21 -40 -41 -57 -59 -74 -75 -90 -91 -134 -135 -146 -147 -168 -169 -177 -178 0
-21 -40 -41 -58 -59 -74 -76 -90 -91 -134 -135 -146 -147 -168 -169 -177 -178 0
-21 -40 -41 -58 -59 -75 -76 -90 -92 -134 -135 -146 -147 -168 -169 -177 -178 0
-21 -40 -41 -58 -59 -75 -76 -91 -92 -134 -136 -146 -147 -168 -169 -177 -178 0
-21 -40 -41 -58 -59 -75 -76 -91 -92 -135 -136 -146 -148 -168 -169 -177 -178 0
-21 -40 -41 -58 -59 -75 -76 -91 -92 -135 -136 -147 -148 -168 -170 -177 -178 0
-21 -40 -41 -58 -59 -75 -76 -91 -92 -135 -136 -147 -148 -169 -170 -177 -179 0
-21 -40 -41 -58 -59 -75 -76 -91 -92 -135 -136 -147 -148 -169 -170 -178 -179 0
-21 -40 -41 -58 -59 -75 -76 -91 -92 -135 -136 -147 -148 -169 -170 -187 -188 0
-21 -40 -41 -58 -59 -75 -76 -91 -92 -135 -136 -147 -148 -179 -180 -187 -188 0
-20 -39 -40 -57 -58 -74 -75 -90 -91 -134 -135 -158 -159 -168 -169 -177 -178 0
-21 -39 -41 -57 -58 -74 -75 -90 -91 -134 -135 -158 -159 -168 -169 -177 -178 0
-21 -40 -41 -57 -59 -74 -75 -90 -91 -134 -135 -158 -159 -168 -169 -177 -178 0
-21 -40 -41 -58 -59 -74 -76 -90 -91 -134 -135 -158 -159 -168 -169 -177 -178 0
-21 -40 -41 -58 -59 -75 -76 -90 -92 -134 -135 -158 -159 -168 -169 -177 -178 0
-21 -40 -41 -58 -59 -75 -76 -91 -92 -134 -136 -158 -159 -168 -169 -177 -178 0
-21 -40 -41 -58 -59 -75 -76 -91 -92 -135 -136 -158 -160 -168 -169 -177 -178 0
-21 -40 -41 -58 -59 -75 -76 -91 -92 -135 -136 -159 -160 -168 -170 -177 -178 0
-21 -40 -41 -58 -59 -75 -76 -91 -92 -135 -136 -159 -160 -169 -170 -177 -179 0
-21 -40 -41 -58 -59 -75 -76 -91 -92 -135 -136 -159 -160 -169 -170 -178 -179 0
-21 -40 -41 -58 -59 -75 -76 -91 -92 -135 -136 -159 -160 -169 -170 -187 -188 0
-21 -40 -41 -58 -59 -75 -76 -91 -92 -135 -136 -159 -160 -179 -180 -187 -188 0
-21 -40 -41 -58 -59 -75 -76 -91 -92 -135 -136 -170 -171 -179 -180 -187 -188 0
-20 -39 -40 -57 -58 -74 -75 -90 -91 -147 -148 -158 -159 -168 -169 -177 -178 0
-21 -39 -41 -57 -58 -74 -75 -90 -91 -147 -148 -158 -159 -168 -169 -177 -178 0
-21 -40 -41 -57 -59 -74 -75 -90 -91 -147 -148 -158 -159 -168 -169 -177 -178 0
-21 -40 -41 -58 -59 -74 -76 -90 -91 -147 -148 -158 -159 -168 -169 -177 -178 0
-21 -40 -41 -58 -59 -75 -76 -90 -92 -147 -148 -158 -159 -168 -169 -177 -178 0
-21 -40 -41 -58 -59 -75 -76 -91 -92 -147 -149 -158 -159 -168 -169 -177 -178 0
-21 -40 -41 -58 -59 -75 -76 -91 -92 -148 -149 -158 -160 -168 -169 -177 -178 0
-21 -40 -41 -58 -59 -75 -76 -91 -92 -148 -149 -159 -160 -168 -170 -177 -178 0
-21 -40 -41 -58 -59 -75 -76 -91 -92 -148 -149 -159 -160 -169 -170 -177 -179 0
-21 -40 -41 -58 -59 -75 -76 -91 -92 -148 -149 -159 -160 -169 -170 -178 -179 0
-21 -40 -41 -58 -59 -75 -76 -91 -92 -148 -149 -159 -160 -169 -170 -187 -188 0
-21 -40 -41 -58 -59 -75 -76 -91 -92 -148 -149 -159 -160 -179 -180 -187 -188 0
-21 -40 -41 -58 -59 -75 -76 -91 -92 -148 -149 -170 -171 -179 -180 -187 -188 0
-21 -40 -41 -58 -59 -75 -76 -91 -92 -160 -161 -170 -171 -179 -180 -187 -188 0
-18 -37 -38 -55 -56 -72 -73 -104 -105 -118 -119 -131 -132 -143 -144 -154 -155 0
-19 -37 -39 -55 -56 -72 -73 -104 -105 -118 -119 -131 -132 -143 -144 -154 -155 0
-20 -37 -40 -55 -56 -72 -73 -104 -105 -118 -119 -131 -132 -143 -144 -154 -155 0
-21 -37 -41 -55 -56 -72 -73 -104 -105 -118 -119 -131 -132 -143 -144 -154 -155 0
-19 -38 -39 -55 -57 -72 -73 -104 -105 -118 -119 -131 -132 -143 -144 -154 -155 0
-20 -38 -40 -55 -57 -72 -73 -104 -105 -118 -119 -131 -132 -143 -144 -154 -155 0
-21 -38 -41 -55 -57 -72 -73 -104 -105 -118 -119 -131 -132 -143 -144 -154 -155 0
-20 -39 -40 -55 -58 -72 -73 -104 -105 -118 -119 -131 -132 -143 -144 -154 -155 0
-21 -39 -41 -55 -58 -72 -73 -104 -105 -118 -119 -131 -132 -143 -144 -154 -155 0
-21 -40 -41 -55 -59 -72 -73 -104 -105 -118 -119 -131 -132 -143 -144 -154 -155 0
-19 -38 -39 -56 -57 -72 -74 -104 -105 -118 -119 -131 -132 -143 -144 -154 -155 0
-20 -38 -40 -56 -57 -72 -74 -104 -105 -118 -119 -131 -132 -143 -144 -154 -155 0
-21 -38 -41 -56 -57 -72 -74 -104 -105 -118 -119 -131 -132 -143 -144 -154 -155 0
-20 -39 -40 -56 -58 -72 -74 -104 -105 -118 -119 -131 -132 -143 -144 -154 -155 0
-21 -39 -41 -56 -58 -72 -74 -104 -105 -118 -119 -131 -132 -143 -144 -154 -155 0
-21 -40 -41 -56 -59 -72 -74 -104 -105 -118 -119 -131 -132 -143 -144 -154 -155 0
-20 -39 -40 -57 -58 -72 -75 -104 -105 -118 -119 -131 -132 -143 -144 -154 -155 0
-21 -39 -41 -57 -58 -72 -75 -104 -105 -118 -119 -131 -132 -143 -144 -154 -155 0
-21 -40 -41 -57 -59 -72 -75 -104 -105 -118 -119 -131 -132 -143 -144 -154 -155 0
-21 -40 -41 -58 -59 -72 -76 -104 -105 -118 -119 -131 -132 -143 -144 -154 -155 0
-19 -38 -39 -56 -57 -73 -74 -104 -106 -118 -119 -131 -132 -143 -144 -154 -155 0
-20 -38 -40 -56 -57 -73 -74 -104 -106 -118 -119 -131 -132 -143 -144 -154 -155 0
-21 -38 -41 -56 -57 -73 -74 -104 -106 -118 -119 -131 -132 -143 -144 -154 -155 0
-20 -39 -40 -56 -58 -73 -74 -104 -106 -118 -119 -131 -132 -143 -144 -154 -155 0
-21 -39 -41 -56 -58 -73 -74 -104 -106 -118 -119 -131 -132 -143 -144 -154 -155 0
-21 -40 -41 -56 -59 -73 -74 -104 -106 -118 -119 -131 -132 -143 -144 -154 -155 0
-20 -39 -40 -57 -58 -73 -75 -104 -106 -118 -119 -131 -132 -143 -144 -154 -155 0
-21 -39 -41 -57 -58 -73 -75 -104 -106 -118 -119 -131 -132 -143 -144 -154 -155 0
-21 -40 -41 -57 -59 -73 -75 -104 -106 -118 -119 -131 -132 -143 -144 -154 -155 0
-21 -40 -41 -58 -59 -73 -76 -104 -106 -118 -119 -131 -132 -143 -144 -154 -155 0
-20 -39 -40 -57 -58 -74 -75 -104 -107 -118 -119 -131 -132 -143 -144 -154 -155 0
-21 -39 -41 -57 -58 -74 -75 -104 -107 -118 -119 -131 -132 -143 -144 -154 -155 0
-21 -40 -41 -57 -59 -74 -75 -104 -107 -118 -119 -131 -132 -143 -144 -154 -155 0
-21 -40 -41 -58 -59 -74 -76 -104 -107 -118 -119 -131 -132 -143 -144 -154 -155 0
-21 -40 -41 -58 -59 -75 -76 -104 -108 -118 -119 -131 -132 -143 -144 -154 -155 0
-19 -38 -39 -56 -57 -73 -74 -105 -106 -118 -120 -131 -132 -143 -144 -154 -155 0
-20 -38 -40 -56 -57 -73 -74 -105 -106 -118 -120 -131 -132 -143 -144 -154 -155 0
-21 -38 -41 -56 -57 -73 -74 -105 -106 -118 -120 -131 -132 -143 -144 -154 -155 0
-20 -39 -40 -56 -58 -73 -74 -105 -106 -118 -120 -131 -132 -143 -144 -154 -155 0
-21 -39 -41 -56 -58 -73 -74 -105 -106 -118 -120 -131 -132 -143 -144 -154 -155 0
-21 -40 -41 -56 -59 -73 -74 -105 -106 -118 -120 -131 -132 -143 -144 -154 -155 0
-20 -39 -40 -57 -58 -73 -75 -105 -106 -118 -120 -131 -132 -143 -144 -154 -155 0
-21 -39 -41 -57 -58 -73 -75 -105 -106 -118 -120 -131 -132 -143 -144 -154 -155 0
-21 -40 -41 -57 -59 -73 -75 -105 -106 -118 -120 -131 -132 -143 -144 -154 -155 0
-21 -40 -41 -58 -59 -73 -76 -105 -106 -118 -120 -131 -132 -143 -144 -154 -155 0
-20 -39 -40 -57 -58 -74 -75 -105 -107 -118 -120 -131 -132 -143 -144 -154 -155 0
-21 -39 -41 -57 -58 -74 -75 -105 -107 -118 -120 -131 -132 -143 -144 -154 -155 0
-21 -40 -41 -57 -59 -74 -75 -105 -107 -118 -120 -131 -132 -143 -144 -154 -155 0
-21 -40 -41 -58 -59 -74 -76 -105 -107 -118 -120 -131 -132 -143 -144 -154 -155 0
-21 -40 -41 -58 -59 -75 -76 -105 -108 -118 -120 -131 -132 -143 -144 -154 -155 0
-20 -39 -40 -57 -58 -74 -75 -106 -107 -118 -121 -131 -132 -143 -144 -154 -155 0
-21 -39 -41 -57 -58 -74 -75 -106 -107 -118 -121 -131 -132 -143 -144 -154 -155 0
-21 -40 -41 -57 -59 -74 -75 -106 -107 -118 -121 -131 -132 -143 -144 -154 -155 0
-21 -40 -41 -58 -59 -74 -76 -106 -107 -118 -121 -131 -132 -143 -144 -154 -155 0
-21 -40 -41 -58 -59 -75 -76 -106 -108 -118 -121 -131 -132 -143 -144 -154 -155 0
-21 -40 -41 -58 -59 -75 -76 -107 -108 -118 -122 -131 -132 -143 -144 -154 -155 0
-19 -38 -39 -56 -57 -73 -74 -105 -106 -119 -120 -131 -133 -143 -144 -154 -155 0
-20 -38 -40 -56 -57 -73 -74 -105 -106 -119 -120 -131 -133 -143 -144 -154 -155 0
-21 -38 -41 -56 -57 -73 -74 -105 -106 -119 -120 -131 -133 -143 -144 -154 -155 0
-20 -39 -40 -56 -58 -73 -74 -105 -106 -119 -120 -131 -133 -143 -144 -154 -155 0
-21 -39 -41 -56 -58 -73 -74 -105 -106 -119 -120 -131 -133 -143 -144 -154 -155 0
-21 -40 -41 -56 -59 -73 -74 -105 -106 -119 -120 -131 -133 -143 -144 -154 -155 0
-20 -39 -40 -57 -58 -73 -75 -105 -106 -119 -120 -131 -133 -143 -144 -154 -155 0
-21 -39 -41 -57 -58 -73 -75 -105 -106 -119 -120 -131 -133 -143 -144 -154 -155 0
-21 -40 -41 -57 -59 -73 -75 -105 -106 -119 -120 -131 -133 -143 -144 -154 -155 0
-21 -40 -41 -58 -59 -73 -76 -105 -106 -119 -120 -131 -133 -143 -144 -154 -155 0
-20 -39 -40 -57 -58 -74 -75 -105 -107 -119 -120 -131 -133 -143 -144 -154 -155 0
-21 -39 -41 -57 -58 -74 -75 -105 -107 -119 -120 -131 -133 -143 -144 -154 -155 0
-21 -40 -41 -57 -59 -74 -75 -105 -107 -119 -120 -131 -133 -143 -144 -154 -155 0
-21 -40 -41 -58 -59 -74 -76 -105 -107 -119 -120 -131 -133 -143 -144 -154 -155 0
-21 -40 -41 -58 -59 -75 -76 -105 -108 -119 -120 -131 -133 -143 -144 -154 -155 0
-20 -39 -40 -57 -58 -74 -75 -106 -107 -119 -121 -131 -133 -143 -144 -154 -155 0
-21 -39 -41 -57 -58 -74 -75 -106 -107 -119 -121 -131 -133 -143 -144 -154 -155 0
-21 -40 -41 -57 -59 -74 -75 -106 -107 -119 -121 -131 -133 -143 -144 -154 -155 0
-21 -40 -41 -58 -59 -74 -76 -106 -107 -119 -121 -131 -133 -143 -144 -154 -155 0
-21 -40 -41 -58 -59 -75 -76 -106 -108 -119 -121 -131 -133 -143 -144 -154 -155 0
-21 -40 -41 -58 -59 -75 -76 -107 -108 -119 -122 -131 -133 -143 -144 -154 -155 0
-20 -39 -40 -57 -58 -74 -75 -106 -107 -120 -121 -131 -134 -143 -144 -154 -155 0
-21 -39 -41 -57 -58 -74 -75 -106 -107 -120 -121 -131 -134 -143 -144 -154 -155 0
-21 -40 -41 -57 -59 -74 -75 -106 -107 -120 -121 -131 -134 -143 -144 -154 -155 0
-21 -40 -41 -58 -59 -74 -76 -106 -107 -120 -121 -131 -134 -143 -144 -154 -155 0
-21 -40 -41 -58 -59 -75 -76 -106 -108 -120 -121 -131 -134 -143 -144 -154 -155 0
-21 -40 -41 -58 -59 -75 -76 -107 -108 -120 -122 -131 -134 -143 -144 -154 -155 0
-21 -40 -41 -58 -59 -75 -76 -107 -108 -121 -122 -131 -135 -143 -144 -154 -155 0
-19 -38 -39 -56 -57 -73 -74 -105 -106 -119 -120 -132 -133 -143 -145 -154 -155 0
-20 -38 -40 -56 -57 -73 -74 -105 -106 -119 -120 -132 -133 -143 -145 -154 -155 0
-21 -38 -41 -56 -57 -73 -74 -105 -106 -119 -120 -132 -133 -143 -145 -154 -155 0
-20 -39 -40 -56 -58 -73 -74 -105 -106 -119 -120 -132 -133 -143 -145 -154 -155 0
-21 -39 -41 -56 -58 -73 -74 -105 -106 -119 -120 -132 -133 -143 -145 -154 -155 0
-21 -40 -41 -56 -59 -73 -74 -105 -106 -119 -120 -132 -133 -143 -145 -154 -155 0
-20 -39 -40 -57 -58 -73 -75 -105 -106 -119 -120 -132 -133 -143 -145 -154 -155 0
-21 -39 -41 -57 -58 -73 -75 -105 -106 -119 -120 -132 -133 -143 -145 -154 -155 0
-21 -40 -41 -57 -59 -73 -75 -105 -106 -119 -120 -132 -133 -143 -145 -154 -155 0
-21 -40 -41 -58 -59 -73 -76 -105 -106 -119 -120 -132 -133 -143 -145 -154 -155 0
-20 -39 -40 -57 -58 -74 -75 -105 -107 -119 -120 -132 -133 -143 -145 -154 -155 0
-21 -39 -41 -57 -58 -74 -75 -105 -107 -119 -120 -132 -133 -143 -145 -154 -155 0
-21 -40 -41 -57 -59 -74 -75 -105 -107 -119 -120 -132 -133 -143 -145 -154 -155 0
-21 -40 -41 -58 -59 -74 -76 -105 -107 -119 -120 -132 -133 -143 -145 -154 -155 0
-21 -40 -41 -58 -59 -75 -76 -105 -108 -119 -120 -132 -133 -143 -145 -154 -155 0
-20 -39 -40 -57 -58 -74 -75 -106 -107 -119 -121 -132 -133 -143 -145 -154 -155 0
-21 -39 -41 -57 -58 -74 -75 -106 -107 -119 -121 -132 -133 -143 -145 -154 -155 0
-21 -40 -41 -57 -59 -74 -75 -106 -107 -119 -121 -132 -133 -143 -145 -154 -155 0
-21 -40 -41 -58 -59 -74 -76 -106 -107 -119 -121 -132 -133 -143 -145 -154 -155 0
-21 -40 -41 -58 -59 -75 -76 -106 -108 -119 -121 -132 -133 -143 -145 -154 -155 0
-21 -40 -41 -58 -59 -75 -76 -107 -108 -119 -122 -132 -133 -143 -145 -154 -155 0
-20 -39 -40 -57 -58 -74 -75 -106 -107 -120 -121 -132 -134 -143 -145 -154 -155 0
-21 -39 -41 -57 -58 -74 -75 -106 -107 -120 -121 -132 -134 -143 -145 -154 -155 0
-21 -40 -41 -57 -59 -74 -75 -106 -107 -120 -121 -132 -134 -143 -145 -154 -155 0
-21 -40 -41 -58 -59 -74 -76 -106 -107 -120 -121 -132 -134 -143 -145 -154 -155 0
-21 -40 -41 -58 -59 -75 -76 -106 -108 -120 -121 -132 -134 -143 -145 -154 -155 0
-21 -40 -41 -58 -59 -75 -76 -107 -108 -120 -122 -132 -134 -143 -145 -154 -155 0
-21 -40 -41 -58 -59 -75 -76 -107 -108 -121 -122 -132 -135 -143 -145 -154 -155 0
-20 -39 -40 -57 -58 -74 -75 -106 -107 -120 -121 -133 -134 -143 -146 -154 -155 0
-21 -39 -41 -57 -58 -74 -75 -106 -107 -120 -121 -133 -134 -143 -146 -154 -155 0
-21 -40 -41 -57 -59 -74 -75 -106 -107 -120 -121 -133 -134 -143 -146 -154 -155 0
-21 -40 -41 -58 -59 -74 -76 -106 -107 -120 -121 -133 -134 -143 -146 -154 -155 0
-21 -40 -41 -58 -59 -75 -76 -106 -108 -120 -121 -133 -134 -143 -146 -154 -155 0
-21 -40 -41 -58 -59 -75 -76 -107 -108 -120 -122 -133 -134 -143 -146 -154 -155 0
-21 -40 -41 -58 -59 -75 -76 -107 -108 -121 -122 -133 -135 -143 -146 -154 -155 0
-21 -40 -41 -58 -59 -75 -76 -107 -108 -121 -122 -134 -135 -143 -147 -154 -155 0
-19 -38 -39 -56 -57 -73 -74 -105 -106 -119 -120 -132 -133 -144 -145 -154 -156 0
-20 -38 -40 -56 -57 -73 -74 -105 -106 -119 -120 -132 -133 -144 -145 -154 -156 0
-21 -38 -41 -56 -57 -73 -74 -105 -106 -119 -120 -132 -133 -144 -145 -154 -156 0
-20 -39 -40 -56 -58 -73 -74 -105 -106 -119 -120 -132 -133 -144 -145 -154 -156 0
-21 -39 -41 -56 -58 -73 -74 -105 -106 -119 -120 -132 -133 -144 -145 -154 -156 0
-21 -40 -41 -56 -59 -73 -74 -105 -106 -119 -120 -132 -133 -144 -145 -154 -156 0
-20 -39 -40 -57 -58 -73 -75 -105 -106 -119 -120 -132 -133 -144 -145 -154 -156 0
-21 -39 -41 -57 -58 -73 -75 -105 -106 -119 -120 -132 -133 -144 -145 -154 -156 0
-21 -40 -41 -57 -59 -73 -75 -105 -106 -119 -120 -132 -133 -144 -145 -154 -156 0
-21 -40 -41 -58 -59 -73 -76 -105 -106 -119 -120 -132 -133 -144 -145 -154 -156 0
-20 -39 -40 -57 -58 -74 -75 -105 -107 -119 -120 -132 -133 -144 -145 -154 -156 0
-21 -39 -41 -57 -58 -74 -75 -105 -107 -119 -120 -132 -133 -144 -145 -154 -156 0
-21 -40 -41 -57 -59 -74 -75 -105 -107 -119 -120 -132 -133 -144 -145 -154 -156 0
-21 -40 -41 -58 -59 -74 -76 -105 -107 -119 -120 -132 -133 -144 -145 -154 -156 0
-21 -40 -41 -58 -59 -75 -76 -105 -108 -119 -120 -132 -133 -144 -145 -154 -156 0
-20 -39 -40 -57 -58 -74 -75 -106 -107 -119 -121 -132 -133 -144 -145 -154 -156 0
-21 -39 -41 -57 -58 -74 -75 -106 -107 -119 -121 -132 -133 -144 -145 -154 -156 0
-21 -40 -41 -57 -59 -74 -75 -106 -107 -119 -121 -132 -133 -144 -145 -154 -156 0
-21 -40 -41 -58 -59 -74 -76 -106 -107 -119 -121 -132 -133 -144 -145 -154 -156 0
-21 -40 -41 -58 -59 -75 -76 -106 -108 -119 -121 -132 -133 -144 -145 -154 -156 0
-21 -40 -41 -58 -59 -75 -76 -107 -108 -119 -122 -132 -133 -144 -145 -154 -156 0
-20 -39 -40 -57 -58 -74 -75 -106 -107 -120 -121 -132 -134 -144 -145 -154 -156 0
-21 -39 -41 -57 -58 -74 -75 -106 -107 -120 -121 -132 -134 -144 -145 -154 -156 0
-21 -40 -41 -57 -59 -74 -75 -106 -107 -120 -121 -132 -134 -144 -145 -154 -156 0
-21 -40 -41 -58 -59 -74 -76 -106 -107 -120 -121 -132 -134 -144 -145 -154 -156 0
-21 -40 -41 -58 -59 -75 -76 -106 -108 -120 -121 -132 -134 -144 -145 -154 -156 0
-21 -40 -41 -58 -59 -75 -76 -107 -108 -120 -122 -132 -134 -144 -145 -154 -156 0
-21 -40 -41 -58 -59 -75 -76 -107 -108 -121 -122 -132 -135 -144 -145 -154 -156 0
-20 -39 -40 -57 -58 -74 -75 -106 -107 -120 -121 -133 -134 -144 -146 -154 -156 0
-21 -39 -41 -57 -58 -74 -75 -106 -107 -120 -121 -133 -134 -144 -146 -154 -156 0
-21 -40 -41 -57 -59 -74 -75 -106 -107 -120 -121 -133 -134 -144 -146 -154 -156 0
-21 -40 -41 -58 -59 -74 -76 -106 -107 -120 -121 -133 -134 -144 -146 -154 -156 0
-21 -40 -41 -58 -59 -75 -76 -106 -108 -120 -121 -133 -134 -144 -146 -154 -156 0
-21 -40 -41 -58 -59 -75 -76 -107 -108 -120 -122 -133 -134 -144 -146 -154 -156 0
-21 -40 -41 -58 -59 -75 -76 -107 -108 -121 -122 -133 -135 -144 -146 -154 -156 0
-21 -40 -41 -58 -59 -75 -76 -107 -108 -121 -122 -134 -135 -144 -147 -154 -156 0
-20 -39 -40 -57 -58 -74 -75 -106 -107 -120 -121 -133 -134 -145 -146 -154 -157 0
-21 -39 -41 -57 -58 -74 -75 -106 -107 -120 -121 -133 -134 -145 -146 -154 -157 0
-21 -40 -41 -57 -59 -74 -75 -106 -107 -120 -121 -133 -134 -145 -146 -154 -157 0
-21 -40 -41 -58 -59 -74 -76 -106 -107 -120 -121 -133 -134 -145 -146 -154 -157 0
-21 -40 -41 -58 -59 -75 -76 -106 -108 -120 -121 -133 -134 -145 -146 -154 -157 0
-21 -40 -41 -58 -59 -75 -76 -107 -108 -120 -122 -133 -134 -145 -146 -154 -157 0
-21 -40 -41 -58 -59 -75 -76 -107 -108 -121 -122 -133 -135 -145 -146 -154 -157 0
-21 -40 -41 -58 -59 -75 -76 -107 -108 -121 -122 -134 -135 -145 -147 -154 -157 0
-21 -40 -41 -58 -59 -75 -76 -107 -108 -121 -122 -134 -135 -146 -147 -154 -158 0
-19 -38 -39 -56 -57 -73 -74 -105 -106 -119 -120 -132 -133 -144 -145 -155 -156 0
-20 -38 -40 -56 -57 -73 -74 -105 -106 -119 -120 -132 -133 -144 -145 -155 -156 0
-21 -38 -41 -56 -57 -73 -74 -105 -106 -119 -120 -132 -133 -144 -145 -155 -156 0
-20 -39 -40 -56 -58 -73 -74 -105 -106 -119 -120 -132 -133 -144 -145 -155 -156 0
-21 -39 -41 -56 -58 -73 -74 -105 -106 -119 -120 -132 -133 -144 -145 -155 -156 0
-21 -40 -41 -56 -59 -73 -74 -105 -106 -119 -120 -132 -133 -144 -145 -155 -156 0
-20 -39 -40 -57 -58 -73 -75 -105 -106 -119 -120 -132 -133 -144 -145 -155 -156 0
-21 -39 -41 -57 -58 -73 -75 -105 -106 -119 -120 -132 -133 -144 -145 -155 -156 0
-21 -40 -41 -57 -59 -73 -75 -105 -106 -119 -120 -132 -133 -144 -145 -155 -156 0
-21 -40 -41 -58 -59 -73 -76 -105 -106 -119 -120 -132 -133 -144 -145 -155 -156 0
-20 -39 -40 -57 -58 -74 -75 -105 -107 -119 -120 -132 -133 -144 -145 -155 -156 0
-21 -39 -41 -57 -58 -74 -75 -105 -107 -119 -120 -132 -133 -144 -145 -155 -156 0
-21 -40 -41 -57 -59 -74 -75 -105 -107 -119 -120 -132 -133 -144 -145 -155 -156 0
-21 -40 -41 -58 -59 -74 -76 -105 -107 -119 -120 -132 -133 -144 -145 -155 -156 0
-21 -40 -41 -58 -59 -75 -76 -105 -108 -119 -120 -132 -133 -144 -145 -155 -156 0
-20 -39 -40 -57 -58 -74 -75 -106 -107 -119 -121 -132 -133 -144 -145 -155 -156 0
-21 -39 -41 -57 -58 -74 -75 -106 -107 -119 -121 -132 -133 -144 -145 -155 -156 0
-21 -40 -41 -57 -59 -74 -75 -106 -107 -119 -121 -132 -133 -144 -145 -155 -156 0
-21 -40 -41 -58 -59 -74 -76 -106 -107 -119 -121 -132 -133 -144 -145 -155 -156 0
-21 -40 -41 -58 -59 -75 -76 -106 -108 -119 -121 -132 -133 -144 -145 -155 -156 0
-21 -40 -41 -58 -59 -75 -76 -107 -108 -119 -122 -132 -133 -144 -145 -155 -156 0
-20 -39 -40 -57 -58 -74 -75 -106 -107 -120 -121 -132 -134 -144 -145 -155 -156 0
-21 -39 -41 -57 -58 -74 -75 -106 -107 -120 -121 -132 -134 -144 -145 -155 -156 0
-21 -40 -41 -57 -59 -74 -75 -106 -107 -120 -121 -132 -134 -144 -145 -155 -156 0
-21 -40 -41 -58 -59 -74 -76 -106 -107 -120 -121 -132 -134 -144 -145 -155 -156 0
-21 -40 -41 -58 -59 -75 -76 -106 -108 -120 -121 -132 -134 -144 -145 -155 -156 0
-21 -40 -41 -58 -59 -75 -76 -107 -108 -120 -122 -132 -134 -144 -145 -155 -156 0
-21 -40 -41 -58 -59 -75 -76 -107 -108 -121 -122 -132 -135 -144 -145 -155 -156 0
-20 -39 -40 -57 -58 -74 -75 -106 -107 -120 -121 -133 -134 -144 -146 -155 -156 0
-21 -39 -41 -57 -58 -74 -75 -106 -107 -120 -121 -133 -134 -144 -146 -155 -156 0
-21 -40 -41 -57 -59 -74 -75 -106 -107 -120 -121 -133 -134 -144 -146 -155 -156 0
-21 -40 -41 -58 -59 -74 -76 -106 -107 -120 -121 -133 -134 -144 -146 -155 -156 0
-21 -40 -41 -58 -59 -75 -76 -106 -108 -120 -121 -133 -134 -144 -146 -155 -156 0
-21 -40 -41 -58 -59 -75 -76 -107 -108 -120 -122 -133 -134 -144 -146 -155 -156 0
-21 -40 -41 -58 -59 -75 -76 -107 -108 -121 -122 -133 -135 -144 -146 -155 -156 0
-21 -40 -41 -58 -59 -75 -76 -107 -108 -121 -122 -134 -135 -144 -147 -155 -156 0
-20 -39 -40 -57 -58 -74 -75 -106 -107 -120 -121 -133 -134 -145 -146 -155 -157 0
-21 -39 -41 -57 -58 -74 -75 -106 -107 -120 -121 -133 -134 -145 -146 -155 -157 0
-21 -40 -41 -57 -59 -74 -75 -106 -107 -120 -121 -133 -134 -145 -146 -155 -157 0
-21 -40 -41 -58 -59 -74 -76 -106 -107 -120 -121 -133 -134 -145 -146 -155 -157 0
-21 -40 -41 -58 -59 -75 -76 -106 -108 -120 -121 -133 -134 -145 -146 -155 -157 0
-21 -40 -41 -58 -59 -75 -76 -107 -108 -120 -122 -133 -134 -145 -146 -155 -157 0
-21 -40 -41 -58 -59 -75 -76 -107 -108 -121 -122 -133 -135 -145 -146 -155 -157 0
-21 -40 -41 -58 -59 -75 -76 -107 -108 -121 -122 -134 -135 -145 -147 -155 -157 0
-21 -40 -41 -58 -59 -75 -76 -107 -108 -121 -122 -134 -135 -146 -147 -155 -158 0
-20 -39 -40 -57 -58 -74 -75 -106 -107 -120 -121 -133 -134 -145 -146 -156 -157 0
-21 -39 -41 -57 -58 -74 -75 -106 -107 -120 -121 -133 -134 -145 -146 -156 -157 0
-21 -40 -41 -57 -59 -74 -75 -106 -107 -120 -121 -133 -134 -145 -146 -156 -157 0
-21 -40 -41 -58 -59 -74 -76 -106 -107 -120 -121 -133 -134 -145 -146 -156 -157 0
-21 -40 -41 -58 -59 -75 -76 -106 -108 -120 -121 -133 -134 -145 -146 -156 -157 0
-21 -40 -41 -58 -59 -75 -76 -107 -108 -120 -122 -133 -134 -145 -146 -156 -157 0
-21 -40 -41 -58 -59 -75 -76 -107 -108 -121 -122 -133 -135 -145 -146 -156 -157 0
-21 -40 -41 -58 -59 -75 -76 -107 -108 -121 -122 -134 -135 -145 -147 -156 -157 0
-21 -40 -41 -58 -59 -75 -76 -107 -108 -121 -122 -134 -135 -146 -147 -156 -158 0
-21 -40 -41 -58 -59 -75 -76 -107 -108 -121 -122 -134 -135 -146 -147 -157 -158 0
-19 -38 -39 -56 -57 -73 -74 -105 -106 -119 -120 -132 -133 -144 -145 -166 -167 0
-20 -38 -40 -56 -57 -73 -74 -105 -106 -119 -120 -132 -133 -144 -145 -166 -167 0
-21 -38 -41 -56 -57 -73 -74 -105 -106 -119 -120 -132 -133 -144 -145 -166 -167 0
-20 -39 -40 -56 -58 -73 -74 -105 -106 -119 -120 -132 -133 -144 -145 -166 -167 0
-21 -39 -41 -56 -58 -73 -74 -105 -106 -119 -120 -132 -133 -144 -145 -166 -167 0
-21 -40 -41 -56 -59 -73 -74 -105 -106 -119 -120 -132 -133 -144 -145 -166 -167 0
-20 -39 -40 -57 -58 -73 -75 -105 -106 -119 -120 -132 -133 -144 -145 -166 -167 0
-21 -39 -41 -57 -58 -73 -75 -105 -106 -119 -120 -132 -133 -144 -145 -166 -167 0
-21 -40 -41 -57 -59 -73 -75 -105 -106 -119 -120 -132 -133 -144 -145 -166 -167 0
-21 -40 -41 -58 -59 -73 -76 -105 -106 -119 -120 -132 -133 -144 -145 -166 -167 0
-20 -39 -40 -57 -58 -74 -75 -105 -107 -119 -120 -132 -133 -144 -145 -166 -167 0
-21 -39 -41 -57 -58 -74 -75 -105 -107 -119 -120 -132 -133 -144 -145 -166 -167 0
-21 -40 -41 -57 -59 -74 -75 -105 -107 -119 -120 -132 -133 -144 -145 -166 -167 0
-21 -40 -41 -58 -59 -74 -76 -105 -107 -119 -120 -132 -133 -144 -145 -166 -167 0
-21 -40 -41 -58 -59 -75 -76 -105 -108 -119 -120 -132 -133 -144 -145 -166 -167 0
-20 -39 -40 -57 -58 -74 -75 -106 -107 -119 -121 -132 -133 -144 -145 -166 -167 0
-21 -39 -41 -57 -58 -74 -75 -106 -107 -119 -121 -132 -133 -144 -145 -166 -167 0
-21 -40 -41 -57 -59 -74 -75 -106 -107 -119 -121 -132 -133 -144 -145 -166 -167 0
-21 -40 -41 -58 -59 -74 -76 -106 -107 -119 -121 -132 -133 -144 -145 -166 -167 0
-21 -40 -41 -58 -59 -75 -76 -106 -108 -119 -121 -132 -133 -144 -145 -166 -167 0
-21 -40 -41 -58 -59 -75 -76 -107 -108 -119 -122 -132 -133 -144 -145 -166 -167 0
-20 -39 -40 -57 -58 -74 -75 -106 -107 -120 -121 -132 -134 -144 -145 -166 -167 0
-21 -39 -41 -57 -58 -74 -75 -106 -107 -120 -121 -132 -134 -144 -145 -166 -167 0
-21 -40 -41 -57 -59 -74 -75 -106 -107 -120 -121 -132 -134 -144 -145 -166 -167 0
-21 -40 -41 -58 -59 -74 -76 -106 -107 -120 -121 -132 -134 -144 -145 -166 -167 0
-21 -40 -41 -58 -59 -75 -76 -106 -108 -120 -121 -132 -134 -144 -145 -166 -167 0
-21 -40 -41 -58 -59 -75 -76 -107 -108 -120 -122 -132 -134 -144 -145 -166 -167 0
-21 -40 -41 -58 -59 -75 -76 -107 -108 -121 -122 -132 -135 -144 -145 -166 -167 0
-20 -39 -40 -57 -58 -74 -75 -106 -107 -120 -121 -133 -134 -144 -146 -166 -167 0
-21 -39 -41 -57 -58 -74 -75 -106 -107 -120 -121 -133 -134 -144 -146 -166 -167 0
-21 -40 -41 -57 -59 -74 -75 -106 -107 -120 -121 -133 -134 -144 -146 -166 -167 0
-21 -40 -41 -58 -59 -74 -76 -106 -107 -120 -121 -133 -134 -144 -146 -166 -167 0
-21 -40 -41 -58 -59 -75 -76 -106 -108 -120 -121 -133 -134 -144 -146 -166 -167 0
-21 -40 -41 -58 -59 -75 -76 -107 -108 -120 -122 -133 -134 -144 -146 -166 -167 0
-21 -40 -41 -58 -59 -75 -76 -107 -108 -121 -122 -133 -135 -144 -146 -166 -167 0
-21 -40 -41 -58 -59 -75 -76 -107 -108 -121 -122 -134 -135 -144 -147 -166 -167 0
-20 -39 -40 -57 -58 -74 -75 -106 -107 -120 -121 -133 -134 -145 -146 -166 -168 0
-21 -39 -41 -57 -58 -74 -75 -106 -107 -120 -121 -133 -134 -145 -146 -166 -168 0
-21 -40 -41 -57 -59 -74 -75 -106 -107 -120 -121 -133 -134 -145 -146 -166 -168 0
-21 -40 -41 -58 -59 -74 -76 -106 -107 -120 -121 -133 -134 -145 -146 -166 -168 0
-21 -40 -41 -58 -59 -75 -76 -106 -108 -120 -121 -133 -134 -145 -146 -166 -168 0
-21 -40 -41 -58 -59 -75 -76 -107 -108 -120 -122 -133 -134 -145 -146 -166 -168 0
-21 -40 -41 -58 -59 -75 -76 -107 -108 -121 -122 -133 -135 -145 -146 -166 -168 0
-21 -40 -41 -58 -59 -75 -76 -107 -108 -121 -122 -134 -135 -145 -147 -166 -168 0
-21 -40 -41 -58 -59 -75 -76 -107 -108 -121 -122 -134 -135 -146 -147 -166 -169 0
-20 -39 -40 -57 -58 -74 -75 -106 -107 -120 -121 -133 -134 -145 -146 -167 -168 0
-21 -39 -41 -57 -58 -74 -75 -106 -107 -120 -121 -133 -134 -145 -146 -167 -168 0
-21 -40 -41 -57 -59 -74 -75 -106 -107 -120 -121 -133 -134 -145 -146 -167 -168 0
-21 -40 -41 -58 -59 -74 -76 -106 -107 -120 -121 -133 -134 -145 -146 -167 -168 0
-21 -40 -41 -58 -59 -75 -76 -106 -108 -120 -121 -133 -134 -145 -146 -167 -168 0
-21 -40 -41 -58 -59 -75 -76 -107 -108 -120 -122 -133 -134 -145 -146 -167 -168 0
-21 -40 -41 -58 -59 -75 -76 -107 -108 -121 -122 -133 -135 -145 -146 -167 -168 0
-21 -40 -41 -58 -59 -75 -76 -107 -108 -121 -122 -134 -135 -145 -147 -167 -168 0
-21 -40 -41 -58 -59 -75 -76 -107 -108 -121 -122 -134 -135 -146 -147 -167 -169 0
-21 -40 -41 -58 -59 -75 -76 -107 -108 -121 -122 -134 -135 -146 -147 -168 -169 0
-20 -39 -40 -57 -58 -74 -75 -106 -107 -120 -121 -133 -134 -145 -146 -177 -178 0
-21 -39 -41 -57 -58 -74 -75 -106 -107 -120 -121 -133 -134 -145 -146 -177 -178 0
-21 -40 -41 -57 -59 -74 -75 -106 -107 -120 -121 -133 -134 -145 -146 -177 -178 0
-21 -40 -41 -58 -59 -74 -76 -106 -107 -120 -121 -133 -134 -145 -146 -177 -178 0
-21 -40 -41 -58 -59 -75 -76 -106 -108 -120 -121 -133 -134 -145 -146 -177 -178 0
-21 -40 -41 -58 -59 -75 -76 -107 -108 -120 -122 -133 -134 -145 -146 -177 -178 0
-21 -40 -41 -58 -59 -75 -76 -107 -108 -121 -122 -133 -135 -145 -146 -177 -178 0
-21 -40 -41 -58 -59 -75 -76 -107 -108 -121 -122 -134 -135 -145 -147 -177 -178 0
-21 -40 -41 -58 -59 -75 -76 -107 -108 -121 -122 -134 -135 -146 -147 -177 -179 0
-21 -40 -41 -58 -59 -75 -76 -107 -108 -121 -122 -134 -135 -146 -147 -178 -179 0
-21 -40 -41 -58 -59 -75 -76 -107 -108 -121 -122 -134 -135 -146 -147 -187 -188 0
-19 -38 -39 -56 -57 -73 -74 -105 -106 -119 -120 -132 -133 -156 -157 -166 -167 0
-20 -38 -40 -56 -57 -73 -74 -105 -106 -119 -120 -132 -133 -156 -157 -166 -167 0
-21 -38 -41 -56 -57 -73 -74 -105 -106 -119 -120 -132 -133 -156 -157 -166 -167 0
-20 -39 -40 -56 -58 -73 -74 -105 -106 -119 -120 -132 -133 -156 -157 -166 -167 0
-21 -39 -41 -56 -58 -73 -74 -105 -106 -119 -120 -132 -133 -156 -157 -166 -167 0
-21 -40 -41 -56 -59 -73 -74 -105 -106 -119 -120 -132 -133 -156 -157 -166 -167 0
-20 -39 -40 -57 -58 -73 -75 -105 -106 -119 -120 -132 -133 -156 -157 -166 -167 0
-21 -39 -41 -57 -58 -73 -75 -105 -106 -119 -120 -132 -133 -156 -157 -166 -167 0
-21 -40 -41 -57 -59 -73 -75 -105 -106 -119 -120 -132 -133 -156 -157 -166 -167 0
-21 -40 -41 -58 -59 -73 -76 -105 -106 -119 -120 -132 -133 -156 -157 -166 -167 0
-20 -39 -40 -57 -58 -74 -75 -105 -107 -119 -120 -132 -133 -156 -157 -166 -167 0
-21 -39 -41 -57 -58 -74 -75 -105 -107 -119 -120 -132 -133 -156 -157 -166 -167 0
-21 -40 -41 -57 -59 -74 -75 -105 -107 -119 -120 -132 -133 -156 -157 -166 -167 0
-21 -40 -41 -58 -59 -74 -76 -105 -107 -119 -120 -132 -133 -156 -157 -166 -167 0
-21 -40 -41 -58 -59 -75 -76 -105 -108 -119 -120 -132 -133 -156 -157 -166 -167 0
-20 -39 -40 -57 -58 -74 -75 -106 -107 -119 -121 -132 -133 -156 -157 -166 -167 0
-21 -39 -41 -57 -58 -74 -75 -106 -107 -119 -121 -132 -133 -156 -157 -166 -167 0
-21 -40 -41 -57 -59 -74 -75 -106 -107 -119 -121 -132 -133 -156 -157 -166 -167 0
-21 -40 -41 -58 -59 -74 -76 -106 -107 -119 -121 -132 -133 -156 -157 -166 -167 0
-21 -40 -41 -58 -59 -75 -76 -106 -108 -119 -121 -132 -133 -156 -157 -166 -167 0
-21 -40 -41 -58 -59 -75 -76 -107 -108 -119 -122 -132 -133 -156 -157 -166 -167 0
-20 -39 -40 -57 -58 -74 -75 -106 -107 -120 -121 -132 -134 -156 -157 -166 -167 0
-21 -39 -41 -57 -58 -74 -75 -106 -107 -120 -121 -132 -134 -156 -157 -166 -167 0
-21 -40 -41 -57 -59 -74 -75 -106 -107 -120 -121 -132 -134 -156 -157 -166 -167 0
-21 -40 -41 -58 -59 -74 -76 -106 -107 -120 -121 -132 -134 -156 -157 -166 -167 0
-21 -40 -41 -58 -59 -75 -76 -106 -108 -120 -121 -132 -134 -156 -157 -166 -167 0
-21 -40 -41 -58 -59 -75 -76 -107 -108 -120 -122 -132 -134 -156 -157 -166 -167 0
-21 -40 -41 -58 -59 -75 -76 -107 -108 -121 -122 -132 -135 -156 -157 -166 -167 0
-20 -39 -40 -57 -58 -74 -75 -106 -107 -120 -121 -133 -134 -156 -158 -166 -167 0
-21 -39 -41 -57 -58 -74 -75 -106 -107 -120 -121 -133 -134 -156 -158 -166 -167 0
-21 -40 -41 -57 -59 -74 -75 -106 -107 -120 -121 -133 -134 -156 -158 -166 -167 0
-21 -40 -41 -58 -59 -74 -76 -106 -107 -120 -121 -133 -134 -156 -158 -166 -167 0
-21 -40 -41 -58 -59 -75 -76 -106 -108 -120 -121 -133 -134 -156 -158 -166 -167 0
-21 -40 -41 -58 -59 -75 -76 -107 -108 -120 -122 -133 -134 -156 -158 -166 -167 0
-21 -40 -41 -58 -59 -75 -76 -107 -108 -121 -122 -133 -135 -156 -158 -166 -167 0
-21 -40 -41 -58 -59 -75 -76 -107 -108 -121 -122 -134 -135 -156 -159 -166 -167 0
-20 -39 -40 -57 -58 -74 -75 -106 -107 -120 -121 -133 -134 -157 -158 -166 -168 0
-21 -39 -41 -57 -58 -74 -75 -106 -107 -120 -121 -133 -134 -157 -158 -166 -168 0
-21 -40 -41 -57 -59 -74 -75 -106 -107 -120 -121 -133 -134 -157 -158 -166 -168 0
-21 -40 -41 -58 -59 -74 -76 -106 -107 -120 -121 -133 -134 -157 -158 -166 -168 0
-21 -40 -41 -58 -59 -75 -76 -106 -108 -120 -121 -133 -134 -157 -158 -166 -168 0
-21 -40 -41 -58 -59 -75 -76 -107 -108 -120 -122 -133 -134 -157 -158 -166 -168 0
-21 -40 -41 -58 -59 -75 -76 -107 -108 -121 -122 -133 -135 -157 -158 -166 -168 0
-21 -40 -41 -58 -59 -75 -76 -107 -108 -121 -122 -134 -135 -157 -159 -166 -168 0
-21 -40 -41 -58 -59 -75 -76 -107 -108 -121 -122 -134 -135 -158 -159 -166 -169 0
-20 -39 -40 -57 -58 -74 -75 -106 -107 -120 -121 -133 -134 -157 -158 -167 -168 0
-21 -39 -41 -57 -58 -74 -75 -106 -107 -120 -121 -133 -134 -157 -158 -167 -168 0
-21 -40 -41 -57 -59 -74 -75 -106 -107 -120 -121 -133 -134 -157 -158 -167 -168 0
-21 -40 -41 -58 -59 -74 -76 -106 -107 -120 -121 -133 -134 -157 -158 -167 -168 0
-21 -40 -41 -58 -59 -75 -76 -106 -108 -120 -121 -133 -134 -157 -158 -167 -168 0
-21 -40 -41 -58 -59 -75 -76 -107 -108 -120 -122 -133 -134 -157 -158 -167 -168 0
-21 -40 -41 -58 -59 -75 -76 -107 -108 -121 -122 -133 -135 -157 -158 -167 -168 0
-21 -40 -41 -58 -59 -75 -76 -107 -108 -121 -122 -134 -135 -157 -159 -167 -168 0
-21 -40 -41 -58 -59 -75 -76 -107 -108 -121 -122 -134 -135 -158 -159 -167 -169 0
-21 -40 -41 -58 -59 -75 -76 -107 -108 -121 -122 -134 -135 -158 -159 -168 -169 0
-20 -39 -40 -57 -58 -74 -75 -106 -107 -120 -121 -133 -134 -157 -158 -177 -178 0
-21 -39 -41 -57 -58 -74 -75 -106 -107 -120 -121 -133 -134 -157 -158 -177 -178 0
-21 -40 -41 -57 -59 -74 -75 -106 -107 -120 -121 -133 -134 -157 -158 -177 -178 0
-21 -40 -41 -58 -59 -74 -76 -106 -107 -120 -121 -133 -134 -157 -158 -177 -178 0
-21 -40 -41 -58 -59 -75 -76 -106 -108 -120 -121 -133 -134 -157 -158 -177 -178 0
-21 -40 -41 -58 -59 -75 -76 -107 -108 -120 -122 -133 -134 -157 -158 -177 -178 0
-21 -40 -41 -58 -59 -75 -76 -107 -108 -121 -122 -133 -135 -157 -158 -177 -178 0
-21 -40 -41 -58 -59 -75 -76 -107 -108 -121 -122 -134 -135 -157 -159 -177 -178 0
-21 -40 -41 -58 -59 -75 -76 -107 -108 -121 -122 -134 -135 -158 -159 -177 -179 0
-21 -40 -41 -58 -59 -75 -76 -107 -108 -121 -122 -134 -135 -158 -159 -178 -179 0
-21 -40 -41 -58 -59 -75 -76 -107 -108 -121 -122 -134 -135 -158 -159 -187 -188 0
-20 -39 -40 -57 -58 -74 -75 -106 -107 -120 -121 -133 -134 -168 -169 -177 -178 0
-21 -39 -41 -57 -58 -74 -75 -106 -107 -120 -121 -133 -134 -168 -169 -177 -178 0
-21 -40 -41 -57 -59 -74 -75 -106 -107 -120 -121 -133 -134 -168 -169 -177 -178 0
-21 -40 -41 -58 -59 -74 -76 -106 -107 -120 -121 -133 -134 -168 -169 -177 -178 0
-21 -40 -41 -58 -59 -75 -76 -106 -108 -120 -121 -133 -134 -168 -169 -177 -178 0
-21 -40 -41 -58 -59 -75 -76 -107 -108 -120 -122 -133 -134 -168 -169 -177 -178 0
-21 -40 -41 -58 -59 -75 -76 -107 -108 -121 -122 -133 -135 -168 -169 -177 -178 0
-21 -40 -41 -58 -59 -75 -76 -107 -108 -121 -122 -134 -135 -168 -170 -177 -178 0
-21 -40 -41 -58 -59 -75 -76 -107 -108 -121 -122 -134 -135 -169 -170 -177 -179 0
-21 -40 -41 -58 -59 -75 -76 -107 -108 -121 -122 -134 -135 -169 -170 -178 -179 0
-21 -40 -41 -58 -59 -75 -76 -107 -108 -121 -122 -134 -135 -169 -170 -187 -188 0
-21 -40 -41 -58 -59 -75 -76 -107 -108 -121 -122 -134 -135 -179 -180 -187 -188 0
-19 -38 -39 -56 -57 -73 -74 -105 -106 -119 -120 -145 -146 -156 -157 -166 -167 0
-20 -38 -40 -56 -57 -73 -74 -105 -106 -119 -120 -145 -146 -156 -157 -166 -167 0
-21 -38 -41 -56 -57 -73 -74 -105 -106 -119 -120 -145 -146 -156 -157 -166 -167 0
-20 -39 -40 -56 -58 -73 -74 -105 -106 -119 -120 -145 -146 -156 -157 -166 -167 0
-21 -39 -41 -56 -58 -73 -74 -105 -106 -119 -120 -145 -146 -156 -157 -166 -167 0
-21 -40 -41 -56 -59 -73 -74 -105 -106 -119 -120 -145 -146 -156 -157 -166 -167 0
-20 -39 -40 -57 -58 -73 -75 -105 -106 -119 -120 -145 -146 -156 -157 -166 -167 0
-21 -39 -41 -57 -58 -73 -75 -105 -106 -119 -120 -145 -146 -156 -157 -166 -167 0
-21 -40 -41 -57 -59 -73 -75 -105 -106 -119 -120 -145 -146 -156 -157 -166 -167 0
-21 -40 -41 -58 -59 -73 -76 -105 -106 -119 -120 -145 -146 -156 -157 -166 -167 0
-20 -39 -40 -57 -58 -74 -75 -105 -107 -119 -120 -145 -146 -156 -157 -166 -167 0
-21 -39 -41 -57 -58 -74 -75 -105 -107 -119 -120 -145 -146 -156 -157 -166 -167 0
-21 -40 -41 -57 -59 -74 -75 -105 -107 -119 -120 -145 -146 -156 -157 -166 -167 0
-21 -40 -41 -58 -59 -74 -76 -105 -107 -119 -120 -145 -146 -156 -157 -166 -167 0
-21 -40 -41 -58 -59 -75 -76 -105 -108 -119 -120 -145 -146 -156 -157 -166 -167 0
-20 -39 -40 -57 -58 -74 -75 -106 -107 -119 -121 -145 -146 -156 -157 -166 -167 0
-21 -39 -41 -57 -58 -74 -75 -106 -107 -119 -121 -145 -146 -156 -157 -166 -167 0
-21 -40 -41 -57 -59 -74 -75 -106 -107 -119 -121 -145 -146 -156 -157 -166 -167 0
-21 -40 -41 -58 -59 -74 -76 -106 -107 -119 -121 -145 -146 -156 -157 -166 -167 0
-21 -40 -41 -58 -59 -75 -76 -106 -108 -119 -121 -145 -146 -156 -157 -166 -167 0
-21 -40 -41 -58 -59 -75 -76 -107 -108 -119 -122 -145 -146 -156 -157 -166 -167 0
-20 -39 -40 -57 -58 -74 -75 -106 -107 -120 -121 -145 -147 -156 -157 -166 -167 0
-21 -39 -41 -57 -58 -74 -75 -106 -107 -120 -121 -145 -147 -156 -157 -166 -167 0
-21 -40 -41 -57 -59 -74 -75 -106 -107 -120 -121 -145 -147 -156 -157 -166 -167 0
-21 -40 -41 -58 -59 -74 -76 -106 -107 -120 -121 -145 -147 -156 -157 -166 -167 0
-21 -40 -41 -58 -59 -75 -76 -106 -108 -120 -121 -145 -147 -156 -157 -166 -167 0
-21 -40 -41 -58 -59 -75 -76 -107 -108 -120 -122 -145 -147 -156 -157 -166 -167 0
-21 -40 -41 -58 -59 -75 -76 -107 -108 -121 -122 -145 -148 -156 -157 -166 -167 0
-20 -39 -40 -57 -58 -74 -75 -106 -107 -120 -121 -146 -147 -156 -158 -166 -167 0
-21 -39 -41 -57 -58 -74 -75 -106 -107 -120 -121 -146 -147 -156 -158 -166 -167 0
-21 -40 -41 -57 -59 -74 -75 -106 -107 -120 -121 -146 -147 -156 -158 -166 -167 0
-21 -40 -41 -58 -59 -74 -76 -106 -107 -120 -121 -146 -147 -156 -158 -166 -167 0
-21 -40 -41 -58 -59 -75 -76 -106 -108 -120 -121 -146 -147 -156 -158 -166 -167 0
-21 -40 -41 -58 -59 -75 -76 -107 -108 -120 -122 -146 -147 -156 -158 -166 -167 0
-21 -40 -41 -58 -59 -75 -76 -107 -108 -121 -122 -146 -148 -156 -158 -166 -167 0
-21 -40 -41 -58 -59 -75 -76 -107 -108 -121 -122 -147 -148 -156 -159 -166 -167 0
-20 -39 -40 -57 -58 -74 -75 -106 -107 -120 -121 -146 -147 -157 -158 -166 -168 0
-21 -39 -41 -57 -58 -74 -75 -106 -107 -120 -121 -146 -147 -157 -158 -166 -168 0
-21 -40 -41 -57 -59 -74 -75 -106 -107 -120 -121 -146 -147 -157 -158 -166 -168 0
-21 -40 -41 -58 -59 -74 -76 -106 -107 -120 -121 -146 -147 -157 -158 -166 -168 0
-21 -40 -41 -58 -59 -75 -76 -106 -108 -120 -121 -146 -147 -157 -158 -166 -168 0
-21 -40 -41 -58 -59 -75 -76 -107 -108 -120 -122 -146 -147 -157 -158 -166 -168 0
-21 -40 -41 -58 -59 -75 -76 -107 -108 -121 -122 -146 -148 -157 -158 -166 -168 0
-21 -40 -41 -58 -59 -75 -76 -107 -108 -121 -122 -147 -148 -157 -159 -166 -168 0
-21 -40 -41 -58 -59 -75 -76 -107 -108 -121 -122 -147 -148 -158 -159 -166 -169 0
-20 -39 -40 -57 -58 -74 -75 -106 -107 -120 -121 -146 -147 -157 -158 -167 -168 0
-21 -39 -41 -57 -58 -74 -75 -106 -107 -120 -121 -146 -147 -157 -158 -167 -168 0
-21 -40 -41 -57 -59 -74 -75 -106 -107 -120 -121 -146 -147 -157 -158 -167 -168 0
-21 -40 -41 -58 -59 -74 -76 -106 -107 -120 -121 -146 -147 -157 -158 -167 -168 0
-21 -40 -41 -58 -59 -75 -76 -106 -108 -120 -121 -146 -147 -157 -158 -167 -168 0
-21 -40 -41 -58 -59 -75 -76 -107 -108 -120 -122 -146 -147 -157 -158 -167 -168 0
-21 -40 -41 -58 -59 -75 -76 -107 -108 -121 -122 -146 -148 -157 -158 -167 -168 0
-21 -40 -41 -58 -59 -75 -76 -107 -108 -121 -122 -147 -148 -157 -159 -167 -168 0
-21 -40 -41 -58 -59 -75 -76 -107 -108 -121 -122 -147 -148 -158 -159 -167 -169 0
-21 -40 -41 -58 -59 -75 -76 -107 -108 -121 -122 -147 -148 -158 -159 -168 -169 0
-20 -39 -40 -57 -58 -74 -75 -106 -107 -120 -121 -146 -147 -157 -158 -177 -178 0
-21 -39 -41 -57 -58 -74 -75 -106 -107 -120 -121 -146 -147 -157 -158 -177 -178 0
-21 -40 -41 -57 -59 -74 -75 -106 -107 -120 -121 -146 -147 -157 -158 -177 -178 0
-21 -40 -41 -58 -59 -74 -76 -106 -107 -120 -121 -146 -147 -157 -158 -177 -178 0
-21 -40 -41 -58 -59 -75 -76 -106 -108 -120 -121 -146 -147 -157 -158 -177 -178 0
-21 -40 -41 -58 -59 -75 -76 -107 -108 -120 -122 -146 -147 -157 -158 -177 -178 0
-21 -40 -41 -58 -59 -75 -76 -107 -108 -121 -122 -146 -148 -157 -158 -177 -178 0
-21 -40 -41 -58 -59 -75 -76 -107 -108 -121 -122 -147 -148 -157 -159 -177 -178 0
-21 -40 -41 -58 -59 -75 -76 -107 -108 -121 -122 -147 -148 -158 -159 -177 -179 0
-21 -40 -41 -58 -59 -75 -76 -107 -108 -121 -122 -147 -148 -158 -159 -178 -179 0
-21 -40 -41 -58 -59 -75 -76 -107 -108 -121 -122 -147 -148 -158 -159 -187 -188 0
-20 -39 -40 -57 -58 -74 -75 -106 -107 -120 -121 -146 -147 -168 -169 -177 -178 0
-21 -39 -41 -57 -58 -74 -75 -106 -107 -120 -121 -146 -147 -168 -169 -177 -178 0
-21 -40 -41 -57 -59 -74 -75 -106 -107 -120 -121 -146 -147 -168 -169 -177 -178 0
-21 -40 -41 -58 -59 -74 -76 -106 -107 -120 -121 -146 -147 -168 -169 -177 -178 0
-21 -40 -41 -58 -59 -75 -76 -106 -108 -120 -121 -146 -147 -168 -169 -177 -178 0
-21 -40 -41 -58 -59 -75 -76 -107 -108 -120 -122 -146 -147 -168 -169 -177 -178 0
-21 -40 -41 -58 -59 -75 -76 -107 -108 -121 -122 -146 -148 -168 -169 -177 -178 0
-21 -40 -41 -58 -59 -75 -76 -107 -108 -121 -122 -147 -148 -168 -170 -177 -178 0
-21 -40 -41 -58 -59 -75 -76 -107 -108 -121 -122 -147 -148 -169 -170 -177 -179 0
-21 -40 -41 -58 -59 -75 -76 -107 -108 -121 -122 -147 -148 -169 -170 -178 -179 0
-21 -40 -41 -58 -59 -75 -76 -107 -108 -121 -122 -147 -148 -169 -170 -187 -188 0
-21 -40 -41 -58 -59 -75 -76 -107 -108 -121 -122 -147 -148 -179 -180 -187 -188 0
-20 -39 -40 -57 -58 -74 -75 -106 -107 -120 -121 -158 -159 -168 -169 -177 -178 0
-21 -39 -41 -57 -58 -74 -75 -106 -107 -120 -121 -158 -159 -168 -169 -177 -178 0
-21 -40 -41 -57 -59 -74 -75 -106 -107 -120 -121 -158 -159 -168 -169 -177 -178 0
-21 -40 -41 -58 -59 -74 -76 -106 -107 -120 -121 -158 -159 -168 -169 -177 -178 0
-21 -40 -41 -58 -59 -75 -76 -106 -108 -120 -121 -158 -159 -168 -169 -177 -178 0
-21 -40 -41 -58 -59 -75 -76 -107 -108 -120 -122 -158 -159 -168 -169 -177 -178 0
-21 -40 -41 -58 -59 -75 -76 -107 -108 -121 -122 -158 -160 -168 -169 -177 -178 0
-21 -40 -41 -58 -59 -75 -76 -107 -108 -121 -122 -159 -160 -168 -170 -177 -178 0
-21 -40 -41 -58 -59 -75 -76 -107 -108 -121 -122 -159 -160 -169 -170 -177 -179 0
-21 -40 -41 -58 -59 -75 -76 -107 -108 -121 -122 -159 -160 -169 -170 -178 -179 0
-21 -40 -41 -58 -59 -75 -76 -107 -108 -121 -122 -159 -160 -169 -170 -187 -188 0
-21 -40 -41 -58 -59 -75 -76 -107 -108 -121 -122 -159 -160 -179 -180 -187 -188 0
-21 -40 -41 -58 -59 -75 -76 -107 -108 -121 -122 -170 -171 -179 -180 -187 -188 0
-19 -38 -39 -56 -57 -73 -74 -105 -106 -133 -134 -145 -146 -156 -157 -166 -167 0
-20 -38 -40 -56 -57 -73 -74 -105 -106 -133 -134 -145 -146 -156 -157 -166 -167 0
-21 -38 -41 -56 -57 -73 -74 -105 -106 -133 -134 -145 -146 -156 -157 -166 -167 0
-20 -39 -40 -56 -58 -73 -74 -105 -106 -133 -134 -145 -146 -156 -157 -166 -167 0
-21 -39 -41 -56 -58 -73 -74 -105 -106 -133 -134 -145 -146 -156 -157 -166 -167 0
-21 -40 -41 -56 -59 -73 -74 -105 -106 -133 -134 -145 -146 -156 -157 -166 -167 0
-20 -39 -40 -57 -58 -73 -75 -105 -106 -133 -134 -145 -146 -156 -157 -166 -167 0
-21 -39 -41 -57 -58 -73 -75 -105 -106 -133 -134 -145 -146 -156 -157 -166 -167 0
-21 -40 -41 -57 -59 -73 -75 -105 -106 -133 -134 -145 -146 -156 -157 -166 -167 0
-21 -40 -41 -58 -59 -73 -76 -105 -106 -133 -134 -145 -146 -156 -157 -166 -167 0
-20 -39 -40 -57 -58 -74 -75 -105 -107 -133 -134 -145 -146 -156 -157 -166 -167 0
-21 -39 -41 -57 -58 -74 -75 -105 -107 -133 -134 -145 -146 -156 -157 -166 -167 0
-21 -40 -41 -57 -59 -74 -75 -105 -107 -133 -134 -145 -146 -156 -157 -166 -167 0
-21 -40 -41 -58 -59 -74 -76 -105 -107 -133 -134 -145 -146 -156 -157 -166 -167 0
-21 -40 -41 -58 -59 -75 -76 -105 -108 -133 -134 -145 -146 -156 -157 -166 -167 0
-20 -39 -40 -57 -58 -74 -75 -106 -107 -133 -135 -145 -146 -156 -157 -166 -167 0
-21 -39 -41 -57 -58 -74 -75 -106 -107 -133 -135 -145 -146 -156 -157 -166 -167 0
-21 -40 -41 -57 -59 -74 -75 -106 -107 -133 -135 -145 -146 -156 -157 -166 -167 0
-21 -40 -41 -58 -59 -74 -76 -106 -107 -133 -135 -145 -146 -156 -157 -166 -167 0
-21 -40 -41 -58 -59 -75 -76 -106 -108 -133 -135 -145 -146 -156 -157 -166 -167 0
-21 -40 -41 -58 -59 -75 -76 -107 -108 -133 -136 -145 -146 -156 -157 -166 -167 0
-20 -39 -40 -57 -58 -74 -75 -106 -107 -134 -135 -145 -147 -156 -157 -166 -167 0
-21 -39 -41 -57 -58 -74 -75 -106 -107 -134 -135 -145 -147 -156 -157 -166 -167 0
-21 -40 -41 -57 -59 -74 -75 -106 -107 -134 -135 -145 -147 -156 -157 -166 -167 0
-21 -40 -41 -58 -59 -74 -76 -106 -107 -134 -135 -145 -147 -156 -157 -166 -167 0
-21 -40 -41 -58 -59 -75 -76 -106 -108 -134 -135 -145 -147 -156 -157 -166 -167 0
-21 -40 -41 -58 -59 -75 -76 -107 -108 -134 -136 -145 -147 -156 -157 -166 -167 0
-21 -40 -41 -58 -59 -75 -76 -107 -108 -135 -136 -145 -148 -156 -157 -166 -167 0
-20 -39 -40 -57 -58 -74 -75 -106 -107 -134 -135 -146 -147 -156 -158 -166 -167 0
-21 -39 -41 -57 -58 -74 -75 -106 -107 -134 -135 -146 -147 -156 -158 -166 -167 0
-21 -40 -41 -57 -59 -74 -75 -106 -107 -134 -135 -146 -147 -156 -158 -166 -167 0
-21 -40 -41 -58 -59 -74 -76 -106 -107 -134 -135 -146 -147 -156 -158 -166 -167 0
-21 -40 -41 -58 -59 -75 -76 -106 -108 -134 -135 -146 -147 -156 -158 -166 -167 0
-21 -40 -41 -58 -59 -75 -76 -107 -108 -134 -136 -146 -147 -156 -158 -166 -167 0
-21 -40 -41 -58 -59 -75 -76 -107 -108 -135 -136 -146 -148 -156 -158 -166 -167 0
-21 -40 -41 -58 -59 -75 -76 -107 -108 -135 -136 -147 -148 -156 -159 -166 -167 0
-20 -39 -40 -57 -58 -74 -75 -106 -107 -134 -135 -146 -147 -157 -158 -166 -168 0
-21 -39 -41 -57 -58 -74 -75 -106 -107 -134 -135 -146 -147 -157 -158 -166 -168 0
-21 -40 -41 -57 -59 -74 -75 -106 -107 -134 -135 -146 -147 -157 -158 -166 -168 0
-21 -40 -41 -58 -59 -74 -76 -106 -107 -134 -135 -146 -147 -157 -158 -166 -168 0
-21 -40 -41 -58 -59 -75 -76 -106 -108 -134 -135 -146 -147 -157 -158 -166 -168 0
-21 -40 -41 -58 -59 -75 -76 -107 -108 -134 -136 -146 -147 -157 -158 -166 -168 0
-21 -40 -41 -58 -59 -75 -76 -107 -108 -135 -136 -146 -148 -157 -158 -166 -168 0
-21 -40 -41 -58 -59 -75 -76 -107 -108 -135 -136 -147 -148 -157 -159 -166 -168 0
-21 -40 -41 -58 -59 -75 -76 -107 -108 -135 -136 -147 -148 -158 -159 -166 -169 0
-20 -39 -40 -57 -58 -74 -75 -106 -107 -134 -135 -146 -147 -157 -158 -167 -168 0
-21 -39 -41 -57 -58 -74 -75 -106 -107 -134 -135 -146 -147 -157 -158 -167 -168 0
-21 -40 -41 -57 -59 -74 -75 -106 -107 -134 -135 -146 -147 -157 -158 -167 -168 0
-21 -40 -41 -58 -59 -74 -76 -106 -107 -134 -135 -146 -147 -157 -158 -167 -168 0
-21 -40 -41 -58 -59 -75 -76 -106 -108 -134 -135 -146 -147 -157 -158 -167 -168 0
-21 -40 -41 -58 -59 -75 -76 -107 -108 -134 -136 -146 -147 -157 -158 -167 -168 0
-21 -40 -41 -58 -59 -75 -76 -107 -108 -135 -136 -146 -148 -157 -158 -167 -168 0
-21 -40 -41 -58 -59 -75 -76 -107 -108 -135 -136 -147 -148 -157 -159 -167 -168 0
-21 -40 -41 -58 -59 -75 -76 -107 -108 -135 -136 -147 -148 -158 -159 -167 -169 0
-21 -40 -41 -58 -59 -75 -76 -107 -108 -135 -136 -147 -148 -158 -159 -168 -169 0
-20 -39 -40 -57 -58 -74 -75 -106 -107 -134 -135 -146 -147 -157 -158 -177 -178 0
-21 -39 -41 -57 -58 -74 -75 -106 -107 -134 -135 -146 -147 -157 -158 -177 -178 0
-21 -40 -41 -57 -59 -74 -75 -106 -107 -134 -135 -146 -147 -157 -158 -177 -178 0
-21 -40 -41 -58 -59 -74 -76 -106 -107 -134 -135 -146 -147 -157 -158 -177 -178 0
-21 -40 -41 -58 -59 -75 -76 -106 -108 -134 -135 -146 -147 -157 -158 -177 -178 0
-21 -40 -41 -58 -59 -75 -76 -107 -108 -134 -136 -146 -147 -157 -158 -177 -178 0
-21 -40 -41 -58 -59 -75 -76 -107 -108 -135 -136 -146 -148 -157 -158 -177 -178 0
-21 -40 -41 -58 -59 -75 -76 -107 -108 -135 -136 -147 -148 -157 -159 -177 -178 0
-21 -40 -41 -58 -59 -75 -76 -107 -108 -135 -136 -147 -148 -158 -159 -177 -179 0
-21 -40 -41 -58 -59 -75 -76 -107 -108 -135 -136 -147 -148 -158 -159 -178 -179 0
-21 -40 -41 -58 -59 -75 -76 -107 -108 -135 -136 -147 -148 -158 -159 -187 -188 0
-20 -39 -40 -57 -58 -74 -75 -106 -107 -134 -135 -146 -147 -168 -169 -177 -178 0
-21 -39 -41 -57 -58 -74 -75 -106 -107 -134 -135 -146 -147 -168 -169 -177 -178 0
-21 -40 -41 -57 -59 -74 -75 -106 -107 -134 -135 -146 -147 -168 -169 -177 -178 0
-21 -40 -41 -58 -59 -74 -76 -106 -107 -134 -135 -146 -147 -168 -169 -177 -178 0
-21 -40 -41 -58 -59 -75 -76 -106 -108 -134 -135 -146 -147 -168 -169 -177 -178 0
-21 -40 -41 -58 -59 -75 -76 -107 -108 -134 -136 -146 -147 -168 -169 -177 -178 0
-21 -40 -41 -58 -59 -75 -76 -107 -108 -135 -136 -146 -148 -168 -169 -177 -178 0
-21 -40 -41 -58 -59 -75 -76 -107 -108 -135 -136 -147 -148 -168 -170 -177 -178 0
-21 -40 -41 -58 -59 -75 -76 -107 -108 -135 -136 -147 -148 -169 -170 -177 -179 0
-21 -40 -41 -58 -59 -75 -76 -107 -108 -135 -136 -147 -148 -169 -170 -178 -179 0
-21 -40 -41 -58 -59 -75 -76 -107 -108 -135 -136 -147 -148 -169 -170 -187 -188 0
-21 -40 -41 -58 -59 -75 -76 -107 -108 -135 -136 -147 -148 -179 -180 -187 -188 0
-20 -39 -40 -57 -58 -74 -75 -106 -107 -134 -135 -158 -159 -168 -169 -177 -178 0
-21 -39 -41 -57 -58 -74 -75 -106 -107 -134 -135 -158 -159 -168 -169 -177 -178 0
-21 -40 -41 -57 -59 -74 -75 -106 -107 -134 -135 -158 -159 -168 -169 -177 -178 0
-21 -40 -41 -58 -59 -74 -76 -106 -107 -134 -135 -158 -159 -168 -169 -177 -178 0
-21 -40 -41 -58 -59 -75 -76 -106 -108 -134 -135 -158 -159 -168 -169 -177 -178 0
-21 -40 -41 -58 -59 -75 -76 -107 -108 -134 -136 -158 -159 -168 -169 -177 -178 0
-21 -40 -41 -58 -59 -75 -76 -107 -108 -135 -136 -158 -160 -168 -169 -177 -178 0
-21 -40 -41 -58 -59 -75 -76 -107 -108 -135 -136 -159 -160 -168 -170 -177 -178 0
-21 -40 -41 -58 -59 -75 -76 -107 -108 -135 -136 -159 -160 -169 -170 -177 -179 0
-21 -40 -41 -58 -59 -75 -76 -107 -108 -135 -136 -159 -160 -169 -170 -178 -179 0
-21 -40 -41 -58 -59 -75 -76 -107 -108 -135 -136 -159 -160 -169 -170 -187 -188 0
-21 -40 -41 -58 -59 -75 -76 -107 -108 -135 -136 -159 -160 -179 -180 -187 -188 0
-21 -40 -41 -58 -59 -75 -76 -107 -108 -135 -136 -170 -171 -179 -180 -187 -188 0
-20 -39 -40 -57 -58 -74 -75 -106 -107 -147 -148 -158 -159 -168 -169 -177 -178 0
-21 -39 -41 -57 -58 -74 -75 -106 -107 -147 -148 -158 -159 -168 -169 -177 -178 0
-21 -40 -41 -57 -59 -74 -75 -106 -107 -147 -148 -158 -159 -168 -169 -177 -178 0
-21 -40 -41 -58 -59 -74 -76 -106 -107 -147 -148 -158 -159 -168 -169 -177 -178 0
-21 -40 -41 -58 -59 -75 -76 -106 -108 -147 -148 -158 -159 -168 -169 -177 -178 0
-21 -40 -41 -58 -59 -75 -76 -107 -108 -147 -149 -158 -159 -168 -169 -177 -178 0
-21 -40 -41 -58 -59 -75 -76 -107 -108 -148 -149 -158 -160 -168 -169 -177 -178 0
-21 -40 -41 -58 -59 -75 -76 -107 -108 -148 -149 -159 -160 -168 -170 -177 -178 0
-21 -40 -41 -58 -59 -75 -76 -107 -108 -148 -149 -159 -160 -169 -170 -177 -179 0
-21 -40 -41 -58 -59 -75 -76 -107 -108 -148 -149 -159 -160 -169 -170 -178 -179 0
-21 -40 -41 -58 -59 -75 -76 -107 -108 -148 -149 -159 -160 -169 -170 -187 -188 0
-21 -40 -41 -58 -59 -75 -76 -107 -108 -148 -149 -159 -160 -179 -180 -187 -188 0
-21 -40 -41 -58 -59 -75 -76 -107 -108 -148 -149 -170 -171 -179 -180 -187 -188 0
-21 -40 -41 -58 -59 -75 -76 -107 -108 -160 -161 -170 -171 -179 -180 -187 -188 0
-19 -38 -39 -56 -57 -73 -74 -120 -121 -133 -134 -145 -146 -156 -157 -166 -167 0
-20 -38 -40 -56 -57 -73 -74 -120 -121 -133 -134 -145 -146 -156 -157 -166 -167 0
-21 -38 -41 -56 -57 -73 -74 -120 -121 -133 -134 -145 -146 -156 -157 -166 -167 0
-20 -39 -40 -56 -58 -73 -74 -120 -121 -133 -134 -145 -146 -156 -157 -166 -167 0
-21 -39 -41 -56 -58 -73 -74 -120 -121 -133 -134 -145 -146 -156 -157 -166 -167 0
-21 -40 -41 -56 -59 -73 -74 -120 -121 -133 -134 -145 -146 -156 -157 -166 -167 0
-20 -39 -40 -57 -58 -73 -75 -120 -121 -133 -134 -145 -146 -156 -157 -166 -167 0
-21 -39 -41 -57 -58 -73 -75 -120 -121 -133 -134 -145 -146 -156 -157 -166 -167 0
-21 -40 -41 -57 -59 -73 -75 -120 -121 -133 -134 -145 -146 -156 -157 -166 -167 0
-21 -40 -41 -58 -59 -73 -76 -120 -121 -133 -134 -145 -146 -156 -157 -166 -167 0
-20 -39 -40 -57 -58 -74 -75 -120 -122 -133 -134 -145 -146 -156 -157 -166 -167 0
-21 -39 -41 -57 -58 -74 -75 -120 -122 -133 -134 -145 -146 -156 -157 -166 -167 0
-21 -40 -41 -57 -59 -74 -75 -120 -122 -133 -134 -145 -146 -156 -157 -166 -167 0
-21 -40 -41 -58 -59 -74 -76 -120 -122 -133 -134 -145 -146 -156 -157 -166 -167 0
-21 -40 -41 -58 -59 -75 -76 -120 -123 -133 -134 -145 -146 -156 -157 -166 -167 0
-20 -39 -40 -57 -58 -74 -75 -121 -122 -133 -135 -145 -146 -156 -157 -166 -167 0
-21 -39 -41 -57 -58 -74 -75 -121 -122 -133 -135 -145 -146 -156 -157 -166 -167 0
-21 -40 -41 -57 -59 -74 -75 -121 -122 -133 -135 -145 -146 -156 -157 -166 -167 0
-21 -40 -41 -58 -59 -74 -76 -121 -122 -133 -135 -145 -146 -156 -157 -166 -167 0
-21 -40 -41 -58 -59 -75 -76 -121 -123 -133 -135 -145 -146 -156 -157 -166 -167 0
-21 -40 -41 -58 -59 -75 -76 -122 -123 -133 -136 -145 -146 -156 -157 -166 -167 0
-20 -39 -40 -57 -58 -74 -75 -121 -122 -134 -135 -145 -147 -156 -157 -166 -167 0
-21 -39 -41 -57 -58 -74 -75 -121 -122 -134 -135 -145 -147 -156 -157 -166 -167 0
-21 -40 -41 -57 -59 -74 -75 -121 -122 -134 -135 -145 -147 -156 -157 -166 -167 0
-21 -40 -41 -58 -59 -74 -76 -121 -122 -134 -135 -145 -147 -156 -157 -166 -167 0
-21 -40 -41 -58 -59 -75 -76 -121 -123 -134 -135 -145 -147 -156 -157 -166 -167 0
-21 -40 -41 -58 -59 -75 -76 -122 -123 -134 -136 -145 -147 -156 -157 -166 -167 0
-21 -40 -41 -58 -59 -75 -76 -122 -123 -135 -136 -145 -148 -156 -157 -166 -167 0
-20 -39 -40 -57 -58 -74 -75 -121 -122 -134 -135 -146 -147 -156 -158 -166 -167 0
-21 -39 -41 -57 -58 -74 -75 -121 -122 -134 -135 -146 -147 -156 -158 -166 -167 0
-21 -40 -41 -57 -59 -74 -75 -121 -122 -134 -135 -146 -147 -156 -158 -166 -167 0
-21 -40 -41 -58 -59 -74 -76 -121 -122 -134 -135 -146 -147 -156 -158 -166 -167 0
-21 -40 -41 -58 -59 -75 -76 -121 -123 -134 -135 -146 -147 -156 -158 -166 -167 0
-21 -40 -41 -58 -59 -75 -76 -122 -123 -134 -136 -146 -147 -156 -158 -166 -167 0
-21 -40 -41 -58 -59 -75 -76 -122 -123 -135 -136 -146 -148 -156 -158 -166 -167 0
-21 -40 -41 -58 -59 -75 -76 -122 -123 -135 -136 -147 -148 -156 -159 -166 -167 0
-20 -39 -40 -57 -58 -74 -75 -121 -122 -134 -135 -146 -147 -157 -158 -166 -168 0
-21 -39 -41 -57 -58 -74 -75 -121 -122 -134 -135 -146 -147 -157 -158 -166 -168 0
-21 -40 -41 -57 -59 -74 -75 -121 -122 -134 -135 -146 -147 -157 -158 -166 -168 0
-21 -40 -41 -58 -59 -74 -76 -121 -122 -134 -135 -146 -147 -157 -158 -166 -168 0
-21 -40 -41 -58 -59 -75 -76 -121 -123 -134 -135 -146 -147 -157 -158 -166 -168 0
-21 -40 -41 -58 -59 -75 -76 -122 -123 -134 -136 -146 -147 -157 -158 -166 -168 0
-21 -40 -41 -58 -59 -75 -76 -122 -123 -135 -136 -146 -148 -157 -158 -166 -168 0
-21 -40 -41 -58 -59 -75 -76 -122 -123 -135 -136 -147 -148 -157 -159 -166 -168 0
-21 -40 -41 -58 -59 -75 -76 -122 -123 -135 -136 -147 -148 -158 -159 -166 -169 0
-20 -39 -40 -57 -58 -74 -75 -121 -122 -134 -135 -146 -147 -157 -158 -167 -168 0
-21 -39 -41 -57 -58 -74 -75 -121 -122 -134 -135 -146 -147 -157 -158 -167 -168 0
-21 -40 -41 -57 -59 -74 -75 -121 -122 -134 -135 -146 -147 -157 -158 -167 -168 0
-21 -40 -41 -58 -59 -74 -76 -121 -122 -134 -135 -146 -147 -157 -158 -167 -168 0
-21 -40 -41 -58 -59 -75 -76 -121 -123 -134 -135 -146 -147 -157 -158 -167 -168 0
-21 -40 -41 -58 -59 -75 -76 -122 -123 -134 -136 -146 -147 -157 -158 -167 -168 0
-21 -40 -41 -58 -59 -75 -76 -122 -123 -135 -136 -146 -148 -157 -158 -167 -168 0
-21 -40 -41 -58 -59 -75 -76 -122 -123 -135 -136 -147 -148 -157 -159 -167 -168 0
-21 -40 -41 -58 -59 -75 -76 -122 -123 -135 -136 -147 -148 -158 -159 -167 -169 0
-21 -40 -41 -58 -59 -75 -76 -122 -123 -135 -136 -147 -148 -158 -159 -168 -169 0
-20 -39 -40 -57 -58 -74 -75 -121 -122 -134 -135 -146 -147 -157 -158 -177 -178 0
-21 -39 -41 -57 -58 -74 -75 -121 -122 -134 -135 -146 -147 -157 -158 -177 -178 0
-21 -40 -41 -57 -59 -74 -75 -121 -122 -134 -135 -146 -147 -157 -158 -177 -178 0
-21 -40 -41 -58 -59 -74 -76 -121 -122 -134 -135 -146 -147 -157 -158 -177 -178 0
-21 -40 -41 -58 -59 -75 -76 -121 -123 -134 -135 -146 -147 -157 -158 -177 -178 0
-21 -40 -41 -58 -59 -75 -76 -122 -123 -134 -136 -146 -147 -157 -158 -177 -178 0
-21 -40 -41 -58 -59 -75 -76 -122 -123 -135 -136 -146 -148 -157 -158 -177 -178 0
-21 -40 -41 -58 -59 -75 -76 -122 -123 -135 -136 -147 -148 -157 -159 -177 -178 0
-21 -40 -41 -58 -59 -75 -76 -122 -123 -135 -136 -147 -148 -158 -159 -177 -179 0
-21 -40 -41 -58 -59 -75 -76 -122 -123 -135 -136 -147 -148 -158 -159 -178 -179 0
-21 -40 -41 -58 -59 -75 -76 -122 -123 -135 -136 -147 -148 -158 -159 -187 -188 0
-20 -39 -40 -57 -58 -74 -75 -121 -122 -134 -135 -146 -147 -168 -169 -177 -178 0
-21 -39 -41 -57 -58 -74 -75 -121 -122 -134 -135 -146 -147 -168 -169 -177 -178 0
-21 -40 -41 -57 -59 -74 -75 -121 -122 -134 -135 -146 -147 -168 -169 -177 -178 0
-21 -40 -41 -58 -59 -74 -76 -121 -122 -134 -135 -146 -147 -168 -169 -177 -178 0
-21 -40 -41 -58 -59 -75 -76 -121 -123 -134 -135 -146 -147 -168 -169 -177 -178 0
-21 -40 -41 -58 -59 -75 -76 -122 -123 -134 -136 -146 -147 -168 -169 -177 -178 0
-21 -40 -41 -58 -59 -75 -76 -122 -123 -135 -136 -146 -148 -168 -169 -177 -178 0
-21 -40 -41 -58 -59 -75 -76 -122 -123 -135 -136 -147 -148 -168 -170 -177 -178 0
-21 -40 -41 -58 -59 -75 -76 -122 -123 -135 -136 -147 -148 -169 -170 -177 -179 0
-21 -40 -41 -58 -59 -75 -76 -122 -123 -135 -136 -147 -148 -169 -170 -178 -179 0
-21 -40 -41 -58 -59 -75 -76 -122 -123 -135 -136 -147 -148 -169 -170 -187 -188 0
-21 -40 -41 -58 -59 -75 -76 -122 -123 -135 -136 -147 -148 -179 -180 -187 -188 0
-20 -39 -40 -57 -58 -74 -75 -121 -122 -134 -135 -158 -159 -168 -169 -177 -178 0
-21 -39 -41 -57 -58 -74 -75 -121 -122 -134 -135 -158 -159 -168 -169 -177 -178 0
-21 -40 -41 -57 -59 -74 -75 -121 -122 -134 -135 -158 -159 -168 -169 -177 -178 0
-21 -40 -41 -58 -59 -74 -76 -121 -122 -134 -135 -158 -159 -168 -169 -177 -178 0
-21 -40 -41 -58 -59 -75 -76 -121 -123 -134 -135 -158 -159 -168 -169 -177 -178 0
-21 -40 -41 -58 -59 -75 -76 -122 -123 -134 -136 -158 -159 -168 -169 -177 -178 0
-21 -40 -41 -58 -59 -75 -76 -122 -123 -135 -136 -158 -160 -168 -169 -177 -178 0
-21 -40 -41 -58 -59 -75 -76 -122 -123 -135 -136 -159 -160 -168 -170 -177 -178 0
-21 -40 -41 -58 -59 -75 -76 -122 -123 -135 -136 -159 -160 -169 -170 -177 -179 0
-21 -40 -41 -58 -59 -75 -76 -122 -123 -135 -136 -159 -160 -169 -170 -178 -179 0
-21 -40 -41 -58 -59 -75 -76 -122 -123 -135 -136 -159 -160 -169 -170 -187 -188 0
-21 -40 -41 -58 -59 -75 -76 -122 -123 -135 -136 -159 -160 -179 -180 -187 -188 0
-21 -40 -41 -58 -59 -75 -76 -122 -123 -135 -136 -170 -171 -179 -180 -187 -188 0
-20 -39 -40 -57 -58 -74 -75 -121 -122 -147 -148 -158 -159 -168 -169 -177 -178 0
-21 -39 -41 -57 -58 -74 -75 -121 -122 -147 -148 -158 -159 -168 -169 -177 -178 0
-21 -40 -41 -57 -59 -74 -75 -121 -122 -147 -148 -158 -159 -168 -169 -177 -178 0
-21 -40 -41 -58 -59 -74 -76 -121 -122 -147 -148 -158 -159 -168 -169 -177 -178 0
-21 -40 -41 -58 -59 -75 -76 -121 -123 -147 -148 -158 -159 -168 -169 -177 -178 0
-21 -40 -41 -58 -59 -75 -76 -122 -123 -147 -149 -158 -159 -168 -169 -177 -178 0
-21 -40 -41 -58 -59 -75 -76 -122 -123 -148 -149 -158 -160 -168 -169 -177 -178 0
-21 -40 -41 -58 -59 -75 -76 -122 -123 -148 -149 -159 -160 -168 -170 -177 -178 0
-21 -40 -41 -58 -59 -75 -76 -122 -123 -148 -149 -159 -160 -169 -170 -177 -179 0
-21 -40 -41 -58 -59 -75 -76 -122 -123 -148 -149 -159 -160 -169 -170 -178 -179 0
-21 -40 -41 -58 -59 -75 -76 -122 -123 -148 -149 -159 -160 -169 -170 -187 -188 0
-21 -40 -41 -58 -59 -75 -76 -122 -123 -148 -149 -159 -160 -179 -180 -187 -188 0
-21 -40 -41 -58 -59 -75 -76 -122 -123 -148 -149 -170 -171 -179 -180 -187 -188 0
-21 -40 -41 -58 -59 -75 -76 -122 -123 -160 -161 -170 -171 -179 -180 -187 -188 0
-20 -39 -40 -57 -58 -74 -75 -135 -136 -147 -148 -158 -159 -168 -169 -177 -178 0
-21 -39 -41 -57 -58 -74 -75 -135 -136 -147 -148 -158 -159 -168 -169 -177 -178 0
-21 -40 -41 -57 -59 -74 -75 -135 -136 -147 -148 -158 -159 -168 -169 -177 -178 0
-21 -40 -41 -58 -59 -74 -76 -135 -136 -147 -148 -158 -159 -168 -169 -177 -178 0
-21 -40 -41 -58 -59 -75 -76 -135 -137 -147 -148 -158 -159 -168 -169 -177 -178 0
-21 -40 -41 -58 -59 -75 -76 -136 -137 -147 -149 -158 -159 -168 -169 -177 -178 0
-21 -40 -41 -58 -59 -75 -76 -136 -137 -148 -149 -158 -160 -168 -169 -177 -178 0
-21 -40 -41 -58 -59 -75 -76 -136 -137 -148 -149 -159 -160 -168 -170 -177 -178 0
-21 -40 -41 -58 -59 -75 -76 -136 -137 -148 -149 -159 -160 -169 -170 -177 -179 0
-21 -40 -41 -58 -59 -75 -76 -136 -137 -148 -149 -159 -160 -169 -170 -178 -179 0
-21 -40 -41 -58 -59 -75 -76 -136 -137 -148 -149 -159 -160 -169 -170 -187 -188 0
-21 -40 -41 -58 -59 -75 -76 -136 -137 -148 -149 -159 -160 -179 -180 -187 -188 0
-21 -40 -41 -58 -59 -75 -76 -136 -137 -148 -149 -170 -171 -179 -180 -187 -188 0
-21 -40 -41 -58 -59 -75 -76 -136 -137 -160 -161 -170 -171 -179 -180 -187 -188 0
-21 -40 -41 -58 -59 -75 -76 -149 -150 -160 -161 -170 -171 -179 -180 -187 -188 0
-18 -37 -38 -55 -56 -89 -90 -104 -105 -118 -119 -131 -132 -143 -144 -154 -155 0
-19 -37 -39 -55 -56 -89 -90 -104 -105 -118 -119 -131 -132 -143 -144 -154 -155 0
-20 -37 -40 -55 -56 -89 -90 -104 -105 -118 -119 -131 -132 -143 -144 -154 -155 0
-21 -37 -41 -55 -56 -89 -90 -104 -105 -118 -119 -131 -132 -143 -144 -154 -155 0
-19 -38 -39 -55 -57 -89 -90 -104 -105 -118 -119 -131 -132 -143 -144 -154 -155 0
-20 -38 -40 -55 -57 -89 -90 -104 -105 -118 -119 -131 -132 -143 -144 -154 -155 0
-21 -38 -41 -55 -57 -89 -90 -104 -105 -118 -119 -131 -132 -143 -144 -154 -155 0
-20 -39 -40 -55 -58 -89 -90 -104 -105 -118 -119 -131 -132 -143 -144 -154 -155 0
-21 -39 -41 -55 -58 -89 -90 -104 -105 -118 -119 -131 -132 -143 -144 -154 -155 0
-21 -40 -41 -55 -59 -89 -90 -104 -105 -118 -119 -131 -132 -143 -144 -154 -155 0
-19 -38 -39 -56 -57 -89 -91 -104 -105 -118 -119 -131 -132 -143 -144 -154 -155 0
-20 -38 -40 -56 -57 -89 -91 -104 -105 -118 -119 -131 -132 -143 -144 -154 -155 0
-21 -38 -41 -56 -57 -89 -91 -104 -105 -118 -119 -131 -132 -143 -144 -154 -155 0
-20 -39 -40 -56 -58 -89 -91 -104 -105 -118 -119 -131 -132 -143 -144 -154 -155 0
-21 -39 -41 -56 -58 -89 -91 -104 -105 -118 -119 -131 -132 -143 -144 -154 -155 0
-21 -40 -41 -56 -59 -89 -91 -104 -105 -118 -119 -131 -132 -143 -144 -154 -155 0
-20 -39 -40 -57 -58 -89 -92 -104 -105 -118 -119 -131 -132 -143 -144 -154 -155 0
-21 -39 -41 -57 -58 -89 -92 -104 -105 -118 -119 -131 -132 -143 -144 -154 -155 0
-21 -40 -41 -57 -59 -89 -92 -104 -105 -118 -119 -131 -132 -143 -144 -154 -155 0
-21 -40 -41 -58 -59 -89 -93 -104 -105 -118 -119 -131 -132 -143 -144 -154 -155 0
-19 -38 -39 -56 -57 -90 -91 -104 -106 -118 -119 -131 -132 -143 -144 -154 -155 0
-20 -38 -40 -56 -57 -90 -91 -104 -106 -118 -119 -131 -132 -143 -144 -154 -155 0
-21 -38 -41 -56 -57 -90 -91 -104 -106 -118 -119 -131 -132 -143 -144 -154 -155 0
-20 -39 -40 -56 -58 -90 -91 -104 -106 -118 -119 -131 -132 -143 -144 -154 -155 0
-21 -39 -41 -56 -58 -90 -91 -104 -106 -118 -119 -131 -132 -143 -144 -154 -155 0
-21 -40 -41 -56 -59 -90 -91 -104 -106 -118 -119 -131 -132 -143 -144 -154 -155 0
-20 -39 -40 -57 -58 -90 -92 -104 -106 -118 -119 -131 -132 -143 -144 -154 -155 0
-21 -39 -41 -57 -58 -90 -92 -104 -106 -118 -119 -131 -132 -143 -144 -154 -155 0
-21 -40 -41 -57 -59 -90 -92 -104 -106 -118 -119 -131 -132 -143 -144 -154 -155 0
-21 -40 -41 -58 -59 -90 -93 -104 -106 -118 -119 -131 -132 -143 -144 -154 -155 0
-20 -39 -40 -57 -58 -91 -92 -104 -107 -118 -119 -131 -132 -143 -144 -154 -155 0
-21 -39 -41 -57 -58 -91 -92 -104 -107 -118 -119 -131 -132 -143 -144 -154 -155 0
-21 -40 -41 -57 -59 -91 -92 -104 -107 -118 -119 -131 -132 -143 -144 -154 -155 0
-21 -40 -41 -58 -59 -91 -93 -104 -107 -118 -119 -131 -132 -143 -144 -154 -155 0
-21 -40 -41 -58 -59 -92 -93 -104 -108 -118 -119 -131 -132 -143 -144 -154 -155 0
-19 -38 -39 -56 -57 -90 -91 -105 -106 -118 -120 -131 -132 -143 -144 -154 -155 0
-20 -38 -40 -56 -57 -90 -91 -105 -106 -118 -120 -131 -132 -143 -144 -154 -155 0
-21 -38 -41 -56 -57 -90 -91 -105 -106 -118 -120 -131 -132 -143 -144 -154 -155 0
-20 -39 -40 -56 -58 -90 -91 -105 -106 -118 -120 -131 -132 -143 -144 -154 -155 0
-21 -39 -41 -56 -58 -90 -91 -105 -106 -118 -120 -131 -132 -143 -144 -154 -155 0
-21 -40 -41 -56 -59 -90 -91 -105 -106 -118 -120 -131 -132 -143 -144 -154 -155 0
-20 -39 -40 -57 -58 -90 -92 -105 -106 -118 -120 -131 -132 -143 -144 -154 -155 0
-21 -39 -41 -57 -58 -90 -92 -105 -106 -118 -120 -131 -132 -143 -144 -154 -155 0
-21 -40 -41 -57 -59 -90 -92 -105 -106 -118 -120 -131 -132 -143 -144 -154 -155 0
-21 -40 -41 -58 -59 -90 -93 -105 -106 -118 -120 -131 -132 -143 -144 -154 -155 0
-20 -39 -40 -57 -58 -91 -92 -105 -107 -118 -120 -131 -132 -143 -144 -154 -155 0
-21 -39 -41 -57 -58 -91 -92 -105 -107 -118 -120 -131 -132 -143 -144 -154 -155 0
-21 -40 -41 -57 -59 -91 -92 -105 -107 -118 -120 -131 -132 -143 -144 -154 -155 0
-21 -40 -41 -58 -59 -91 -93 -105 -107 -118 -120 -131 -132 -143 -144 -154 -155 0
-21 -40 -41 -58 -59 -92 -93 -105 -108 -118 -120 -131 -132 -143 -144 -154 -155 0
-20 -39 -40 -57 -58 -91 -92 -106 -107 -118 -121 -131 -132 -143 -144 -154 -155 0
-21 -39 -41 -57 -58 -91 -92 -106 -107 -118 -121 -131 -132 -143 -144 -154 -155 0
-21 -40 -41 -57 -59 -91 -92 -106 -107 -118 -121 -131 -132 -143 -144 -154 -155 0
-21 -40 -41 -58 -59 -91 -93 -106 -107 -118 -121 -131 -132 -143 -144 -154 -155 0
-21 -40 -41 -58 -59 -92 -93 -106 -108 -118 -121 -131 -132 -143 -144 -154 -155 0
-21 -40 -41 -58 -59 -92 -93 -107 -108 -118 -122 -131 -132 -143 -144 -154 -155 0
-19 -38 -39 -56 -57 -90 -91 -105 -106 -119 -120 -131 -133 -143 -144 -154 -155 0
-20 -38 -40 -56 -57 -90 -91 -105 -106 -119 -120 -131 -133 -143 -144 -154 -155 0
-21 -38 -41 -56 -57 -90 -91 -105 -106 -119 -120 -131 -133 -143 -144 -154 -155 0
-20 -39 -40 -56 -58 -90 -91 -105 -106 -119 -120 -131 -133 -143 -144 -154 -155 0
-21 -39 -41 -56 -58 -90 -91 -105 -106 -119 -120 -131 -133 -143 -144 -154 -155 0
-21 -40 -41 -56 -59 -90 -91 -105 -106 -119 -120 -131 -133 -143 -144 -154 -155 0
-20 -39 -40 -57 -58 -90 -92 -105 -106 -119 -120 -131 -133 -143 -144 -154 -155 0
-21 -39 -41 -57 -58 -90 -92 -105 -106 -119 -120 -131 -133 -143 -144 -154 -155 0
-21 -40 -41 -57 -59 -90 -92 -105 -106 -119 -120 -131 -133 -143 -144 -154 -155 0
-21 -40 -41 -58 -59 -90 -93 -105 -106 -119 -120 -131 -133 -143 -144 -154 -155 0
-20 -39 -40 -57 -58 -91 -92 -105 -107 -119 -120 -131 -133 -143 -144 -154 -155 0
-21 -39 -41 -57 -58 -91 -92 -105 -107 -119 -120 -131 -133 -143 -144 -154 -155 0
-21 -40 -41 -57 -59 -91 -92 -105 -107 -119 -120 -131 -133 -143 -144 -154 -155 0
-21 -40 -41 -58 -59 -91 -93 -105 -107 -119 -120 -131 -133 -143 -144 -154 -155 0
-21 -40 -41 -58 -59 -92 -93 -105 -108 -119 -120 -131 -133 -143 -144 -154 -155 0
-20 -39 -40 -57 -58 -91 -92 -106 -107 -119 -121 -131 -133 -143 -144 -154 -155 0
-21 -39 -41 -57 -58 -91 -92 -106 -107 -119 -121 -131 -133 -143 -144 -154 -155 0
-21 -40 -41 -57 -59 -91 -92 -106 -107 -119 -121 -131 -133 -143 -144 -154 -155 0
-21 -40 -41 -58 -59 -91 -93 -106 -107 -119 -121 -131 -133 -143 -144 -154 -155 0
-21 -40 -41 -58 -59 -92 -93 -106 -108 -119 -121 -131 -133 -143 -144 -154 -155 0
-21 -40 -41 -58 -59 -92 -93 -107 -108 -119 -122 -131 -133 -143 -144 -154 -155 0
-20 -39 -40 -57 -58 -91 -92 -106 -107 -120 -121 -131 -134 -143 -144 -154 -155 0
-21 -39 -41 -57 -58 -91 -92 -106 -107 -120 -121 -131 -134 -143 -144 -154 -155 0
-21 -40 -41 -57 -59 -91 -92 -106 -107 -120 -121 -131 -134 -143 -144 -154 -155 0
-21 -40 -41 -58 -59 -91 -93 -106 -107 -120 -121 -131 -134 -143 -144 -154 -155 0
-21 -40 -41 -58 -59 -92 -93 -106 -108 -120 -121 -131 -134 -143 -144 -154 -155 0
-21 -40 -41 -58 -59 -92 -93 -107 -108 -120 -122 -131 -134 -143 -144 -154 -155 0
-21 -40 -41 -58 -59 -92 -93 -107 -108 -121 -122 -131 -135 -143 -144 -154 -155 0
-19 -38 -39 -56 -57 -90 -91 -105 -106 -119 -120 -132 -133 -143 -145 -154 -155 0
-20 -38 -40 -56 -57 -90 -91 -105 -106 -119 -120 -132 -133 -143 -145 -154 -155 0
-21 -38 -41 -56 -57 -90 -91 -105 -106 -119 -120 -132 -133 -143 -145 -154 -155 0
-20 -39 -40 -56 -58 -90 -91 -105 -106 -119 -120 -132 -133 -143 -145 -154 -155 0
-21 -39 -41 -56 -58 -90 -91 -105 -106 -119 -120 -132 -133 -143 -145 -154 -155 0
-21 -40 -41 -56 -59 -90 -91 -105 -106 -119 -120 -132 -133 -143 -145 -154 -155 0
-20 -39 -40 -57 -58 -90 -92 -105 -106 -119 -120 -132 -133 -143 -145 -154 -155 0
-21 -39 -41 -57 -58 -90 -92 -105 -106 -119 -120 -132 -133 -143 -145 -154 -155 0
-21 -40 -41 -57 -59 -90 -92 -105 -106 -119 -120 -132 -133 -143 -145 -154 -155 0
-21 -40 -41 -58 -59 -90 -93 -105 -106 -119 -120 -132 -133 -143 -145 -154 -155 0
-20 -39 -40 -57 -58 -91 -92 -105 -107 -119 -120 -132 -133 -143 -145 -154 -155 0
-21 -39 -41 -57 -58 -91 -92 -105 -107 -119 -120 -132 -133 -143 -145 -154 -155 0
-21 -40 -41 -57 -59 -91 -92 -105 -107 -119 -120 -132 -133 -143 -145 -154 -155 0
-21 -40 -41 -58 -59 -91 -93 -105 -107 -119 -120 -132 -133 -143 -145 -154 -155 0
-21 -40 -41 -58 -59 -92 -93 -105 -108 -119 -120 -132 -133 -143 -145 -154 -155 0
-20 -39 -40 -57 -58 -91 -92 -106 -107 -119 -121 -132 -133 -143 -145 -154 -155 0
-21 -39 -41 -57 -58 -91 -92 -106 -107 -119 -121 -132 -133 -143 -145 -154 -155 0
-21 -40 -41 -57 -59 -91 -92 -106 -107 -119 -121 -132 -133 -143 -145 -154 -155 0
-21 -40 -41 -58 -59 -91 -93 -106 -107 -119 -121 -132 -133 -143 -145 -154 -155 0
-21 -40 -41 -58 -59 -92 -93 -106 -108 -119 -121 -132 -133 -143 -145 -154 -155 0
-21 -40 -41 -58 -59 -92 -93 -107 -108 -119 -122 -132 -133 -143 -145 -154 -155 0
-20 -39 -40 -57 -58 -91 -92 -106 -107 -120 -121 -132 -134 -143 -145 -154 -155 0
-21 -39 -41 -57 -58 -91 -92 -106 -107 -120 -121 -132 -134 -143 -145 -154 -155 0
-21 -40 -41 -57 -59 -91 -92 -106 -107 -120 -121 -132 -134 -143 -145 -154 -155 0
-21 -40 -41 -58 -59 -91 -93 -106 -107 -120 -121 -132 -134 -143 -145 -154 -155 0
-21 -40 -41 -58 -59 -92 -93 -106 -108 -120 -121 -132 -134 -143 -145 -154 -155 0
-21 -40 -41 -58 -59 -92 -93 -107 -108 -120 -122 -132 -134 -143 -145 -154 -155 0
-21 -40 -41 -58 -59 -92 -93 -107 -108 -121 -122 -132 -135 -143 -145 -154 -155 0
-20 -39 -40 -57 -58 -91 -92 -106 -107 -120 -121 -133 -134 -143 -146 -154 -155 0
-21 -39 -41 -57 -58 -91 -92 -106 -107 -120 -121 -133 -134 -143 -146 -154 -155 0
-21 -40 -41 -57 -59 -91 -92 -106 -107 -120 -121 -133 -134 -143 -146 -154 -155 0
-21 -40 -41 -58 -59 -91 -93 -106 -107 -120 -121 -133 -134 -143 -146 -154 -155 0
-21 -40 -41 -58 -59 -92 -93 -106 -108 -120 -121 -133 -134 -143 -146 -154 -155 0
-21 -40 -41 -58 -59 -92 -93 -107 -108 -120 -122 -133 -134 -143 -146 -154 -155 0
-21 -40 -41 -58 -59 -92 -93 -107 -108 -121 -122 -133 -135 -143 -146 -154 -155 0
-21 -40 -41 -58 -59 -92 -93 -107 -108 -121 -122 -134 -135 -143 -147 -154 -155 0
-19 -38 -39 -56 -57 -90 -91 -105 -106 -119 -120 -132 -133 -144 -145 -154 -156 0
-20 -38 -40 -56 -57 -90 -91 -105 -106 -119 -120 -132 -133 -144 -145 -154 -156 0
-21 -38 -41 -56 -57 -90 -91 -105 -106 -119 -120 -132 -133 -144 -145 -154 -156 0
-20 -39 -40 -56 -58 -90 -91 -105 -106 -119 -120 -132 -133 -144 -145 -154 -156 0
-21 -39 -41 -56 -58 -90 -91 -105 -106 -119 -120 -132 -133 -144 -145 -154 -156 0
-21 -40 -41 -56 -59 -90 -91 -105 -106 -119 -120 -132 -133 -144 -145 -154 -156 0
-20 -39 -40 -57 -58 -90 -92 -105 -106 -119 -120 -132 -133 -144 -145 -154 -156 0
-21 -39 -41 -57 -58 -90 -92 -105 -106 -119 -120 -132 -133 -144 -145 -154 -156 0
-21 -40 -41 -57 -59 -90 -92 -105 -106 -119 -120 -132 -133 -144 -145 -154 -156 0
-21 -40 -41 -58 -59 -90 -93 -105 -106 -119 -120 -132 -133 -144 -145 -154 -156 0
-20 -39 -40 -57 -58 -91 -92 -105 -107 -119 -120 -132 -133 -144 -145 -154 -156 0
-21 -39 -41 -57 -58 -91 -92 -105 -107 -119 -120 -132 -133 -144 -145 -154 -156 0
-21 -40 -41 -57 -59 -91 -92 -105 -107 -119 -120 -132 -133 -144 -145 -154 -156 0
-21 -40 -41 -58 -59 -91 -93 -105 -107 -119 -120 -132 -133 -144 -145 -154 -156 0
-21 -40 -41 -58 -59 -92 -93 -105 -108 -119 -120 -132 -133 -144 -145 -154 -156 0
-20 -39 -40 -57 -58 -91 -92 -106 -107 -119 -121 -132 -133 -144 -145 -154 -156 0
-21 -39 -41 -57 -58 -91 -92 -106 -107 -119 -121 -132 -133 -144 -145 -154 -156 0
-21 -40 -41 -57 -59 -91 -92 -106 -107 -119 -121 -132 -133 -144 -145 -154 -156 0
-21 -40 -41 -58 -59 -91 -93 -106 -107 -119 -121 -132 -133 -144 -145 -154 -156 0
-21 -40 -41 -58 -59 -92 -93 -106 -108 -119 -121 -132 -133 -144 -145 -154 -156 0
-21 -40 -41 -58 -59 -92 -93 -107 -108 -119 -122 -132 -133 -144 -145 -154 -156 0
-20 -39 -40 -57 -58 -91 -92 -106 -107 -120 -121 -132 -134 -144 -145 -154 -156 0
-21 -39 -41 -57 -58 -91 -92 -106 -107 -120 -121 -132 -134 -144 -145 -154 -156 0
-21 -40 -41 -57 -59 -91 -92 -106 -107 -120 -121 -132 -134 -144 -145 -154 -156 0
-21 -40 -41 -58 -59 -91 -93 -106 -107 -120 -121 -132 -134 -144 -145 -154 -156 0
-21 -40 -41 -58 -59 -92 -93 -106 -108 -120 -121 -132 -134 -144 -145 -154 -156 0
-21 -40 -41 -58 -59 -92 -93 -107 -108 -120 -122 -132 -134 -144 -145 -154 -156 0
-21 -40 -41 -58 -59 -92 -93 -107 -108 -121 -122 -132 -135 -144 -145 -154 -156 0
-20 -39 -40 -57 -58 -91 -92 -106 -107 -120 -121 -133 -134 -144 -146 -154 -156 0
-21 -39 -41 -57 -58 -91 -92 -106 -107 -120 -121 -133 -134 -144 -146 -154 -156 0
-21 -40 -41 -57 -59 -91 -92 -106 -107 -120 -121 -133 -134 -144 -146 -154 -156 0
-21 -40 -41 -58 -59 -91 -93 -106 -107 -120 -121 -133 -134 -144 -146 -154 -156 0
-21 -40 -41 -58 -59 -92 -93 -106 -108 -120 -121 -133 -134 -144 -146 -154 -156 0
-21 -40 -41 -58 -59 -92 -93 -107 -108 -120 -122 -133 -134 -144 -146 -154 -156 0
-21 -40 -41 -58 -59 -92 -93 -107 -108 -121 -122 -133 -135 -144 -146 -154 -156 0
-21 -40 -41 -58 -59 -92 -93 -107 -108 -121 -122 -134 -135 -144 -147 -154 -156 0
-20 -39 -40 -57 -58 -91 -92 -106 -107 -120 -121 -133 -134 -145 -146 -154 -157 0
-21 -39 -41 -57 -58 -91 -92 -106 -107 -120 -121 -133 -134 -145 -146 -154 -157 0
-21 -40 -41 -57 -59 -91 -92 -106 -107 -120 -121 -133 -134 -145 -146 -154 -157 0
-21 -40 -41 -58 -59 -91 -93 -106 -107 -120 -121 -133 -134 -145 -146 -154 -157 0
-21 -40 -41 -58 -59 -92 -93 -106 -108 -120 -121 -133 -134 -145 -146 -154 -157 0
-21 -40 -41 -58 -59 -92 -93 -107 -108 -120 -122 -133 -134 -145 -146 -154 -157 0
-21 -40 -41 -58 -59 -92 -93 -107 -108 -121 -122 -133 -135 -145 -146 -154 -157 0
-21 -40 -41 -58 -59 -92 -93 -107 -108 -121 -122 -134 -135 -145 -147 -154 -157 0
-21 -40 -41 -58 -59 -92 -93 -107 -108 -121 -122 -134 -135 -146 -147 -154 -158 0
-19 -38 -39 -56 -57 -90 -91 -105 -106 -119 -120 -132 -133 -144 -145 -155 -156 0
-20 -38 -40 -56 -57 -90 -91 -105 -106 -119 -120 -132 -133 -144 -145 -155 -156 0
-21 -38 -41 -56 -57 -90 -91 -105 -106 -119 -120 -132 -133 -144 -145 -155 -156 0
-20 -39 -40 -56 -58 -90 -91 -105 -106 -119 -120 -132 -133 -144 -145 -155 -156 0
-21 -39 -41 -56 -58 -90 -91 -105 -106 -119 -120 -132 -133 -144 -145 -155 -156 0
-21 -40 -41 -56 -59 -90 -91 -105 -106 -119 -120 -132 -133 -144 -145 -155 -156 0
-20 -39 -40 -57 -58 -90 -92 -105 -106 -119 -120 -132 -133 -144 -145 -155 -156 0
-21 -39 -41 -57 -58 -90 -92 -105 -106 -119 -120 -132 -133 -144 -145 -155 -156 0
-21 -40 -41 -57 -59 -90 -92 -105 -106 -119 -120 -132 -133 -144 -145 -155 -156 0
-21 -40 -41 -58 -59 -90 -93 -105 -106 -119 -120 -132 -133 -144 -145 -155 -156 0
-20 -39 -40 -57 -58 -91 -92 -105 -107 -119 -120 -132 -133 -144 -145 -155 -156 0
-21 -39 -41 -57 -58 -91 -92 -105 -107 -119 -120 -132 -133 -144 -145 -155 -156 0
-21 -40 -41 -57 -59 -91 -92 -105 -107 -119 -120 -132 -133 -144 -145 -155 -156 0
-21 -40 -41 -58 -59 -91 -93 -105 -107 -119 -120 -132 -133 -144 -145 -155 -156 0
-21 -40 -41 -58 -59 -92 -93 -105 -108 -119 -120 -132 -133 -144 -145 -155 -156 0
-20 -39 -40 -57 -58 -91 -92 -106 -107 -119 -121 -132 -133 -144 -145 -155 -156 0
-21 -39 -41 -57 -58 -91 -92 -106 -107 -119 -121 -132 -133 -144 -145 -155 -156 0
-21 -40 -41 -57 -59 -91 -92 -106 -107 -119 -121 -132 -133 -144 -145 -155 -156 0
-21 -40 -41 -58 -59 -91 -93 -106 -107 -119 -121 -132 -133 -144 -145 -155 -156 0
-21 -40 -41 -58 -59 -92 -93 -106 -108 -119 -121 -132 -133 -144 -145 -155 -156 0
-21 -40 -41 -58 -59 -92 -93 -107 -108 -119 -122 -132 -133 -144 -145 -155 -156 0
-20 -39 -40 -57 -58 -91 -92 -106 -107 -120 -121 -132 -134 -144 -145 -155 -156 0
-21 -39 -41 -57 -58 -91 -92 -106 -107 -120 -121 -132 -134 -144 -145 -155 -156 0
-21 -40 -41 -57 -59 -91 -92 -106 -107 -120 -121 -132 -134 -144 -145 -155 -156 0
-21 -40 -41 -58 -59 -91 -93 -106 -107 -120 -121 -132 -134 -144 -145 -155 -156 0
-21 -40 -41 -58 -59 -92 -93 -106 -108 -120 -121 -132 -134 -144 -145 -155 -156 0
-21 -40 -41 -58 -59 -92 -93 -107 -108 -120 -122 -132 -134 -144 -145 -155 -156 0
-21 -40 -41 -58 -59 -92 -93 -107 -108 -121 -122 -132 -135 -144 -145 -155 -156 0
-20 -39 -40 -57 -58 -91 -92 -106 -107 -120 -121 -133 -134 -144 -146 -155 -156 0
-21 -39 -41 -57 -58 -91 -92 -106 -107 -120 -121 -133 -134 -144 -146 -155 -156 0
-21 -40 -41 -57 -59 -91 -92 -106 -107 -120 -121 -133 -134 -144 -146 -155 -156 0
-21 -40 -41 -58 -59 -91 -93 -106 -107 -120 -121 -133 -134 -144 -146 -155 -156 0
-21 -40 -41 -58 -59 -92 -93 -106 -108 -120 -121 -133 -134 -144 -146 -155 -156 0
-21 -40 -41 -58 -59 -92 -93 -107 -108 -120 -122 -133 -134 -144 -146 -155 -156 0
-21 -40 -41 -58 -59 -92 -93 -107 -108 -121 -122 -133 -135 -144 -146 -155 -156 0
-21 -40 -41 -58 -59 -92 -93 -107 -108 -121 -122 -134 -135 -144 -147 -155 -156 0
-20 -39 -40 -57 -58 -91 -92 -106 -107 -120 -121 -133 -134 -145 -146 -155 -157 0
-21 -39 -41 -57 -58 -91 -92 -106 -107 -120 -121 -133 -134 -145 -146 -155 -157 0
-21 -40 -41 -57 -59 -91 -92 -106 -107 -120 -121 -133 -134 -145 -146 -155 -157 0
-21 -40 -41 -58 -59 -91 -93 -106 -107 -120 -121 -133 -134 -145 -146 -155 -157 0
-21 -40 -41 -58 -59 -92 -93 -106 -108 -120 -121 -133 -134 -145 -146 -155 -157 0
-21 -40 -41 -58 -59 -92 -93 -107 -108 -120 -122 -133 -134 -145 -146 -155 -157 0
-21 -40 -41 -58 -59 -92 -93 -107 -108 -121 -122 -133 -135 -145 -146 -155 -157 0
-21 -40 -41 -58 -59 -92 -93 -107 -108 -121 -122 -134 -135 -145 -147 -155 -157 0
-21 -40 -41 -58 -59 -92 -93 -107 -108 -121 -122 -134 -135 -146 -147 -155 -158 0
-20 -39 -40 -57 -58 -91 -92 -106 -107 -120 -121 -133 -134 -145 -146 -156 -157 0
-21 -39 -41 -57 -58 -91 -92 -106 -107 -120 -121 -133 -134 -145 -146 -156 -157 0
-21 -40 -41 -57 -59 -91 -92 -106 -107 -120 -121 -133 -134 -145 -146 -156 -157 0
-21 -40 -41 -58 -59 -91 -93 -106 -107 -120 -121 -133 -134 -145 -146 -156 -157 0
-21 -40 -41 -58 -59 -92 -93 -106 -108 -120 -121 -133 -134 -145 -146 -156 -157 0
-21 -40 -41 -58 -59 -92 -93 -107 -108 -120 -122 -133 -134 -145 -146 -156 -157 0
-21 -40 -41 -58 -59 -92 -93 -107 -108 -121 -122 -133 -135 -145 -146 -156 -157 0
-21 -40 -41 -58 -59 -92 -93 -107 -108 -121 -122 -134 -135 -145 -147 -156 -157 0
-21 -40 -41 -58 -59 -92 -93 -107 -108 -121 -122 -134 -135 -146 -147 -156 -158 0
-21 -40 -41 -58 -59 -92 -93 -107 -108 -121 -122 -134 -135 -146 -147 -157 -158 0
-19 -38 -39 -56 -57 -90 -91 -105 -106 -119 -120 -132 -133 -144 -145 -166 -167 0
-20 -38 -40 -56 -57 -90 -91 -105 -106 -119 -120 -132 -133 -144 -145 -166 -167 0
-21 -38 -41 -56 -57 -90 -91 -105 -106 -119 -120 -132 -133 -144 -145 -166 -167 0
-20 -39 -40 -56 -58 -90 -91 -105 -106 -119 -120 -132 -133 -144 -145 -166 -167 0
-21 -39 -41 -56 -58 -90 -91 -105 -106 -119 -120 -132 -133 -144 -145 -166 -167 0
-21 -40 -41 -56 -59 -90 -91 -105 -106 -119 -120 -132 -133 -144 -145 -166 -167 0
-20 -39 -40 -57 -58 -90 -92 -105 -106 -119 -120 -132 -133 -144 -145 -166 -167 0
-21 -39 -41 -57 -58 -90 -92 -105 -106 -119 -120 -132 -133 -144 -145 -166 -167 0
-21 -40 -41 -57 -59 -90 -92 -105 -106 -119 -120 -132 -133 -144 -145 -166 -167 0
-21 -40 -41 -58 -59 -90 -93 -105 -106 -119 -120 -132 -133 -144 -145 -166 -167 0
-20 -39 -40 -57 -58 -91 -92 -105 -107 -119 -120 -132 -133 -144 -145 -166 -167 0
-21 -39 -41 -57 -58 -91 -92 -105 -107 -119 -120 -132 -133 -144 -145 -166 -167 0
-21 -40 -41 -57 -59 -91 -92 -105 -107 -119 -120 -132 -133 -144 -145 -166 -167 0
-21 -40 -41 -58 -59 -91 -93 -105 -107 -119 -120 -132 -133 -144 -145 -166 -167 0
-21 -40 -41 -58 -59 -92 -93 -105 -108 -119 -120 -132 -133 -144 -145 -166 -167 0
-20 -39 -40 -57 -58 -91 -92 -106 -107 -119 -121 -132 -133 -144 -145 -166 -167 0
-21 -39 -41 -57 -58 -91 -92 -106 -107 -119 -121 -132 -133 -144 -145 -166 -167 0
-21 -40 -41 -57 -59 -91 -92 -106 -107 -119 -121 -132 -133 -144 -145 -166 -167 0
-21 -40 -41 -58 -59 -91 -93 -106 -107 -119 -121 -132 -133 -144 -145 -166 -167 0
-21 -40 -41 -58 -59 -92 -93 -106 -108 -119 -121 -132 -133 -144 -145 -166 -167 0
-21 -40 -41 -58 -59 -92 -93 -107 -108 -119 -122 -132 -133 -144 -145 -166 -167 0
-20 -39 -40 -57 -58 -91 -92 -106 -107 -120 -121 -132 -134 -144 -145 -166 -167 0
-21 -39 -41 -57 -58 -91 -92 -106 -107 -120 -121 -132 -134 -144 -145 -166 -167 0
-21 -40 -41 -57 -59 -91 -92 -106 -107 -120 -121 -132 -134 -144 -145 -166 -167 0
-21 -40 -41 -58 -59 -91 -93 -106 -107 -120 -121 -132 -134 -144 -145 -166 -167 0
-21 -40 -41 -58 -59 -92 -93 -106 -108 -120 -121 -132 -134 -144 -145 -166 -167 0
-21 -40 -41 -58 -59 -92 -93 -107 -108 -120 -122 -132 -134 -144 -145 -166 -167 0
-21 -40 -41 -58 -59 -92 -93 -107 -108 -121 -122 -132 -135 -144 -145 -166 -167 0
-20 -39 -40 -57 -58 -91 -92 -106 -107 -120 -121 -133 -134 -144 -146 -166 -167 0
-21 -39 -41 -57 -58 -91 -92 -106 -107 -120 -121 -133 -134 -144 -146 -166 -167 0
-21 -40 -41 -57 -59 -91 -92 -106 -107 -120 -121 -133 -134 -144 -146 -166 -167 0
-21 -40 -41 -58 -59 -91 -93 -106 -107 -120 -121 -133 -134 -144 -146 -166 -167 0
-21 -40 -41 -58 -59 -92 -93 -106 -108 -120 -121 -133 -134 -144 -146 -166 -167 0
-21 -40 -41 -58 -59 -92 -93 -107 -108 -120 -122 -133 -134 -144 -146 -166 -167 0
-21 -40 -41 -58 -59 -92 -93 -107 -108 -121 -122 -133 -135 -144 -146 -166 -167 0
-21 -40 -41 -58 -59 -92 -93 -107 -108 -121 -122 -134 -135 -144 -147 -166 -167 0
-20 -39 -40 -57 -58 -91 -92 -106 -107 -120 -121 -133 -134 -145 -146 -166 -168 0
-21 -39 -41 -57 -58 -91 -92 -106 -107 -120 -121 -133 -134 -145 -146 -166 -168 0
-21 -40 -41 -57 -59 -91 -92 -106 -107 -120 -121 -133 -134 -145 -146 -166 -168 0
-21 -40 -41 -58 -59 -91 -93 -106 -107 -120 -121 -133 -134 -145 -146 -166 -168 0
-21 -40 -41 -58 -59 -92 -93 -106 -108 -120 -121 -133 -134 -145 -146 -166 -168 0
-21 -40 -41 -58 -59 -92 -93 -107 -108 -120 -122 -133 -134 -145 -146 -166 -168 0
-21 -40 -41 -58 -59 -92 -93 -107 -108 -121 -122 -133 -135 -145 -146 -166 -168 0
-21 -40 -41 -58 -59 -92 -93 -107 -108 -121 -122 -134 -135 -145 -147 -166 -168 0
-21 -40 -41 -58 -59 -92 -93 -107 -108 -121 -122 -134 -135 -146 -147 -166 -169 0
-20 -39 -40 -57 -58 -91 -92 -106 -107 -120 -121 -133 -134 -145 -146 -167 -168 0
-21 -39 -41 -57 -58 -91 -92 -106 -107 -120 -121 -133 -134 -145 -146 -167 -168 0
-21 -40 -41 -57 -59 -91 -92 -106 -107 -120 -121 -133 -134 -145 -146 -167 -168 0
-21 -40 -41 -58 -59 -91 -93 -106 -107 -120 -121 -133 -134 -145 -146 -167 -168 0
-21 -40 -41 -58 -59 -92 -93 -106 -108 -120 -121 -133 -134 -145 -146 -167 -168 0
-21 -40 -41 -58 -59 -92 -93 -107 -108 -120 -122 -133 -134 -145 -146 -167 -168 0
-21 -40 -41 -58 -59 -92 -93 -107 -108 -121 -122 -133 -135 -145 -146 -167 -168 0
-21 -40 -41 -58 -59 -92 -93 -107 -108 -121 -122 -134 -135 -145 -147 -167 -168 0
-21 -40 -41 -58 -59 -92 -93 -107 -108 -121 -122 -134 -135 -146 -147 -167 -169 0
-21 -40 -41 -58 -59 -92 -93 -107 -108 -121 -122 -134 -135 -146 -147 -168 -169 0
-20 -39 -40 -57 -58 -91 -92 -106 -107 -120 -121 -133 -134 -145 -146 -177 -178 0
-21 -39 -41 -57 -58 -91 -92 -106 -107 -120 -121 -133 -134 -145 -146 -177 -178 0
-21 -40 -41 -57 -59 -91 -92 -106 -107 -120 -121 -133 -134 -145 -146 -177 -178 0
-21 -40 -41 -58 -59 -91 -93 -106 -107 -120 -121 -133 -134 -145 -146 -177 -178 0
-21 -40 -41 -58 -59 -92 -93 -106 -108 -120 -121 -133 -134 -145 -146 -177 -178 0
-21 -40 -41 -58 -59 -92 -93 -107 -108 -120 -122 -133 -134 -145 -146 -177 -178 0
-21 -40 -41 -58 -59 -92 -93 -107 -108 -121 -122 -133 -135 -145 -146 -177 -178 0
-21 -40 -41 -58 -59 -92 -93 -107 -108 -121 -122 -134 -135 -145 -147 -177 -178 0
-21 -40 -41 -58 -59 -92 -93 -107 -108 -121 -122 -134 -135 -146 -147 -177 -179 0
-21 -40 -41 -58 -59 -92 -93 -107 -108 -121 -122 -134 -135 -146 -147 -178 -179 0
-21 -40 -41 -58 -59 -92 -93 -107 -108 -121 -122 -134 -135 -146 -147 -187 -188 0
-19 -38 -39 -56 -57 -90 -91 -105 -106 -119 -120 -132 -133 -156 -157 -166 -167 0
-20 -38 -40 -56 -57 -90 -91 -105 -106 -119 -120 -132 -133 -156 -157 -166 -167 0
-21 -38 -41 -56 -57 -90 -91 -105 -106 -119 -120 -132 -133 -156 -157 -166 -167 0
-20 -39 -40 -56 -58 -90 -91 -105 -106 -119 -120 -132 -133 -156 -157 -166 -167 0
-21 -39 -41 -56 -58 -90 -91 -105 -106 -119 -120 -132 -133 -156 -157 -166 -167 0
-21 -40 -41 -56 -59 -90 -91 -105 -106 -119 -120 -132 -133 -156 -157 -166 -167 0
-20 -39 -40 -57 -58 -90 -92 -105 -106 -119 -120 -132 -133 -156 -157 -166 -167 0
-21 -39 -41 -57 -58 -90 -92 -105 -106 -119 -120 -132 -133 -156 -157 -166 -167 0
-21 -40 -41 -57 -59 -90 -92 -105 -106 -119 -120 -132 -133 -156 -157 -166 -167 0
-21 -40 -41 -58 -59 -90 -93 -105 -106 -119 -120 -132 -133 -156 -157 -166 -167 0
-20 -39 -40 -57 -58 -91 -92 -105 -107 -119 -120 -132 -133 -156 -157 -166 -167 0
-21 -39 -41 -57 -58 -91 -92 -105 -107 -119 -120 -132 -133 -156 -157 -166 -167 0
-21 -40 -41 -57 -59 -91 -92 -105 -107 -119 -120 -132 -133 -156 -157 -166 -167 0
-21 -40 -41 -58 -59 -91 -93 -105 -107 -119 -120 -132 -133 -156 -157 -166 -167 0
-21 -40 -41 -58 -59 -92 -93 -105 -108 -119 -120 -132 -133 -156 -157 -166 -167 0
-20 -39 -40 -57 -58 -91 -92 -106 -107 -119 -121 -132 -133 -156 -157 -166 -167 0
-21 -39 -41 -57 -58 -91 -92 -106 -107 -119 -121 -132 -133 -156 -157 -166 -167 0
-21 -40 -41 -57 -59 -91 -92 -106 -107 -119 -121 -132 -133 -156 -157 -166 -167 0
-21 -40 -41 -58 -59 -91 -93 -106 -107 -119 -121 -132 -133 -156 -157 -166 -167 0
-21 -40 -41 -58 -59 -92 -93 -106 -108 -119 -121 -132 -133 -156 -157 -166 -167 0
-21 -40 -41 -58 -59 -92 -93 -107 -108 -119 -122 -132 -133 -156 -157 -166 -167 0
-20 -39 -40 -57 -58 -91 -92 -106 -107 -120 -121 -132 -134 -156 -157 -166 -167 0
-21 -39 -41 -57 -58 -91 -92 -106 -107 -120 -121 -132 -134 -156 -157 -166 -167 0
-21 -40 -41 -57 -59 -91 -92 -106 -107 -120 -121 -132 -134 -156 -157 -166 -167 0
-21 -40 -41 -58 -59 -91 -93 -106 -107 -120 -121 -132 -134 -156 -157 -166 -167 0
-21 -40 -41 -58 -59 -92 -93 -106 -108 -120 -121 -132 -134 -156 -157 -166 -167 0
-21 -40 -41 -58 -59 -92 -93 -107 -108 -120 -122 -132 -134 -156 -157 -166 -167 0
-21 -40 -41 -58 -59 -92 -93 -107 -108 -121 -122 -132 -135 -156 -157 -166 -167 0
-20 -39 -40 -57 -58 -91 -92 -106 -107 -120 -121 -133 -134 -156 -158 -166 -167 0
-21 -39 -41 -57 -58 -91 -92 -106 -107 -120 -121 -133 -134 -156 -158 -166 -167 0
-21 -40 -41 -57 -59 -91 -92 -106 -107 -120 -121 -133 -134 -156 -158 -166 -167 0
-21 -40 -41 -58 -59 -91 -93 -106 -107 -120 -121 -133 -134 -156 -158 -166 -167 0
-21 -40 -41 -58 -59 -92 -93 -106 -108 -120 -121 -133 -134 -156 -158 -166 -167 0
-21 -40 -41 -58 -59 -92 -93 -107 -108 -120 -122 -133 -134 -156 -158 -166 -167 0
-21 -40 -41 -58 -59 -92 -93 -107 -108 -121 -122 -133 -135 -156 -158 -166 -167 0
-21 -40 -41 -58 -59 -92 -93 -107 -108 -121 -122 -134 -135 -156 -159 -166 -167 0
-20 -39 -40 -57 -58 -91 -92 -106 -107 -120 -121 -133 -134 -157 -158 -166 -168 0
-21 -39 -41 -57 -58 -91 -92 -106 -107 -120 -121 -133 -134 -157 -158 -166 -168 0
-21 -40 -41 -57 -59 -91 -92 -106 -107 -120 -121 -133 -134 -157 -158 -166 -168 0
-21 -40 -41 -58 -59 -91 -93 -106 -107 -120 -121 -133 -134 -157 -158 -166 -168 0
-21 -40 -41 -58 -59 -92 -93 -106 -108 -120 -121 -133 -134 -157 -158 -166 -168 0
-21 -40 -41 -58 -59 -92 -93 -107 -108 -120 -122 -133 -134 -157 -158 -166 -168 0
-21 -40 -41 -58 -59 -92 -93 -107 -108 -121 -122 -133 -135 -157 -158 -166 -168 0
-21 -40 -41 -58 -59 -92 -93 -107 -108 -121 -122 -134 -135 -157 -159 -166 -168 0
-21 -40 -41 -58 -59 -92 -93 -107 -108 -121 -122 -134 -135 -158 -159 -166 -169 0
-20 -39 -40 -57 -58 -91 -92 -106 -107 -120 -121 -133 -134 -157 -158 -167 -168 0
-21 -39 -41 -57 -58 -91 -92 -106 -107 -120 -121 -133 -134 -157 -158 -167 -168 0
-21 -40 -41 -57 -59 -91 -92 -106 -107 -120 -121 -133 -134 -157 -158 -167 -168 0
-21 -40 -41 -58 -59 -91 -93 -106 -107 -120 -121 -133 -134 -157 -158 -167 -168 0
-21 -40 -41 -58 -59 -92 -93 -106 -108 -120 -121 -133 -134 -157 -158 -167 -168 0
-21 -40 -41 -58 -59 -92 -93 -107 -108 -120 -122 -133 -134 -157 -158 -167 -168 0
-21 -40 -41 -58 -59 -92 -93 -107 -108 -121 -122 -133 -135 -157 -158 -167 -168 0
-21 -40 -41 -58 -59 -92 -93 -107 -108 -121 -122 -134 -135 -157 -159 -167 -168 0
-21 -40 -41 -58 -59 -92 -93 -107 -108 -121 -122 -134 -135 -158 -159 -167 -169 0
-21 -40 -41 -58 -59 -92 -93 -107 -108 -121 -122 -134 -135 -158 -159 -168 -169 0
-20 -39 -40 -57 -58 -91 -92 -106 -107 -120 -121 -133 -134 -157 -158 -177 -178 0
-21 -39 -41 -57 -58 -91 -92 -106 -107 -120 -121 -133 -134 -157 -158 -177 -178 0
-21 -40 -41 -57 -59 -91 -92 -106 -107 -120 -121 -133 -134 -157 -158 -177 -178 0
-21 -40 -41 -58 -59 -91 -93 -106 -107 -120 -121 -133 -134 -157 -158 -177 -178 0
-21 -40 -41 -58 -59 -92 -93 -106 -108 -120 -121 -133 -134 -157 -158 -177 -178 0
-21 -40 -41 -58 -59 -92 -93 -107 -108 -120 -122 -133 -134 -157 -158 -177 -178 0
-21 -40 -41 -58 -59 -92 -93 -107 -108 -121 -122 -133 -135 -157 -158 -177 -178 0
-21 -40 -41 -58 -59 -92 -93 -107 -108 -121 -122 -134 -135 -157 -159 -177 -178 0
-21 -40 -41 -58 -59 -92 -93 -107 -108 -121 -122 -134 -135 -158 -159 -177 -179 0
-21 -40 -41 -58 -59 -92 -93 -107 -108 -121 -122 -134 -135 -158 -159 -178 -179 0
-21 -40 -41 -58 -59 -92 -93 -107 -108 -121 -122 -134 -135 -158 -159 -187 -188 0
-20 -39 -40 -57 -58 -91 -92 -106 -107 -120 -121 -133 -134 -168 -169 -177 -178 0
-21 -39 -41 -57 -58 -91 -92 -106 -107 -120 -121 -133 -134 -168 -169 -177 -178 0
-21 -40 -41 -57 -59 -91 -92 -106 -107 -120 -121 -133 -134 -168 -169 -177 -178 0
-21 -40 -41 -58 -59 -91 -93 -106 -107 -120 -121 -133 -134 -168 -169 -177 -178 0
-21 -40 -41 -58 -59 -92 -93 -106 -108 -120 -121 -133 -134 -168 -169 -177 -178 0
-21 -40 -41 -58 -59 -92 -93 -107 -108 -120 -122 -133 -134 -168 -169 -177 -178 0
-21 -40 -41 -58 -59 -92 -93 -107 -108 -121 -122 -133 -135 -168 -169 -177 -178 0
-21 -40 -41 -58 -59 -92 -93 -107 -108 -121 -122 -134 -135 -168 -170 -177 -178 0
-21 -40 -41 -58 -59 -92 -93 -107 -108 -121 -122 -134 -135 -169 -170 -177 -179 0
-21 -40 -41 -58 -59 -92 -93 -107 -108 -121 -122 -134 -135 -169 -170 -178 -179 0
-21 -40 -41 -58 -59 -92 -93 -107 -108 -121 -122 -134 -135 -169 -170 -187 -188 0
-21 -40 -41 -58 -59 -92 -93 -107 -108 -121 -122 -134 -135 -179 -180 -187 -188 0
-19 -38 -39 -56 -57 -90 -91 -105 -106 -119 -120 -145 -146 -156 -157 -166 -167 0
-20 -38 -40 -56 -57 -90 -91 -105 -106 -119 -120 -145 -146 -156 -157 -166 -167 0
-21 -38 -41 -56 -57 -90 -91 -105 -106 -119 -120 -145 -146 -156 -157 -166 -167 0
-20 -39 -40 -56 -58 -90 -91 -105 -106 -119 -120 -145 -146 -156 -157 -166 -167 0
-21 -39 -41 -56 -58 -90 -91 -105 -106 -119 -120 -145 -146 -156 -157 -166 -167 0
-21 -40 -41 -56 -59 -90 -91 -105 -106 -119 -120 -145 -146 -156 -157 -166 -167 0
-20 -39 -40 -57 -58 -90 -92 -105 -106 -119 -120 -145 -146 -156 -157 -166 -167 0
-21 -39 -41 -57 -58 -90 -92 -105 -106 -119 -120 -145 -146 -156 -157 -166 -167 0
-21 -40 -41 -57 -59 -90 -92 -105 -106 -119 -120 -145 -146 -156 -157 -166 -167 0
-21 -40 -41 -58 -59 -90 -93 -105 -106 -119 -120 -145 -146 -156 -157 -166 -167 0
-20 -39 -40 -57 -58 -91 -92 -105 -107 -119 -120 -145 -146 -156 -157 -166 -167 0
-21 -39 -41 -57 -58 -91 -92 -105 -107 -119 -120 -145 -146 -156 -157 -166 -167 0
-21 -40 -41 -57 -59 -91 -92 -105 -107 -119 -120 -145 -146 -156 -157 -166 -167 0
-21 -40 -41 -58 -59 -91 -93 -105 -107 -119 -120 -145 -146 -156 -157 -166 -167 0
-21 -40 -41 -58 -59 -92 -93 -105 -108 -119 -120 -145 -146 -156 -157 -166 -167 0
-20 -39 -40 -57 -58 -91 -92 -106 -107 -119 -121 -145 -146 -156 -157 -166 -167 0
-21 -39 -41 -57 -58 -91 -92 -106 -107 -119 -121 -145 -146 -156 -157 -166 -167 0
-21 -40 -41 -57 -59 -91 -92 -106 -107 -119 -121 -145 -146 -156 -157 -166 -167 0
-21 -40 -41 -58 -59 -91 -93 -106 -107 -119 -121 -145 -146 -156 -157 -166 -167 0
-21 -40 -41 -58 -59 -92 -93 -106 -108 -119 -121 -145 -146 -156 -157 -166 -167 0
-21 -40 -41 -58 -59 -92 -93 -107 -108 -119 -122 -145 -146 -156 -157 -166 -167 0
-20 -39 -40 -57 -58 -91 -92 -106 -107 -120 -121 -145 -147 -156 -157 -166 -167 0
-21 -39 -41 -57 -58 -91 -92 -106 -107 -120 -121 -145 -147 -156 -157 -166 -167 0
-21 -40 -41 -57 -59 -91 -92 -106 -107 -120 -121 -145 -147 -156 -157 -166 -167 0
-21 -40 -41 -58 -59 -91 -93 -106 -107 -120 -121 -145 -147 -156 -157 -166 -167 0
-21 -40 -41 -58 -59 -92 -93 -106 -108 -120 -121 -145 -147 -156 -157 -166 -167 0
-21 -40 -41 -58 -59 -92 -93 -107 -108 -120 -122 -145 -147 -156 -157 -166 -167 0
-21 -40 -41 -58 -59 -92 -93 -107 -108 -121 -122 -145 -148 -156 -157 -166 -167 0
-20 -39 -40 -57 -58 -91 -92 -106 -107 -120 -121 -146 -147 -156 -158 -166 -167 0
-21 -39 -41 -57 -58 -91 -92 -106 -107 -120 -121 -146 -147 -156 -158 -166 -167 0
-21 -40 -41 -57 -59 -91 -92 -106 -107 -120 -121 -146 -147 -156 -158 -166 -167 0
-21 -40 -41 -58 -59 -91 -93 -106 -107 -120 -121 -146 -147 -156 -158 -166 -167 0
-21 -40 -41 -58 -59 -92 -93 -106 -108 -120 -121 -146 -147 -156 -158 -166 -167 0
-21 -40 -41 -58 -59 -92 -93 -107 -108 -120 -122 -146 -147 -156 -158 -166 -167 0
-21 -40 -41 -58 -59 -92 -93 -107 -108 -121 -122 -146 -148 -156 -158 -166 -167 0
-21 -40 -41 -58 -59 -92 -93 -107 -108 -121 -122 -147 -148 -156 -159 -166 -167 0
-20 -39 -40 -57 -58 -91 -92 -106 -107 -120 -121 -146 -147 -157 -158 -166 -168 0
-21 -39 -41 -57 -58 -91 -92 -106 -107 -120 -121 -146 -147 -157 -158 -166 -168 0
-21 -40 -41 -57 -59 -91 -92 -106 -107 -120 -121 -146 -147 -157 -158 -166 -168 0
-21 -40 -41 -58 -59 -91 -93 -106 -107 -120 -121 -146 -147 -157 -158 -166 -168 0
-21 -40 -41 -58 -59 -92 -93 -106 -108 -120 -121 -146 -147 -157 -158 -166 -168 0
-21 -40 -41 -58 -59 -92 -93 -107 -108 -120 -122 -146 -147 -157 -158 -166 -168 0
-21 -40 -41 -58 -59 -92 -93 -107 -108 -121 -122 -146 -148 -157 -158 -166 -168 0
-21 -40 -41 -58 -59 -92 -93 -107 -108 -121 -122 -147 -148 -157 -159 -166 -168 0
-21 -40 -41 -58 -59 -92 -93 -107 -108 -121 -122 -147 -148 -158 -159 -166 -169 0
-20 -39 -40 -57 -58 -91 -92 -106 -107 -120 -121 -146 -147 -157 -158 -167 -168 0
-21 -39 -41 -57 -58 -91 -92 -106 -107 -120 -121 -146 -147 -157 -158 -167 -168 0
-21 -40 -41 -57 -59 -91 -92 -106 -107 -120 -121 -146 -147 -157 -158 -167 -168 0
-21 -40 -41 -58 -59 -91 -93 -106 -107 -120 -121 -146 -147 -157 -158 -167 -168 0
-21 -40 -41 -58 -59 -92 -93 -106 -108 -120 -121 -146 -147 -157 -158 -167 -168 0
-21 -40 -41 -58 -59 -92 -93 -107 -108 -120 -122 -146 -147 -157 -158 -167 -168 0
-21 -40 -41 -58 -59 -92 -93 -107 -108 -121 -122 -146 -148 -157 -158 -167 -168 0
-21 -40 -41 -58 -59 -92 -93 -107 -108 -121 -122 -147 -148 -157 -159 -167 -168 0
-21 -40 -41 -58 -59 -92 -93 -107 -108 -121 -122 -147 -148 -158 -159 -167 -169 0
-21 -40 -41 -58 -59 -92 -93 -107 -108 -121 -122 -147 -148 -158 -159 -168 -169 0
-20 -39 -40 -57 -58 -91 -92 -106 -107 -120 -121 -146 -147 -157 -158 -177 -178 0
-21 -39 -41 -57 -58 -91 -92 -106 -107 -120 -121 -146 -147 -157 -158 -177 -178 0
-21 -40 -41 -57 -59 -91 -92 -106 -107 -120 -121 -146 -147 -157 -158 -177 -178 0
-21 -40 -41 -58 -59 -91 -93 -106 -107 -120 -121 -146 -147 -157 -158 -177 -178 0
-21 -40 -41 -58 -59 -92 -93 -106 -108 -120 -121 -146 -147 -157 -158 -177 -178 0
-21 -40 -41 -58 -59 -92 -93 -107 -108 -120 -122 -146 -147 -157 -158 -177 -178 0
-21 -40 -41 -58 -59 -92 -93 -107 -108 -121 -122 -146 -148 -157 -158 -177 -178 0
-21 -40 -41 -58 -59 -92 -93 -107 -108 -121 -122 -147 -148 -157 -159 -177 -178 0
-21 -40 -41 -58 -59 -92 -93 -107 -108 -121 -122 -147 -148 -158 -159 -177 -179 0
-21 -40 -41 -58 -59 -92 -93 -107 -108 -121 -122 -147 -148 -158 -159 -178 -179 0
-21 -40 -41 -58 -59 -92 -93 -107 -108 -121 -122 -147 -148 -158 -159 -187 -188 0
-20 -39 -40 -57 -58 -91 -92 -106 -107 -120 -121 -146 -147 -168 -169 -177 -178 0
-21 -39 -41 -57 -58 -91 -92 -106 -107 -120 -121 -146 -147 -168 -169 -177 -178 0
-21 -40 -41 -57 -59 -91 -92 -106 -107 -120 -121 -146 -147 -168 -169 -177 -178 0
-21 -40 -41 -58 -59 -91 -93 -106 -107 -120 -121 -146 -147 -168 -169 -177 -178 0
-21 -40 -41 -58 -59 -92 -93 -106 -108 -120 -121 -146 -147 -168 -169 -177 -178 0
-21 -40 -41 -58 -59 -92 -93 -107 -108 -120 -122 -146 -147 -168 -169 -177 -178 0
-21 -40 -41 -58 -59 -92 -93 -107 -108 -121 -122 -146 -148 -168 -169 -177 -178 0
-21 -40 -41 -58 -59 -92 -93 -107 -108 -121 -122 -147 -148 -168 -170 -177 -178 0
-21 -40 -41 -58 -59 -92 -93 -107 -108 -121 -122 -147 -148 -169 -170 -177 -179 0
-21 -40 -41 -58 -59 -92 -93 -107 -108 -121 -122 -147 -148 -169 -170 -178 -179 0
-21 -40 -41 -58 -59 -92 -93 -107 -108 -121 -122 -147 -148 -169 -170 -187 -188 0
-21 -40 -41 -58 -59 -92 -93 -107 -108 -121 -122 -147 -148 -179 -180 -187 -188 0
-20 -39 -40 -57 -58 -91 -92 -106 -107 -120 -121 -158 -159 -168 -169 -177 -178 0
-21 -39 -41 -57 -58 -91 -92 -106 -107 -120 -121 -158 -159 -168 -169 -177 -178 0
-21 -40 -41 -57 -59 -91 -92 -106 -107 -120 -121 -158 -159 -168 -169 -177 -178 0
-21 -40 -41 -58 -59 -91 -93 -106 -107 -120 -121 -158 -159 -168 -169 -177 -178 0
-21 -40 -41 -58 -59 -92 -93 -106 -108 -120 -121 -158 -159 -168 -169 -177 -178 0
-21 -40 -41 -58 -59 -92 -93 -107 -108 -120 -122 -158 -159 -168 -169 -177 -178 0
-21 -40 -41 -58 -59 -92 -93 -107 -108 -121 -122 -158 -160 -168 -169 -177 -178 0
-21 -40 -41 -58 -59 -92 -93 -107 -108 -121 -122 -159 -160 -168 -170 -177 -178 0
-21 -40 -41 -58 -59 -92 -93 -107 -108 -121 -122 -159 -160 -169 -170 -177 -179 0
-21 -40 -41 -58 -59 -92 -93 -107 -108 -121 -122 -159 -160 -169 -170 -178 -179 0
-21 -40 -41 -58 -59 -92 -93 -107 -108 -121 -122 -159 -160 -169 -170 -187 -188 0
-21 -40 -41 -58 -59 -92 -93 -107 -108 -121 -122 -159 -160 -179 -180 -187 -188 0
-21 -40 -41 -58 -59 -92 -93 -107 -108 -121 -122 -170 -171 -179 -180 -187 -188 0
-19 -38 -39 -56 -57 -90 -91 -105 -106 -133 -134 -145 -146 -156 -157 -166 -167 0
-20 -38 -40 -56 -57 -90 -91 -105 -106 -133 -134 -145 -146 -156 -157 -166 -167 0
-21 -38 -41 -56 -57 -90 -91 -105 -106 -133 -134 -145 -146 -156 -157 -166 -167 0
-20 -39 -40 -56 -58 -90 -91 -105 -106 -133 -134 -145 -146 -156 -157 -166 -167 0
-21 -39 -41 -56 -58 -90 -91 -105 -106 -133 -134 -145 -146 -156 -157 -166 -167 0
-21 -40 -41 -56 -59 -90 -91 -105 -106 -133 -134 -145 -146 -156 -157 -166 -167 0
-20 -39 -40 -57 -58 -90 -92 -105 -106 -133 -134 -145 -146 -156 -157 -166 -167 0
-21 -39 -41 -57 -58 -90 -92 -105 -106 -133 -134 -145 -146 -156 -157 -166 -167 0
-21 -40 -41 -57 -59 -90 -92 -105 -106 -133 -134 -145 -146 -156 -157 -166 -167 0
-21 -40 -41 -58 -59 -90 -93 -105 -106 -133 -134 -145 -146 -156 -157 -166 -167 0
-20 -39 -40 -57 -58 -91 -92 -105 -107 -133 -134 -145 -146 -156 -157 -166 -167 0
-21 -39 -41 -57 -58 -91 -92 -105 -107 -133 -134 -145 -146 -156 -157 -166 -167 0
-21 -40 -41 -57 -59 -91 -92 -105 -107 -133 -134 -145 -146 -156 -157 -166 -167 0
-21 -40 -41 -58 -59 -91 -93 -105 -107 -133 -134 -145 -146 -156 -157 -166 -167 0
-21 -40 -41 -58 -59 -92 -93 -105 -108 -133 -134 -145 -146 -156 -157 -166 -167 0
-20 -39 -40 -57 -58 -91 -92 -106 -107 -133 -135 -145 -146 -156 -157 -166 -167 0
-21 -39 -41 -57 -58 -91 -92 -106 -107 -133 -135 -145 -146 -156 -157 -166 -167 0
-21 -40 -41 -57 -59 -91 -92 -106 -107 -133 -135 -145 -146 -156 -157 -166 -167 0
-21 -40 -41 -58 -59 -91 -93 -106 -107 -133 -135 -145 -146 -156 -157 -166 -167 0
-21 -40 -41 -58 -59 -92 -93 -106 -108 -133 -135 -145 -146 -156 -157 -166 -167 0
-21 -40 -41 -58 -59 -92 -93 -107 -108 -133 -136 -145 -146 -156 -157 -166 -167 0
-20 -39 -40 -57 -58 -91 -92 -106 -107 -134 -135 -145 -147 -156 -157 -166 -167 0
-21 -39 -41 -57 -58 -91 -92 -106 -107 -134 -135 -145 -147 -156 -157 -166 -167 0
-21 -40 -41 -57 -59 -91 -92 -106 -107 -134 -135 -145 -147 -156 -157 -166 -167 0
-21 -40 -41 -58 -59 -91 -93 -106 -107 -134 -135 -145 -147 -156 -157 -166 -167 0
-21 -40 -41 -58 -59 -92 -93 -106 -108 -134 -135 -145 -147 -156 -157 -166 -167 0
-21 -40 -41 -58 -59 -92 -93 -107 -108 -134 -136 -145 -147 -156 -157 -166 -167 0
-21 -40 -41 -58 -59 -92 -93 -107 -108 -135 -136 -145 -148 -156 -157 -166 -167 0
-20 -39 -40 -57 -58 -91 -92 -106 -107 -134 -135 -146 -147 -156 -158 -166 -167 0
-21 -39 -41 -57 -58 -91 -92 -106 -107 -134 -135 -146 -147 -156 -158 -166 -167 0
-21 -40 -41 -57 -59 -91 -92 -106 -107 -134 -135 -146 -147 -156 -158 -166 -167 0
-21 -40 -41 -58 -59 -91 -93 -106 -107 -134 -135 -146 -147 -156 -158 -166 -167 0
-21 -40 -41 -58 -59 -92 -93 -106 -108 -134 -135 -146 -147 -156 -158 -166 -167 0
-21 -40 -41 -58 -59 -92 -93 -107 -108 -134 -136 -146 -147 -156 -158 -166 -167 0
-21 -40 -41 -58 -59 -92 -93 -107 -108 -135 -136 -146 -148 -156 -158 -166 -167 0
-21 -40 -41 -58 -59 -92 -93 -107 -108 -135 -136 -147 -148 -156 -159 -166 -167 0
-20 -39 -40 -57 -58 -91 -92 -106 -107 -134 -135 -146 -147 -157 -158 -166 -168 0
-21 -39 -41 -57 -58 -91 -92 -106 -107 -134 -135 -146 -147 -157 -158 -166 -168 0
-21 -40 -41 -57 -59 -91 -92 -106 -107 -134 -135 -146 -147 -157 -158 -166 -168 0
-21 -40 -41 -58 -59 -91 -93 -106 -107 -134 -135 -146 -147 -157 -158 -166 -168 0
-21 -40 -41 -58 -59 -92 -93 -106 -108 -134 -135 -146 -147 -157 -158 -166 -168 0
-21 -40 -41 -58 -59 -92 -93 -107 -108 -134 -136 -146 -147 -157 -158 -166 -168 0
-21 -40 -41 -58 -59 -92 -93 -107 -108 -135 -136 -146 -148 -157 -158 -166 -168 0
-21 -40 -41 -58 -59 -92 -93 -107 -108 -135 -136 -147 -148 -157 -159 -166 -168 0
-21 -40 -41 -58 -59 -92 -93 -107 -108 -135 -136 -147 -148 -158 -159 -166 -169 0
-20 -39 -40 -57 -58 -91 -92 -106 -107 -134 -135 -146 -147 -157 -158 -167 -168 0
-21 -39 -41 -57 -58 -91 -92 -106 -107 -134 -135 -146 -147 -157 -158 -167 -168 0
-21 -40 -41 -57 -59 -91 -92 -106 -107 -134 -135 -146 -147 -157 -158 -167 -168 0
-21 -40 -41 -58 -59 -91 -93 -106 -107 -134 -135 -146 -147 -157 -158 -167 -168 0
-21 -40 -41 -58 -59 -92 -93 -106 -108 -134 -135 -146 -147 -157 -158 -167 -168 0
-21 -40 -41 -58 -59 -92 -93 -107 -108 -134 -136 -146 -147 -157 -158 -167 -168 0
-21 -40 -41 -58 -59 -92 -93 -107 -108 -135 -136 -146 -148 -157 -158 -167 -168 0
-21 -40 -41 -58 -59 -92 -93 -107 -108 -135 -136 -147 -148 -157 -159 -167 -168 0
-21 -40 -41 -58 -59 -92 -93 -107 -108 -135 -136 -147 -148 -158 -159 -167 -169 0
-21 -40 -41 -58 -59 -92 -93 -107 -108 -135 -136 -147 -148 -158 -159 -168 -169 0
-20 -39 -40 -57 -58 -91 -92 -106 -107 -134 -135 -146 -147 -157 -158 -177 -178 0
-21 -39 -41 -57 -58 -91 -92 -106 -107 -134 -135 -146 -147 -157 -158 -177 -178 0
-21 -40 -41 -57 -59 -91 -92 -106 -107 -134 -135 -146 -147 -157 -158 -177 -178 0
-21 -40 -41 -58 -59 -91 -93 -106 -107 -134 -135 -146 -147 -157 -158 -177 -178 0
-21 -40 -41 -58 -59 -92 -93 -106 -108 -134 -135 -146 -147 -157 -158 -177 -178 0
-21 -40 -41 -58 -59 -92 -93 -107 -108 -134 -136 -146 -147 -157 -158 -177 -178 0
-21 -40 -41 -58 -59 -92 -93 -107 -108 -135 -136 -146 -148 -157 -158 -177 -178 0
-21 -40 -41 -58 -59 -92 -93 -107 -108 -135 -136 -147 -148 -157 -159 -177 -178 0
-21 -40 -41 -58 -59 -92 -93 -107 -108 -135 -136 -147 -148 -158 -159 -177 -179 0
-21 -40 -41 -58 -59 -92 -93 -107 -108 -135 -136 -147 -148 -158 -159 -178 -179 0
-21 -40 -41 -58 -59 -92 -93 -107 -108 -135 -136 -147 -148 -158 -159 -187 -188 0
-20 -39 -40 -57 -58 -91 -92 -106 -107 -134 -135 -146 -147 -168 -169 -177 -178 0
-21 -39 -41 -57 -58 -91 -92 -106 -107 -134 -135 -146 -147 -168 -169 -177 -178 0
-21 -40 -41 -57 -59 -91 -92 -106 -107 -134 -135 -146 -147 -168 -169 -177 -178 0
-21 -40 -41 -58 -59 -91 -93 -106 -107 -134 -135 -146 -147 -168 -169 -177 -178 0
-21 -40 -41 -58 -59 -92 -93 -106 -108 -134 -135 -146 -147 -168 -169 -177 -178 0
-21 -40 -41 -58 -59 -92 -93 -107 -108 -134 -136 -146 -147 -168 -169 -177 -178 0
-21 -40 -41 -58 -59 -92 -93 -107 -108 -135 -136 -146 -148 -168 -169 -177 -178 0
-21 -40 -41 -58 -59 -92 -93 -107 -108 -135 -136 -147 -148 -168 -170 -177 -178 0
-21 -40 -41 -58 -59 -92 -93 -107 -108 -135 -136 -147 -148 -169 -170 -177 -179 0
-21 -40 -41 -58 -59 -92 -93 -107 -108 -135 -136 -147 -148 -169 -170 -178 -179 0
-21 -40 -41 -58 -59 -92 -93 -107 -108 -135 -136 -147 -148 -169 -170 -187 -188 0
-21 -40 -41 -58 -59 -92 -93 -107 -108 -135 -136 -147 -148 -179 -180 -187 -188 0
-20 -39 -40 -57 -58 -91 -92 -106 -107 -134 -135 -158 -159 -168 -169 -177 -178 0
-21 -39 -41 -57 -58 -91 -92 -106 -107 -134 -135 -158 -159 -168 -169 -177 -178 0
-21 -40 -41 -57 -59 -91 -92 -106 -107 -134 -135 -158 -159 -168 -169 -177 -178 0
-21 -40 -41 -58 -59 -91 -93 -106 -107 -134 -135 -158 -159 -168 -169 -177 -178 0
-21 -40 -41 -58 -59 -92 -93 -106 -108 -134 -135 -158 -159 -168 -169 -177 -178 0
-21 -40 -41 -58 -59 -92 -93 -107 -108 -134 -136 -158 -159 -168 -169 -177 -178 0
-21 -40 -41 -58 -59 -92 -93 -107 -108 -135 -136 -158 -160 -168 -169 -177 -178 0
-21 -40 -41 -58 -59 -92 -93 -107 -108 -135 -136 -159 -160 -168 -170 -177 -178 0
-21 -40 -41 -58 -59 -92 -93 -107 -108 -135 -136 -159 -160 -169 -170 -177 -179 0
-21 -40 -41 -58 -59 -92 -93 -107 -108 -135 -136 -159 -160 -169 -170 -178 -179 0
-21 -40 -41 -58 -59 -92 -93 -107 -108 -135 -136 -159 -160 -169 -170 -187 -188 0
-21 -40 -41 -58 -59 -92 -93 -107 -108 -135 -136 -159 -160 -179 -180 -187 -188 0
-21 -40 -41 -58 -59 -92 -93 -107 -108 -135 -136 -170 -171 -179 -180 -187 -188 0
-20 -39 -40 -57 -58 -91 -92 -106 -107 -147 -148 -158 -159 -168 -169 -177 -178 0
-21 -39 -41 -57 -58 -91 -92 -106 -107 -147 -148 -158 -159 -168 -169 -177 -178 0
-21 -40 -41 -57 -59 -91 -92 -106 -107 -147 -148 -158 -159 -168 -169 -177 -178 0
-21 -40 -41 -58 -59 -91 -93 -106 -107 -147 -148 -158 -159 -168 -169 -177 -178 0
-21 -40 -41 -58 -59 -92 -93 -106 -108 -147 -148 -158 -159 -168 -169 -177 -178 0
-21 -40 -41 -58 -59 -92 -93 -107 -108 -147 -149 -158 -159 -168 -169 -177 -178 0
-21 -40 -41 -58 -59 -92 -93 -107 -108 -148 -149 -158 -160 -168 -169 -177 -178 0
-21 -40 -41 -58 -59 -92 -93 -107 -108 -148 -149 -159 -160 -168 -170 -177 -178 0
-21 -40 -41 -58 -59 -92 -93 -107 -108 -148 -149 -159 -160 -169 -170 -177 -179 0
-21 -40 -41 -58 -59 -92 -93 -107 -108 -148 -149 -159 -160 -169 -170 -178 -179 0
-21 -40 -41 -58 -59 -92 -93 -107 -108 -148 -149 -159 -160 -169 -170 -187 -188 0
-21 -40 -41 -58 -59 -92 -93 -107 -108 -148 -149 -159 -160 -179 -180 -187 -188 0
-21 -40 -41 -58 -59 -92 -93 -107 -108 -148 -149 -170 -171 -179 -180 -187 -188 0
-21 -40 -41 -58 -59 -92 -93 -107 -108 -160 -161 -170 -171 -179 -180 -187 -188 0
-19 -38 -39 -56 -57 -90 -91 -120 -121 -133 -134 -145 -146 -156 -157 -166 -167 0
-20 -38 -40 -56 -57 -90 -91 -120 -121 -133 -134 -145 -146 -156 -157 -166 -167 0
-21 -38 -41 -56 -57 -90 -91 -120 -121 -133 -134 -145 -146 -156 -157 -166 -167 0
-20 -39 -40 -56 -58 -90 -91 -120 -121 -133 -134 -145 -146 -156 -157 -166 -167 0
-21 -39 -41 -56 -58 -90 -91 -120 -121 -133 -134 -145 -146 -156 -157 -166 -167 0
-21 -40 -41 -56 -59 -90 -91 -120 -121 -133 -134 -145 -146 -156 -157 -166 -167 0
-20 -39 -40 -57 -58 -90 -92 -120 -121 -133 -134 -145 -146 -156 -157 -166 -167 0
-21 -39 -41 -57 -58 -90 -92 -120 -121 -133 -134 -145 -146 -156 -157 -166 -167 0
-21 -40 -41 -57 -59 -90 -92 -120 -121 -133 -134 -145 -146 -156 -157 -166 -167 0
-21 -40 -41 -58 -59 -90 -93 -120 -121 -133 -134 -145 -146 -156 -157 -166 -167 0
-20 -39 -40 -57 -58 -91 -92 -120 -122 -133 -134 -145 -146 -156 -157 -166 -167 0
-21 -39 -41 -57 -58 -91 -92 -120 -122 -133 -134 -145 -146 -156 -157 -166 -167 0
-21 -40 -41 -57 -59 -91 -92 -120 -122 -133 -134 -145 -146 -156 -157 -166 -167 0
-21 -40 -41 -58 -59 -91 -93 -120 -122 -133 -134 -145 -146 -156 -157 -166 -167 0
-21 -40 -41 -58 -59 -92 -93 -120 -123 -133 -134 -145 -146 -156 -157 -166 -167 0
-20 -39 -40 -57 -58 -91 -92 -121 -122 -133 -135 -145 -146 -156 -157 -166 -167 0
-21 -39 -41 -57 -58 -91 -92 -121 -122 -133 -135 -145 -146 -156 -157 -166 -167 0
-21 -40 -41 -57 -59 -91 -92 -121 -122 -133 -135 -145 -146 -156 -157 -166 -167 0
-21 -40 -41 -58 -59 -91 -93 -121 -122 -133 -135 -145 -146 -156 -157 -166 -167 0
-21 -40 -41 -58 -59 -92 -93 -121 -123 -133 -135 -145 -146 -156 -157 -166 -167 0
-21 -40 -41 -58 -59 -92 -93 -122 -123 -133 -136 -145 -146 -156 -157 -166 -167 0
-20 -39 -40 -57 -58 -91 -92 -121 -122 -134 -135 -145 -147 -156 -157 -166 -167 0
-21 -39 -41 -57 -58 -91 -92 -121 -122 -134 -135 -145 -147 -156 -157 -166 -167 0
-21 -40 -41 -57 -59 -91 -92 -121 -122 -134 -135 -145 -147 -156 -157 -166 -167 0
-21 -40 -41 -58 -59 -91 -93 -121 -122 -134 -135 -145 -147 -156 -157 -166 -167 0
-21 -40 -41 -58 -59 -92 -93 -121 -123 -134 -135 -145 -147 -156 -157 -166 -167 0
-21 -40 -41 -58 -59 -92 -93 -122 -123 -134 -136 -145 -147 -156 -157 -166 -167 0
-21 -40 -41 -58 -59 -92 -93 -122 -123 -135 -136 -145 -148 -156 -157 -166 -167 0
-20 -39 -40 -57 -58 -91 -92 -121 -122 -134 -135 -146 -147 -156 -158 -166 -167 0
-21 -39 -41 -57 -58 -91 -92 -121 -122 -134 -135 -146 -147 -156 -158 -166 -167 0
-21 -40 -41 -57 -59 -91 -92 -121 -122 -134 -135 -146 -147 -156 -158 -166 -167 0
-21 -40 -41 -58 -59 -91 -93 -121 -122 -134 -135 -146 -147 -156 -158 -166 -167 0
-21 -40 -41 -58 -59 -92 -93 -121 -123 -134 -135 -146 -147 -156 -158 -166 -167 0
-21 -40 -41 -58 -59 -92 -93 -122 -123 -134 -136 -146 -147 -156 -158 -166 -167 0
-21 -40 -41 -58 -59 -92 -93 -122 -123 -135 -136 -146 -148 -156 -158 -166 -167 0
-21 -40 -41 -58 -59 -92 -93 -122 -123 -135 -136 -147 -148 -156 -159 -166 -167 0
-20 -39 -40 -57 -58 -91 -92 -121 -122 -134 -135 -146 -147 -157 -158 -166 -168 0
-21 -39 -41 -57 -58 -91 -92 -121 -122 -134 -135 -146 -147 -157 -158 -166 -168 0
-21 -40 -41 -57 -59 -91 -92 -121 -122 -134 -135 -146 -147 -157 -158 -166 -168 0
-21 -40 -41 -58 -59 -91 -93 -121 -122 -134 -135 -146 -147 -157 -158 -166 -168 0
-21 -40 -41 -58 -59 -92 -93 -121 -123 -134 -135 -146 -147 -157 -158 -166 -168 0
-21 -40 -41 -58 -59 -92 -93 -122 -123 -134 -136 -146 -147 -157 -158 -166 -168 0
-21 -40 -41 -58 -59 -92 -93 -122 -123 -135 -136 -146 -148 -157 -158 -166 -168 0
-21 -40 -41 -58 -59 -92 -93 -122 -123 -135 -136 -147 -148 -157 -159 -166 -168 0
-21 -40 -41 -58 -59 -92 -93 -122 -123 -135 -136 -147 -148 -158 -159 -166 -169 0
-20 -39 -40 -57 -58 -91 -92 -121 -122 -134 -135 -146 -147 -157 -158 -167 -168 0
-21 -39 -41 -57 -58 -91 -92 -121 -122 -134 -135 -146 -147 -157 -158 -167 -168 0
-21 -40 -41 -57 -59 -91 -92 -121 -122 -134 -135 -146 -147 -157 -158 -167 -168 0
-21 -40 -41 -58 -59 -91 -93 -121 -122 -134 -135 -146 -147 -157 -158 -167 -168 0
-21 -40 -41 -58 -59 -92 -93 -121 -123 -134 -135 -146 -147 -157 -158 -167 -168 0
-21 -40 -41 -58 -59 -92 -93 -122 -123 -134 -136 -146 -147 -157 -158 -167 -168 0
-21 -40 -41 -58 -59 -92 -93 -122 -123 -135 -136 -146 -148 -157 -158 -167 -168 0
-21 -40 -41 -58 -59 -92 -93 -122 -123 -135 -136 -147 -148 -157 -159 -167 -168 0
-21 -40 -41 -58 -59 -92 -93 -122 -123 -135 -136 -147 -148 -158 -159 -167 -169 0
-21 -40 -41 -58 -59 -92 -93 -122 -123 -135 -136 -147 -148 -158 -159 -168 -169 0
-20 -39 -40 -57 -58 -91 -92 -121 -122 -134 -135 -146 -147 -157 -158 -177 -178 0
-21 -39 -41 -57 -58 -91 -92 -121 -122 -134 -135 -146 -147 -157 -158 -177 -178 0
-21 -40 -41 -57 -59 -91 -92 -121 -122 -134 -135 -146 -147 -157 -158 -177 -178 0
-21 -40 -41 -58 -59 -91 -93 -121 -122 -134 -135 -146 -147 -157 -158 -177 -178 0
-21 -40 -41 -58 -59 -92 -93 -121 -123 -134 -135 -146 -147 -157 -158 -177 -178 0
-21 -40 -41 -58 -59 -92 -93 -122 -123 -134 -136 -146 -147 -157 -158 -177 -178 0
-21 -40 -41 -58 -59 -92 -93 -122 -123 -135 -136 -146 -148 -157 -158 -177 -178 0
-21 -40 -41 -58 -59 -92 -93 -122 -123 -135 -136 -147 -148 -157 -159 -177 -178 0
-21 -40 -41 -58 -59 -92 -93 -122 -123 -135 -136 -147 -148 -158 -159 -177 -179 0
-21 -40 -41 -58 -59 -92 -93 -122 -123 -135 -136 -147 -148 -158 -159 -178 -179 0
-21 -40 -41 -58 -59 -92 -93 -122 -123 -135 -136 -147 -148 -158 -159 -187 -188 0
-20 -39 -40 -57 -58 -91 -92 -121 -122 -134 -135 -146 -147 -168 -169 -177 -178 0
-21 -39 -41 -57 -58 -91 -92 -121 -122 -134 -135 -146 -147 -168 -169 -177 -178 0
-21 -40 -41 -57 -59 -91 -92 -121 -122 -134 -135 -146 -147 -168 -169 -177 -178 0
-21 -40 -41 -58 -59 -91 -93 -121 -122 -134 -135 -146 -147 -168 -169 -177 -178 0
-21 -40 -41 -58 -59 -92 -93 -121 -123 -134 -135 -146 -147 -168 -169 -177 -178 0
-21 -40 -41 -58 -59 -92 -93 -122 -123 -134 -136 -146 -147 -168 -169 -177 -178 0
-21 -40 -41 -58 -59 -92 -93 -122 -123 -135 -136 -146 -148 -168 -169 -177 -178 0
-21 -40 -41 -58 -59 -92 -93 -122 -123 -135 -136 -147 -148 -168 -170 -177 -178 0
-21 -40 -41 -58 -59 -92 -93 -122 -123 -135 -136 -147 -148 -169 -170 -177 -179 0
-21 -40 -41 -58 -59 -92 -93 -122 -123 -135 -136 -147 -148 -169 -170 -178 -179 0
-21 -40 -41 -58 -59 -92 -93 -122 -123 -135 -136 -147 -148 -169 -170 -187 -188 0
-21 -40 -41 -58 -59 -92 -93 -122 -123 -135 -136 -147 -148 -179 -180 -187 -188 0
-20 -39 -40 -57 -58 -91 -92 -121 -122 -134 -135 -158 -159 -168 -169 -177 -178 0
-21 -39 -41 -57 -58 -91 -92 -121 -122 -134 -135 -158 -159 -168 -169 -177 -178 0
-21 -40 -41 -57 -59 -91 -92 -121 -122 -134 -135 -158 -159 -168 -169 -177 -178 0
-21 -40 -41 -58 -59 -91 -93 -121 -122 -134 -135 -158 -159 -168 -169 -177 -178 0
-21 -40 -41 -58 -59 -92 -93 -121 -123 -134 -135 -158 -159 -168 -169 -177 -178 0
-21 -40 -41 -58 -59 -92 -93 -122 -123 -134 -136 -158 -159 -168 -169 -177 -178 0
-21 -40 -41 -58 -59 -92 -93 -122 -123 -135 -136 -158 -160 -168 -169 -177 -178 0
-21 -40 -41 -58 -59 -92 -93 -122 -123 -135 -136 -159 -160 -168 -170 -177 -178 0
-21 -40 -41 -58 -59 -92 -93 -122 -123 -135 -136 -159 -160 -169 -170 -177 -179 0
-21 -40 -41 -58 -59 -92 -93 -122 -123 -135 -136 -159 -160 -169 -170 -178 -179 0
-21 -40 -41 -58 -59 -92 -93 -122 -123 -135 -136 -159 -160 -169 -170 -187 -188 0
-21 -40 -41 -58 -59 -92 -93 -122 -123 -135 -136 -159 -160 -179 -180 -187 -188 0
-21 -40 -41 -58 -59 -92 -93 -122 -123 -135 -136 -170 -171 -179 -180 -187 -188 0
-20 -39 -40 -57 -58 -91 -92 -121 -122 -147 -148 -158 -159 -168 -169 -177 -178 0
-21 -39 -41 -57 -58 -91 -92 -121 -122 -147 -148 -158 -159 -168 -169 -177 -178 0
-21 -40 -41 -57 -59 -91 -92 -121 -122 -147 -148 -158 -159 -168 -169 -177 -178 0
-21 -40 -41 -58 -59 -91 -93 -121 -122 -147 -148 -158 -159 -168 -169 -177 -178 0
-21 -40 -41 -58 -59 -92 -93 -121 -123 -147 -148 -158 -159 -168 -169 -177 -178 0
-21 -40 -41 -58 -59 -92 -93 -122 -123 -147 -149 -158 -159 -168 -169 -177 -178 0
-21 -40 -41 -58 -59 -92 -93 -122 -123 -148 -149 -158 -160 -168 -169 -177 -178 0
-21 -40 -41 -58 -59 -92 -93 -122 -123 -148 -149 -159 -160 -168 -170 -177 -178 0
-21 -40 -41 -58 -59 -92 -93 -122 -123 -148 -149 -159 -160 -169 -170 -177 -179 0
-21 -40 -41 -58 -59 -92 -93 -122 -123 -148 -149 -159 -160 -169 -170 -178 -179 0
-21 -40 -41 -58 -59 -92 -93 -122 -123 -148 -149 -159 -160 -169 -170 -187 -188 0
-21 -40 -41 -58 -59 -92 -93 -122 -123 -148 -149 -159 -160 -179 -180 -187 -188 0
-21 -40 -41 -58 -59 -92 -93 -122 -123 -148 -149 -170 -171 -179 -180 -187 -188 0
-21 -40 -41 -58 -59 -92 -93 -122 -123 -160 -161 -170 -171 -179 -180 -187 -188 0
-20 -39 -40 -57 -58 -91 -92 -135 -136 -147 -148 -158 -159 -168 -169 -177 -178 0
-21 -39 -41 -57 -58 -91 -92 -135 -136 -147 -148 -158 -159 -168 -169 -177 -178 0
-21 -40 -41 -57 -59 -91 -92 -135 -136 -147 -148 -158 -159 -168 -169 -177 -178 0
-21 -40 -41 -58 -59 -91 -93 -135 -136 -147 -148 -158 -159 -168 -169 -177 -178 0
-21 -40 -41 -58 -59 -92 -93 -135 -137 -147 -148 -158 -159 -168 -169 -177 -178 0
-21 -40 -41 -58 -59 -92 -93 -136 -137 -147 -149 -158 -159 -168 -169 -177 -178 0
-21 -40 -41 -58 -59 -92 -93 -136 -137 -148 -149 -158 -160 -168 -169 -177 -178 0
-21 -40 -41 -58 -59 -92 -93 -136 -137 -148 -149 -159 -160 -168 -170 -177 -178 0
-21 -40 -41 -58 -59 -92 -93 -136 -137 -148 -149 -159 -160 -169 -170 -177 -179 0
-21 -40 -41 -58 -59 -92 -93 -136 -137 -148 -149 -159 -160 -169 -170 -178 -179 0
-21 -40 -41 -58 -59 -92 -93 -136 -137 -148 -149 -159 -160 -169 -170 -187 -188 0
-21 -40 -41 -58 -59 -92 -93 -136 -137 -148 -149 -159 -160 -179 -180 -187 -188 0
-21 -40 -41 -58 -59 -92 -93 -136 -137 -148 -149 -170 -171 -179 -180 -187 -188 0
-21 -40 -41 -58 -59 -92 -93 -136 -137 -160 -161 -170 -171 -179 -180 -187 -188 0
-21 -40 -41 -58 -59 -92 -93 -149 -150 -160 -161 -170 -171 -179 -180 -187 -188 0
-19 -38 -39 -56 -57 -106 -107 -120 -121 -133 -134 -145 -146 -156 -157 -166 -167 0
-20 -38 -40 -56 -57 -106 -107 -120 -121 -133 -134 -145 -146 -156 -157 -166 -167 0
-21 -38 -41 -56 -57 -106 -107 -120 -121 -133 -134 -145 -146 -156 -157 -166 -167 0
-20 -39 -40 -56 -58 -106 -107 -120 -121 -133 -134 -145 -146 -156 -157 -166 -167 0
-21 -39 -41 -56 -58 -106 -107 -120 -121 -133 -134 -145 -146 -156 -157 -166 -167 0
-21 -40 -41 -56 -59 -106 -107 -120 -121 -133 -134 -145 -146 -156 -157 -166 -167 0
-20 -39 -40 -57 -58 -106 -108 -120 -121 -133 -134 -145 -146 -156 -157 -166 -167 0
-21 -39 -41 -57 -58 -106 -108 -120 -121 -133 -134 -145 -146 -156 -157 -166 -167 0
-21 -40 -41 -57 -59 -106 -108 -120 -121 -133 -134 -145 -146 -156 -157 -166 -167 0
-21 -40 -41 -58 -59 -106 -109 -120 -121 -133 -134 -145 -146 -156 -157 -166 -167 0
-20 -39 -40 -57 -58 -107 -108 -120 -122 -133 -134 -145 -146 -156 -157 -166 -167 0
-21 -39 -41 -57 -58 -107 -108 -120 -122 -133 -134 -145 -146 -156 -157 -166 -167 0
-21 -40 -41 -57 -59 -107 -108 -120 -122 -133 -134 -145 -146 -156 -157 -166 -167 0
-21 -40 -41 -58 -59 -107 -109 -120 -122 -133 -134 -145 -146 -156 -157 -166 -167 0
-21 -40 -41 -58 -59 -108 -109 -120 -123 -133 -134 -145 -146 -156 -157 -166 -167 0
-20 -39 -40 -57 -58 -107 -108 -121 -122 -133 -135 -145 -146 -156 -157 -166 -167 0
-21 -39 -41 -57 -58 -107 -108 -121 -122 -133 -135 -145 -146 -156 -157 -166 -167 0
-21 -40 -41 -57 -59 -107 -108 -121 -122 -133 -135 -145 -146 -156 -157 -166 -167 0
-21 -40 -41 -58 -59 -107 -109 -121 -122 -133 -135 -145 -146 -156 -157 -166 -167 0
-21 -40 -41 -58 -59 -108 -109 -121 -123 -133 -135 -145 -146 -156 -157 -166 -167 0
-21 -40 -41 -58 -59 -108 -109 -122 -123 -133 -136 -145 -146 -156 -157 -166 -167 0
-20 -39 -40 -57 -58 -107 -108 -121 -122 -134 -135 -145 -147 -156 -157 -166 -167 0
-21 -39 -41 -57 -58 -107 -108 -121 -122 -134 -135 -145 -147 -156 -157 -166 -167 0
-21 -40 -41 -57 -59 -107 -108 -121 -122 -134 -135 -145 -147 -156 -157 -166 -167 0
-21 -40 -41 -58 -59 -107 -109 -121 -122 -134 -135 -145 -147 -156 -157 -166 -167 0
-21 -40 -41 -58 -59 -108 -109 -121 -123 -134 -135 -145 -147 -156 -157 -166 -167 0
-21 -40 -41 -58 -59 -108 -109 -122 -123 -134 -136 -145 -147 -156 -157 -166 -167 0
-21 -40 -41 -58 -59 -108 -109 -122 -123 -135 -136 -145 -148 -156 -157 -166 -167 0
-20 -39 -40 -57 -58 -107 -108 -121 -122 -134 -135 -146 -147 -156 -158 -166 -167 0
-21 -39 -41 -57 -58 -107 -108 -121 -122 -134 -135 -146 -147 -156 -158 -166 -167 0
-21 -40 -41 -57 -59 -107 -108 -121 -122 -134 -135 -146 -147 -156 -158 -166 -167 0
-21 -40 -41 -58 -59 -107 -109 -121 -122 -134 -135 -146 -147 -156 -158 -166 -167 0
-21 -40 -41 -58 -59 -108 -109 -121 -123 -134 -135 -146 -147 -156 -158 -166 -167 0
-21 -40 -41 -58 -59 -108 -109 -122 -123 -134 -136 -146 -147 -156 -158 -166 -167 0
-21 -40 -41 -58 -59 -108 -109 -122 -123 -135 -136 -146 -148 -156 -158 -166 -167 0
-21 -40 -41 -58 -59 -108 -109 -122 -123 -135 -136 -147 -148 -156 -159 -166 -167 0
-20 -39 -40 -57 -58 -107 -108 -121 -122 -134 -135 -146 -147 -157 -158 -166 -168 0
-21 -39 -41 -57 -58 -107 -108 -121 -122 -134 -135 -146 -147 -157 -158 -166 -168 0
-21 -40 -41 -57 -59 -107 -108 -121 -122 -134 -135 -146 -147 -157 -158 -166 -168 0
-21 -40 -41 -58 -59 -107 -109 -121 -122 -134 -135 -146 -147 -157 -158 -166 -168 0
-21 -40 -41 -58 -59 -108 -109 -121 -123 -134 -135 -146 -147 -157 -158 -166 -168 0
-21 -40 -41 -58 -59 -108 -109 -122 -123 -134 -136 -146 -147 -157 -158 -166 -168 0
-21 -40 -41 -58 -59 -108 -109 -122 -123 -135 -136 -146 -148 -157 -158 -166 -168 0
-21 -40 -41 -58 -59 -108 -109 -122 -123 -135 -136 -147 -148 -157 -159 -166 -168 0
-21 -40 -41 -58 -59 -108 -109 -122 -123 -135 -136 -147 -148 -158 -159 -166 -169 0
-20 -39 -40 -57 -58 -107 -108 -121 -122 -134 -135 -146 -147 -157 -158 -167 -168 0
-21 -39 -41 -57 -58 -107 -108 -121 -122 -134 -135 -146 -147 -157 -158 -167 -168 0
-21 -40 -41 -57 -59 -107 -108 -121 -122 -134 -135 -146 -147 -157 -158 -167 -168 0
-21 -40 -41 -58 -59 -107 -109 -121 -122 -134 -135 -146 -147 -157 -158 -167 -168 0
-21 -40 -41 -58 -59 -108 -109 -121 -123 -134 -135 -146 -147 -157 -158 -167 -168 0
-21 -40 -41 -58 -59 -108 -109 -122 -123 -134 -136 -146 -147 -157 -158 -167 -168 0
-21 -40 -41 -58 -59 -108 -109 -122 -123 -135 -136 -146 -148 -157 -158 -167 -168 0
-21 -40 -41 -58 -59 -108 -109 -122 -123 -135 -136 -147 -148 -157 -159 -167 -168 0
-21 -40 -41 -58 -59 -108 -109 -122 -123 -135 -136 -147 -148 -158 -159 -167 -169 0
-21 -40 -41 -58 -59 -108 -109 -122 -123 -135 -136 -147 -148 -158 -159 -168 -169 0
-20 -39 -40 -57 -58 -107 -108 -121 -122 -134 -135 -146 -147 -157 -158 -177 -178 0
-21 -39 -41 -57 -58 -107 -108 -121 -122 -134 -135 -146 -147 -157 -158 -177 -178 0
-21 -40 -41 -57 -59 -107 -108 -121 -122 -134 -135 -146 -147 -157 -158 -177 -178 0
-21 -40 -41 -58 -59 -107 -109 -121 -122 -134 -135 -146 -147 -157 -158 -177 -178 0
-21 -40 -41 -58 -59 -108 -109 -121 -123 -134 -135 -146 -147 -157 -158 -177 -178 0
-21 -40 -41 -58 -59 -108 -109 -122 -123 -134 -136 -146 -147 -157 -158 -177 -178 0
-21 -40 -41 -58 -59 -108 -109 -122 -123 -135 -136 -146 -148 -157 -158 -177 -178 0
-21 -40 -41 -58 -59 -108 -109 -122 -123 -135 -136 -147 -148 -157 -159 -177 -178 0
-21 -40 -41 -58 -59 -108 -109 -122 -123 -135 -136 -147 -148 -158 -159 -177 -179 0
-21 -40 -41 -58 -59 -108 -109 -122 -123 -135 -136 -147 -148 -158 -159 -178 -179 0
-21 -40 -41 -58 -59 -108 -109 -122 -123 -135 -136 -147 -148 -158 -159 -187 -188 0
-20 -39 -40 -57 -58 -107 -108 -121 -122 -134 -135 -146 -147 -168 -169 -177 -178 0
-21 -39 -41 -57 -58 -107 -108 -121 -122 -134 -135 -146 -147 -168 -169 -177 -178 0
-21 -40 -41 -57 -59 -107 -108 -121 -122 -134 -135 -146 -147 -168 -169 -177 -178 0
-21 -40 -41 -58 -59 -107 -109 -121 -122 -134 -135 -146 -147 -168 -169 -177 -178 0
-21 -40 -41 -58 -59 -108 -109 -121 -123 -134 -135 -146 -147 -168 -169 -177 -178 0
-21 -40 -41 -58 -59 -108 -109 -122 -123 -134 -136 -146 -147 -168 -169 -177 -178 0
-21 -40 -41 -58 -59 -108 -109 -122 -123 -135 -136 -146 -148 -168 -169 -177 -178 0
-21 -40 -41 -58 -59 -108 -109 -122 -123 -135 -136 -147 -148 -168 -170 -177 -178 0
-21 -40 -41 -58 -59 -108 -109 -122 -123 -135 -136 -147 -148 -169 -170 -177 -179 0
-21 -40 -41 -58 -59 -108 -109 -122 -123 -135 -136 -147 -148 -169 -170 -178 -179 0
-21 -40 -41 -58 -59 -108 -109 -122 -123 -135 -136 -147 -148 -169 -170 -187 -188 0
-21 -40 -41 -58 -59 -108 -109 -122 -123 -135 -136 -147 -148 -179 -180 -187 -188 0
-20 -39 -40 -57 -58 -107 -108 -121 -122 -134 -135 -158 -159 -168 -169 -177 -178 0
-21 -39 -41 -57 -58 -107 -108 -121 -122 -134 -135 -158 -159 -168 -169 -177 -178 0
-21 -40 -41 -57 -59 -107 -108 -121 -122 -134 -135 -158 -159 -168 -169 -177 -178 0
-21 -40 -41 -58 -59 -107 -109 -121 -122 -134 -135 -158 -159 -168 -169 -177 -178 0
-21 -40 -41 -58 -59 -108 -109 -121 -123 -134 -135 -158 -159 -168 -169 -177 -178 0
-21 -40 -41 -58 -59 -108 -109 -122 -123 -134 -136 -158 -159 -168 -169 -177 -178 0
-21 -40 -41 -58 -59 -108 -109 -122 -123 -135 -136 -158 -160 -168 -169 -177 -178 0
-21 -40 -41 -58 -59 -108 -109 -122 -123 -135 -136 -159 -160 -168 -170 -177 -178 0
-21 -40 -41 -58 -59 -108 -109 -122 -123 -135 -136 -159 -160 -169 -170 -177 -179 0
-21 -40 -41 -58 -59 -108 -109 -122 -123 -135 -136 -159 -160 -169 -170 -178 -179 0
-21 -40 -41 -58 -59 -108 -109 -122 -123 -135 -136 -159 -160 -169 -170 -187 -188 0
-21 -40 -41 -58 -59 -108 -109 -122 -123 -135 -136 -159 -160 -179 -180 -187 -188 0
-21 -40 -41 -58 -59 -108 -109 -122 -123 -135 -136 -170 -171 -179 -180 -187 -188 0
-20 -39 -40 -57 -58 -107 -108 -121 -122 -147 -148 -158 -159 -168 -169 -177 -178 0
-21 -39 -41 -57 -58 -107 -108 -121 -122 -147 -148 -158 -159 -168 -169 -177 -178 0
-21 -40 -41 -57 -59 -107 -108 -121 -122 -147 -148 -158 -159 -168 -169 -177 -178 0
-21 -40 -41 -58 -59 -107 -109 -121 -122 -147 -148 -158 -159 -168 -169 -177 -178 0
-21 -40 -41 -58 -59 -108 -109 -121 -123 -147 -148 -158 -159 -168 -169 -177 -178 0
-21 -40 -41 -58 -59 -108 -109 -122 -123 -147 -149 -158 -159 -168 -169 -177 -178 0
-21 -40 -41 -58 -59 -108 -109 -122 -123 -148 -149 -158 -160 -168 -169 -177 -178 0
-21 -40 -41 -58 -59 -108 -109 -122 -123 -148 -149 -159 -160 -168 -170 -177 -178 0
-21 -40 -41 -58 -59 -108 -109 -122 -123 -148 -149 -159 -160 -169 -170 -177 -179 0
-21 -40 -41 -58 -59 -108 -109 -122 -123 -148 -149 -159 -160 -169 -170 -178 -179 0
-21 -40 -41 -58 -59 -108 -109 -122 -123 -148 -149 -159 -160 -169 -170 -187 -188 0
-21 -40 -41 -58 -59 -108 -109 -122 -123 -148 -149 -159 -160 -179 -180 -187 -188 0
-21 -40 -41 -58 -59 -108 -109 -122 -123 -148 -149 -170 -171 -179 -180 -187 -188 0
-21 -40 -41 -58 -59 -108 -109 -122 -123 -160 -161 -170 -171 -179 -180 -187 -188 0
-20 -39 -40 -57 -58 -107 -108 -135 -136 -147 -148 -158 -159 -168 -169 -177 -178 0
-21 -39 -41 -57 -58 -107 -108 -135 -136 -147 -148 -158 -159 -168 -169 -177 -178 0
-21 -40 -41 -57 -59 -107 -108 -135 -136 -147 -148 -158 -159 -168 -169 -177 -178 0
-21 -40 -41 -58 -59 -107 -109 -135 -136 -147 -148 -158 -159 -168 -169 -177 -178 0
-21 -40 -41 -58 -59 -108 -109 -135 -137 -147 -148 -158 -159 -168 -169 -177 -178 0
-21 -40 -41 -58 -59 -108 -109 -136 -137 -147 -149 -158 -159 -168 -169 -177 -178 0
-21 -40 -41 -58 -59 -108 -109 -136 -137 -148 -149 -158 -160 -168 -169 -177 -178 0
-21 -40 -41 -58 -59 -108 -109 -136 -137 -148 -149 -159 -160 -168 -170 -177 -178 0
-21 -40 -41 -58 -59 -108 -109 -136 -137 -148 -149 -159 -160 -169 -170 -177 -179 0
-21 -40 -41 -58 -59 -108 -109 -136 -137 -148 -149 -159 -160 -169 -170 -178 -179 0
-21 -40 -41 -58 -59 -108 -109 -136 -137 -148 -149 -159 -160 -169 -170 -187 -188 0
-21 -40 -41 -58 -59 -108 -109 -136 -137 -148 -149 -159 -160 -179 -180 -187 -188 0
-21 -40 -41 -58 -59 -108 -109 -136 -137 -148 -149 -170 -171 -179 -180 -187 -188 0
-21 -40 -41 -58 -59 -108 -109 -136 -137 -160 -161 -170 -171 -179 -180 -187 -188 0
-21 -40 -41 -58 -59 -108 -109 -149 -150 -160 -161 -170 -171 -179 -180 -187 -188 0
-20 -39 -40 -57 -58 -122 -123 -135 -136 -147 -148 -158 -159 -168 -169 -177 -178 0
-21 -39 -41 -57 -58 -122 -123 -135 -136 -147 -148 -158 -159 -168 -169 -177 -178 0
-21 -40 -41 -57 -59 -122 -123 -135 -136 -147 -148 -158 -159 -168 -169 -177 -178 0
-21 -40 -41 -58 -59 -122 -124 -135 -136 -147 -148 -158 -159 -168 -169 -177 -178 0
-21 -40 -41 -58 -59 -123 -124 -135 -137 -147 -148 -158 -159 -168 -169 -177 -178 0
-21 -40 -41 -58 -59 -123 -124 -136 -137 -147 -149 -158 -159 -168 -169 -177 -178 0
-21 -40 -41 -58 -59 -123 -124 -136 -137 -148 -149 -158 -160 -168 -169 -177 -178 0
-21 -40 -41 -58 -59 -123 -124 -136 -137 -148 -149 -159 -160 -168 -170 -177 -178 0
-21 -40 -41 -58 -59 -123 -124 -136 -137 -148 -149 -159 -160 -169 -170 -177 -179 0
-21 -40 -41 -58 -59 -123 -124 -136 -137 -148 -149 -159 -160 -169 -170 -178 -179 0
-21 -40 -41 -58 -59 -123 -124 -136 -137 -148 -149 -159 -160 -169 -170 -187 -188 0
-21 -40 -41 -58 -59 -123 -124 -136 -137 -148 -149 -159 -160 -179 -180 -187 -188 0
-21 -40 -41 -58 -59 -123 -124 -136 -137 -148 -149 -170 -171 -179 -180 -187 -188 0
-21 -40 -41 -58 -59 -123 -124 -136 -137 -160 -161 -170 -171 -179 -180 -187 -188 0
-21 -40 -41 -58 -59 -123 -124 -149 -150 -160 -161 -170 -171 -179 -180 -187 -188 0
-21 -40 -41 -58 -59 -137 -138 -149 -150 -160 -161 -170 -171 -179 -180 -187 -188 0
-18 -37 -38 -73 -74 -89 -90 -104 -105 -118 -119 -131 -132 -143 -144 -154 -155 0
-19 -37 -39 -73 -74 -89 -90 -104 -105 -118 -119 -131 -132 -143 -144 -154 -155 0
-20 -37 -40 -73 -74 -89 -90 -104 -105 -118 -119 -131 -132 -143 -144 -154 -155 0
-21 -37 -41 -73 -74 -89 -90 -104 -105 -118 -119 -131 -132 -143 -144 -154 -155 0
-19 -38 -39 -73 -75 -89 -90 -104 -105 -118 -119 -131 -132 -143 -144 -154 -155 0
-20 -38 -40 -73 -75 -89 -90 -104 -105 -118 -119 -131 -132 -143 -144 -154 -155 0
-21 -38 -41 -73 -75 -89 -90 -104 -105 -118 -119 -131 -132 -143 -144 -154 -155 0
-20 -39 -40 -73 -76 -89 -90 -104 -105 -118 -119 -131 -132 -143 -144 -154 -155 0
-21 -39 -41 -73 -76 -89 -90 -104 -105 -118 -119 -131 -132 -143 -144 -154 -155 0
-21 -40 -41 -73 -77 -89 -90 -104 -105 -118 -119 -131 -132 -143 -144 -154 -155 0
-19 -38 -39 -74 -75 -89 -91 -104 -105 -118 -119 -131 -132 -143 -144 -154 -155 0
-20 -38 -40 -74 -75 -89 -91 -104 -105 -118 -119 -131 -132 -143 -144 -154 -155 0
-21 -38 -41 -74 -75 -89 -91 -104 -105 -118 -119 -131 -132 -143 -144 -154 -155 0
-20 -39 -40 -74 -76 -89 -91 -104 -105 -118 -119 -131 -132 -143 -144 -154 -155 0
-21 -39 -41 -74 -76 -89 -91 -104 -105 -118 -119 -131 -132 -143 -144 -154 -155 0
-21 -40 -41 -74 -77 -89 -91 -104 -105 -118 -119 -131 -132 -143 -144 -154 -155 0
-20 -39 -40 -75 -76 -89 -92 -104 -105 -118 -119 -131 -132 -143 -144 -154 -155 0
-21 -39 -41 -75 -76 -89 -92 -104 -105 -118 -119 -131 -132 -143 -144 -154 -155 0
-21 -40 -41 -75 -77 -89 -92 -104 -105 -118 -119 -131 -132 -143 -144 -154 -155 0
-21 -40 -41 -76 -77 -89 -93 -104 -105 -118 -119 -131 -132 -143 -144 -154 -155 0
-19 -38 -39 -74 -75 -90 -91 -104 -106 -118 -119 -131 -132 -143 -144 -154 -155 0
-20 -38 -40 -74 -75 -90 -91 -104 -106 -118 -119 -131 -132 -143 -144 -154 -155 0
-21 -38 -41 -74 -75 -90 -91 -104 -106 -118 -119 -131 -132 -143 -144 -154 -155 0
-20 -39 -40 -74 -76 -90 -91 -104 -106 -118 -119 -131 -132 -143 -144 -154 -155 0
-21 -39 -41 -74 -76 -90 -91 -104 -106 -118 -119 -131 -132 -143 -144 -154 -155 0
-21 -40 -41 -74 -77 -90 -91 -104 -106 -118 -119 -131 -132 -143 -144 -154 -155 0
-20 -39 -40 -75 -76 -90 -92 -104 -106 -118 -119 -131 -132 -143 -144 -154 -155 0
-21 -39 -41 -75 -76 -90 -92 -104 -106 -118 -119 -131 -132 -143 -144 -154 -155 0
-21 -40 -41 -75 -77 -90 -92 -104 -106 -118 -119 -131 -132 -143 -144 -154 -155 0
-21 -40 -41 -76 -77 -90 -93 -104 -106 -118 -119 -131 -132 -143 -144 -154 -155 0
-20 -39 -40 -75 -76 -91 -92 -104 -107 -118 -119 -131 -132 -143 -144 -154 -155 0
-21 -39 -41 -75 -76 -91 -92 -104 -107 -118 -119 -131 -132 -143 -144 -154 -155 0
-21 -40 -41 -75 -77 -91 -92 -104 -107 -118 -119 -131 -132 -143 -144 -154 -155 0
-21 -40 -41 -76 -77 -91 -93 -104 -107 -118 -119 -131 -132 -143 -144 -154 -155 0
-21 -40 -41 -76 -77 -92 -93 -104 -108 -118 -119 -131 -132 -143 -144 -154 -155 0
-19 -38 -39 -74 -75 -90 -91 -105 -106 -118 -120 -131 -132 -143 -144 -154 -155 0
-20 -38 -40 -74 -75 -90 -91 -105 -106 -118 -120 -131 -132 -143 -144 -154 -155 0
-21 -38 -41 -74 -75 -90 -91 -105 -106 -118 -120 -131 -132 -143 -144 -154 -155 0
-20 -39 -40 -74 -76 -90 -91 -105 -106 -118 -120 -131 -132 -143 -144 -154 -155 0
-21 -39 -41 -74 -76 -90 -91 -105 -106 -118 -120 -131 -132 -143 -144 -154 -155 0
-21 -40 -41 -74 -77 -90 -91 -105 -106 -118 -120 -131 -132 -143 -144 -154 -155 0
-20 -39 -40 -75 -76 -90 -92 -105 -106 -118 -120 -131 -132 -143 -144 -154 -155 0
-21 -39 -41 -75 -76 -90 -92 -105 -106 -118 -120 -131 -132 -143 -144 -154 -155 0
-21 -40 -41 -75 -77 -90 -92 -105 -106 -118 -120 -131 -132 -143 -144 -154 -155 0
-21 -40 -41 -76 -77 -90 -93 -105 -106 -118 -120 -131 -132 -143 -144 -154 -155 0
-20 -39 -40 -75 -76 -91 -92 -105 -107 -118 -120 -131 -132 -143 -144 -154 -155 0
-21 -39 -41 -75 -76 -91 -92 -105 -107 -118 -120 -131 -132 -143 -144 -154 -155 0
-21 -40 -41 -75 -77 -91 -92 -105 -107 -118 -120 -131 -132 -143 -144 -154 -155 0
-21 -40 -41 -76 -77 -91 -93 -105 -107 -118 -120 -131 -132 -143 -144 -154 -155 0
-21 -40 -41 -76 -77 -92 -93 -105 -108 -118 -120 -131 -132 -143 -144 -154 -155 0
-20 -39 -40 -75 -76 -91 -92 -106 -107 -118 -121 -131 -132 -143 -144 -154 -155 0
-21 -39 -41 -75 -76 -91 -92 -106 -107 -118 -121 -131 -132 -143 -144 -154 -155 0
-21 -40 -41 -75 -77 -91 -92 -106 -107 -118 -121 -131 -132 -143 -144 -154 -155 0
-21 -40 -41 -76 -77 -91 -93 -106 -107 -118 -121 -131 -132 -143 -144 -154 -155 0
-21 -40 -41 -76 -77 -92 -93 -106 -108 -118 -121 -131 -132 -143 -144 -154 -155 0
-21 -40 -41 -76 -77 -92 -93 -107 -108 -118 -122 -131 -132 -143 -144 -154 -155 0
-19 -38 -39 -74 -75 -90 -91 -105 -106 -119 -120 -131 -133 -143 -144 -154 -155 0
-20 -38 -40 -74 -75 -90 -91 -105 -106 -119 -120 -131 -133 -143 -144 -154 -155 0
-21 -38 -41 -74 -75 -90 -91 -105 -106 -119 -120 -131 -133 -143 -144 -154 -155 0
-20 -39 -40 -74 -76 -90 -91 -105 -106 -119 -120 -131 -133 -143 -144 -154 -155 0
-21 -39 -41 -74 -76 -90 -91 -105 -106 -119 -120 -131 -133 -143 -144 -154 -155 0
-21 -40 -41 -74 -77 -90 -91 -105 -106 -119 -120 -131 -133 -143 -144 -154 -155 0
-20 -39 -40 -75 -76 -90 -92 -105 -106 -119 -120 -131 -133 -143 -144 -154 -155 0
-21 -39 -41 -75 -76 -90 -92 -105 -106 -119 -120 -131 -133 -143 -144 -154 -155 0
-21 -40 -41 -75 -77 -90 -92 -105 -106 -119 -120 -131 -133 -143 -144 -154 -155 0
-21 -40 -41 -76 -77 -90 -93 -105 -106 -119 -120 -131 -133 -143 -144 -154 -155 0
-20 -39 -40 -75 -76 -91 -92 -105 -107 -119 -120 -131 -133 -143 -144 -154 -155 0
-21 -39 -41 -75 -76 -91 -92 -105 -107 -119 -120 -131 -133 -143 -144 -154 -155 0
-21 -40 -41 -75 -77 -91 -92 -105 -107 -119 -120 -131 -133 -143 -144 -154 -155 0
-21 -40 -41 -76 -77 -91 -93 -105 -107 -119 -120 -131 -133 -143 -144 -154 -155 0
-21 -40 -41 -76 -77 -92 -93 -105 -108 -119 -120 -131 -133 -143 -144 -154 -155 0
-20 -39 -40 -75 -76 -91 -92 -106 -107 -119 -121 -131 -133 -143 -144 -154 -155 0
-21 -39 -41 -75 -76 -91 -92 -106 -107 -119 -121 -131 -133 -143 -144 -154 -155 0
-21 -40 -41 -75 -77 -91 -92 -106 -107 -119 -121 -131 -133 -143 -144 -154 -155 0
-21 -40 -41 -76 -77 -91 -93 -106 -107 -119 -121 -131 -133 -143 -144 -154 -155 0
-21 -40 -41 -76 -77 -92 -93 -106 -108 -119 -121 -131 -133 -143 -144 -154 -155 0
-21 -40 -41 -76 -77 -92 -93 -107 -108 -119 -122 -131 -133 -143 -144 -154 -155 0
-20 -39 -40 -75 -76 -91 -92 -106 -107 -120 -121 -131 -134 -143 -144 -154 -155 0
-21 -39 -41 -75 -76 -91 -92 -106 -107 -120 -121 -131 -134 -143 -144 -154 -155 0
-21 -40 -41 -75 -77 -91 -92 -106 -107 -120 -121 -131 -134 -143 -144 -154 -155 0
-21 -40 -41 -76 -77 -91 -93 -106 -107 -120 -121 -131 -134 -143 -144 -154 -155 0
-21 -40 -41 -76 -77 -92 -93 -106 -108 -120 -121 -131 -134 -143 -144 -154 -155 0
-21 -40 -41 -76 -77 -92 -93 -107 -108 -120 -122 -131 -134 -143 -144 -154 -155 0
-21 -40 -41 -76 -77 -92 -93 -107 -108 -121 -122 -131 -135 -143 -144 -154 -155 0
-19 -38 -39 -74 -75 -90 -91 -105 -106 -119 -120 -132 -133 -143 -145 -154 -155 0
-20 -38 -40 -74 -75 -90 -91 -105 -106 -119 -120 -132 -133 -143 -145 -154 -155 0
-21 -38 -41 -74 -75 -90 -91 -105 -106 -119 -120 -132 -133 -143 -145 -154 -155 0
-20 -39 -40 -74 -76 -90 -91 -105 -106 -119 -120 -132 -133 -143 -145 -154 -155 0
-21 -39 -41 -74 -76 -90 -91 -105 -106 -119 -120 -132 -133 -143 -145 -154 -155 0
-21 -40 -41 -74 -77 -90 -91 -105 -106 -119 -120 -132 -133 -143 -145 -154 -155 0
-20 -39 -40 -75 -76 -90 -92 -105 -106 -119 -120 -132 -133 -143 -145 -154 -155 0
-21 -39 -41 -75 -76 -90 -92 -105 -106 -119 -120 -132 -133 -143 -145 -154 -155 0
-21 -40 -41 -75 -77 -90 -92 -105 -106 -119 -120 -132 -133 -143 -145 -154 -155 0
-21 -40 -41 -76 -77 -90 -93 -105 -106 -119 -120 -132 -133 -143 -145 -154 -155 0
-20 -39 -40 -75 -76 -91 -92 -105 -107 -119 -120 -132 -133 -143 -145 -154 -155 0
-21 -39 -41 -75 -76 -91 -92 -105 -107 -119 -120 -132 -133 -143 -145 -154 -155 0
-21 -40 -41 -75 -77 -91 -92 -105 -107 -119 -120 -132 -133 -143 -145 -154 -155 0
-21 -40 -41 -76 -77 -91 -93 -105 -107 -119 -120 -132 -133 -143 -145 -154 -155 0
-21 -40 -41 -76 -77 -92 -93 -105 -108 -119 -120 -132 -133 -143 -145 -154 -155 0
-20 -39 -40 -75 -76 -91 -92 -106 -107 -119 -121 -132 -133 -143 -145 -154 -155 0
-21 -39 -41 -75 -76 -91 -92 -106 -107 -119 -121 -132 -133 -143 -145 -154 -155 0
-21 -40 -41 -75 -77 -91 -92 -106 -107 -119 -121 -132 -133 -143 -145 -154 -155 0
-21 -40 -41 -76 -77 -91 -93 -106 -107 -119 -121 -132 -133 -143 -145 -154 -155 0
-21 -40 -41 -76 -77 -92 -93 -106 -108 -119 -121 -132 -133 -143 -145 -154 -155 0
-21 -40 -41 -76 -77 -92 -93 -107 -108 -119 -122 -132 -133 -143 -145 -154 -155 0
-20 -39 -40 -75 -76 -91 -92 -106 -107 -120 -121 -132 -134 -143 -145 -154 -155 0
-21 -39 -41 -75 -76 -91 -92 -106 -107 -120 -121 -132 -134 -143 -145 -154 -155 0
-21 -40 -41 -75 -77 -91 -92 -106 -107 -120 -121 -132 -134 -143 -145 -154 -155 0
-21 -40 -41 -76 -77 -91 -93 -106 -107 -120 -121 -132 -134 -143 -145 -154 -155 0
-21 -40 -41 -76 -77 -92 -93 -106 -108 -120 -121 -132 -134 -143 -145 -154 -155 0
-21 -40 -41 -76 -77 -92 -93 -107 -108 -120 -122 -132 -134 -143 -145 -154 -155 0
-21 -40 -41 -76 -77 -92 -93 -107 -108 -121 -122 -132 -135 -143 -145 -154 -155 0
-20 -39 -40 -75 -76 -91 -92 -106 -107 -120 -121 -133 -134 -143 -146 -154 -155 0
-21 -39 -41 -75 -76 -91 -92 -106 -107 -120 -121 -133 -134 -143 -146 -154 -155 0
-21 -40 -41 -75 -77 -91 -92 -106 -107 -120 -121 -133 -134 -143 -146 -154 -155 0
-21 -40 -41 -76 -77 -91 -93 -106 -107 -120 -121 -133 -134 -143 -146 -154 -155 0
-21 -40 -41 -76 -77 -92 -93 -106 -108 -120 -121 -133 -134 -143 -146 -154 -155 0
-21 -40 -41 -76 -77 -92 -93 -107 -108 -120 -122 -133 -134 -143 -146 -154 -155 0
-21 -40 -41 -76 -77 -92 -93 -107 -108 -121 -122 -133 -135 -143 -146 -154 -155 0
-21 -40 -41 -76 -77 -92 -93 -107 -108 -121 -122 -134 -135 -143 -147 -154 -155 0
-19 -38 -39 -74 -75 -90 -91 -105 -106 -119 -120 -132 -133 -144 -145 -154 -156 0
-20 -38 -40 -74 -75 -90 -91 -105 -106 -119 -120 -132 -133 -144 -145 -154 -156 0
-21 -38 -41 -74 -75 -90 -91 -105 -106 -119 -120 -132 -133 -144 -145 -154 -156 0
-20 -39 -40 -74 -76 -90 -91 -105 -106 -119 -120 -132 -133 -144 -145 -154 -156 0
-21 -39 -41 -74 -76 -90 -91 -105 -106 -119 -120 -132 -133 -144 -145 -154 -156 0
-21 -40 -41 -74 -77 -90 -91 -105 -106 -119 -120 -132 -133 -144 -145 -154 -156 0
-20 -39 -40 -75 -76 -90 -92 -105 -106 -119 -120 -132 -133 -144 -145 -154 -156 0
-21 -39 -41 -75 -76 -90 -92 -105 -106 -119 -120 -132 -133 -144 -145 -154 -156 0
-21 -40 -41 -75 -77 -90 -92 -105 -106 -119 -120 -132 -133 -144 -145 -154 -156 0
-21 -40 -41 -76 -77 -90 -93 -105 -106 -119 -120 -132 -133 -144 -145 -154 -156 0
-20 -39 -40 -75 -76 -91 -92 -105 -107 -119 -120 -132 -133 -144 -145 -154 -156 0
-21 -39 -41 -75 -76 -91 -92 -105 -107 -119 -120 -132 -133 -144 -145 -154 -156 0
-21 -40 -41 -75 -77 -91 -92 -105 -107 -119 -120 -132 -133 -144 -145 -154 -156 0
-21 -40 -41 -76 -77 -91 -93 -105 -107 -119 -120 -132 -133 -144 -145 -154 -156 0
-21 -40 -41 -76 -77 -92 -93 -105 -108 -119 -120 -132 -133 -144 -145 -154 -156 0
-20 -39 -40 -75 -76 -91 -92 -106 -107 -119 -121 -132 -133 -144 -145 -154 -156 0
-21 -39 -41 -75 -76 -91 -92 -106 -107 -119 -121 -132 -133 -144 -145 -154 -156 0
-21 -40 -41 -75 -77 -91 -92 -106 -107 -119 -121 -132 -133 -144 -145 -154 -156 0
-21 -40 -41 -76 -77 -91 -93 -106 -107 -119 -121 -132 -133 -144 -145 -154 -156 0
-21 -40 -41 -76 -77 -92 -93 -106 -108 -119 -121 -132 -133 -144 -145 -154 -156 0
-21 -40 -41 -76 -77 -92 -93 -107 -108 -119 -122 -132 -133 -144 -145 -154 -156 0
-20 -39 -40 -75 -76 -91 -92 -106 -107 -120 -121 -132 -134 -144 -145 -154 -156 0
-21 -39 -41 -75 -76 -91 -92 -106 -107 -120 -121 -132 -134 -144 -145 -154 -156 0
-21 -40 -41 -75 -77 -91 -92 -106 -107 -120 -121 -132 -134 -144 -145 -154 -156 0
-21 -40 -41 -76 -77 -91 -93 -106 -107 -120 -121 -132 -134 -144 -145 -154 -156 0
-21 -40 -41 -76 -77 -92 -93 -106 -108 -120 -121 -132 -134 -144 -145 -154 -156 0
-21 -40 -41 -76 -77 -92 -93 -107 -108 -120 -122 -132 -134 -144 -145 -154 -156 0
-21 -40 -41 -76 -77 -92 -93 -107 -108 -121 -122 -132 -135 -144 -145 -154 -156 0
-20 -39 -40 -75 -76 -91 -92 -106 -107 -120 -121 -133 -134 -144 -146 -154 -156 0
-21 -39 -41 -75 -76 -91 -92 -106 -107 -120 -121 -133 -134 -144 -146 -154 -156 0
-21 -40 -41 -75 -77 -91 -92 -106 -107 -120 -121 -133 -134 -144 -146 -154 -156 0
-21 -40 -41 -76 -77 -91 -93 -106 -107 -120 -121 -133 -134 -144 -146 -154 -156 0
-21 -40 -41 -76 -77 -92 -93 -106 -108 -120 -121 -133 -134 -144 -146 -154 -156 0
-21 -40 -41 -76 -77 -92 -93 -107 -108 -120 -122 -133 -134 -144 -146 -154 -156 0
-21 -40 -41 -76 -77 -92 -93 -107 -108 -121 -122 -133 -135 -144 -146 -154 -156 0
-21 -40 -41 -76 -77 -92 -93 -107 -108 -121 -122 -134 -135 -144 -147 -154 -156 0
-20 -39 -40 -75 -76 -91 -92 -106 -107 -120 -121 -133 -134 -145 -146 -154 -157 0
-21 -39 -41 -75 -76 -91 -92 -106 -107 -120 -121 -133 -134 -145 -146 -154 -157 0
-21 -40 -41 -75 -77 -91 -92 -106 -107 -120 -121 -133 -134 -145 -146 -154 -157 0
-21 -40 -41 -76 -77 -91 -93 -106 -107 -120 -121 -133 -134 -145 -146 -154 -157 0
-21 -40 -41 -76 -77 -92 -93 -106 -108 -120 -121 -133 -134 -145 -146 -154 -157 0
-21 -40 -41 -76 -77 -92 -93 -107 -108 -120 -122 -133 -134 -145 -146 -154 -157 0
-21 -40 -41 -76 -77 -92 -93 -107 -108 -121 -122 -133 -135 -145 -146 -154 -157 0
-21 -40 -41 -76 -77 -92 -93 -107 -108 -121 -122 -134 -135 -145 -147 -154 -157 0
-21 -40 -41 -76 -77 -92 -93 -107 -108 -121 -122 -134 -135 -146 -147 -154 -158 0
-19 -38 -39 -74 -75 -90 -91 -105 -106 -119 -120 -132 -133 -144 -145 -155 -156 0
-20 -38 -40 -74 -75 -90 -91 -105 -106 -119 -120 -132 -133 -144 -145 -155 -156 0
-21 -38 -41 -74 -75 -90 -91 -105 -106 -119 -120 -132 -133 -144 -145 -155 -156 0
-20 -39 -40 -74 -76 -90 -91 -105 -106 -119 -120 -132 -133 -144 -145 -155 -156 0
-21 -39 -41 -74 -76 -90 -91 -105 -106 -119 -120 -132 -133 -144 -145 -155 -156 0
-21 -40 -41 -74 -77 -90 -91 -105 -106 -119 -120 -132 -133 -144 -145 -155 -156 0
-20 -39 -40 -75 -76 -90 -92 -105 -106 -119 -120 -132 -133 -144 -145 -155 -156 0
-21 -39 -41 -75 -76 -90 -92 -105 -106 -119 -120 -132 -133 -144 -145 -155 -156 0
-21 -40 -41 -75 -77 -90 -92 -105 -106 -119 -120 -132 -133 -144 -145 -155 -156 0
-21 -40 -41 -76 -77 -90 -93 -105 -106 -119 -120 -132 -133 -144 -145 -155 -156 0
-20 -39 -40 -75 -76 -91 -92 -105 -107 -119 -120 -132 -133 -144 -145 -155 -156 0
-21 -39 -41 -75 -76 -91 -92 -105 -107 -119 -120 -132 -133 -144 -145 -155 -156 0
-21 -40 -41 -75 -77 -91 -92 -105 -107 -119 -120 -132 -133 -144 -145 -155 -156 0
-21 -40 -41 -76 -77 -91 -93 -105 -107 -119 -120 -132 -133 -144 -145 -155 -156 0
-21 -40 -41 -76 -77 -92 -93 -105 -108 -119 -120 -132 -133 -144 -145 -155 -156 0
-20 -39 -40 -75 -76 -91 -92 -106 -107 -119 -121 -132 -133 -144 -145 -155 -156 0
-21 -39 -41 -75 -76 -91 -92 -106 -107 -119 -121 -132 -133 -144 -145 -155 -156 0
-21 -40 -41 -75 -77 -91 -92 -106 -107 -119 -121 -132 -133 -144 -145 -155 -156 0
-21 -40 -41 -76 -77 -91 -93 -106 -107 -119 -121 -132 -133 -144 -145 -155 -156 0
-21 -40 -41 -76 -77 -92 -93 -106 -108 -119 -121 -132 -133 -144 -145 -155 -156 0
-21 -40 -41 -76 -77 -92 -93 -107 -108 -119 -122 -132 -133 -144 -145 -155 -156 0
-20 -39 -40 -75 -76 -91 -92 -106 -107 -120 -121 -132 -134 -144 -145 -155 -156 0
-21 -39 -41 -75 -76 -91 -92 -106 -107 -120 -121 -132 -134 -144 -145 -155 -156 0
-21 -40 -41 -75 -77 -91 -92 -106 -107 -120 -121 -132 -134 -144 -145 -155 -156 0
-21 -40 -41 -76 -77 -91 -93 -106 -107 -120 -121 -132 -134 -144 -145 -155 -156 0
-21 -40 -41 -76 -77 -92 -93 -106 -108 -120 -121 -132 -134 -144 -145 -155 -156 0
-21 -40 -41 -76 -77 -92 -93 -107 -108 -120 -122 -132 -134 -144 -145 -155 -156 0
-21 -40 -41 -76 -77 -92 -93 -107 -108 -121 -122 -132 -135 -144 -145 -155 -156 0
-20 -39 -40 -75 -76 -91 -92 -106 -107 -120 -121 -133 -134 -144 -146 -155 -156 0
-21 -39 -41 -75 -76 -91 -92 -106 -107 -120 -121 -133 -134 -144 -146 -155 -156 0
-21 -40 -41 -75 -77 -91 -92 -106 -107 -120 -121 -133 -134 -144 -146 -155 -156 0
-21 -40 -41 -76 -77 -91 -93 -106 -107 -120 -121 -133 -134 -144 -146 -155 -156 0
-21 -40 -41 -76 -77 -92 -93 -106 -108 -120 -121 -133 -134 -144 -146 -155 -156 0
-21 -40 -41 -76 -77 -92 -93 -107 -108 -120 -122 -133 -134 -144 -146 -155 -156 0
-21 -40 -41 -76 -77 -92 -93 -107 -108 -121 -122 -133 -135 -144 -146 -155 -156 0
-21 -40 -41 -76 -77 -92 -93 -107 -108 -121 -122 -134 -135 -144 -147 -155 -156 0
-20 -39 -40 -75 -76 -91 -92 -106 -107 -120 -121 -133 -134 -145 -146 -155 -157 0
-21 -39 -41 -75 -76 -91 -92 -106 -107 -120 -121 -133 -134 -145 -146 -155 -157 0
-21 -40 -41 -75 -77 -91 -92 -106 -107 -120 -121 -133 -134 -145 -146 -155 -157 0
-21 -40 -41 -76 -77 -91 -93 -106 -107 -120 -121 -133 -134 -145 -146 -155 -157 0
-21 -40 -41 -76 -77 -92 -93 -106 -108 -120 -121 -133 -134 -145 -146 -155 -157 0
-21 -40 -41 -76 -77 -92 -93 -107 -108 -120 -122 -133 -134 -145 -146 -155 -157 0
-21 -40 -41 -76 -77 -92 -93 -107 -108 -121 -122 -133 -135 -145 -146 -155 -157 0
-21 -40 -41 -76 -77 -92 -93 -107 -108 -121 -122 -134 -135 -145 -147 -155 -157 0
-21 -40 -41 -76 -77 -92 -93 -107 -108 -121 -122 -134 -135 -146 -147 -155 -158 0
-20 -39 -40 -75 -76 -91 -92 -106 -107 -120 -121 -133 -134 -145 -146 -156 -157 0
-21 -39 -41 -75 -76 -91 -92 -106 -107 -120 -121 -133 -134 -145 -146 -156 -157 0
-21 -40 -41 -75 -77 -91 -92 -106 -107 -120 -121 -133 -134 -145 -146 -156 -157 0
-21 -40 -41 -76 -77 -91 -93 -106 -107 -120 -121 -133 -134 -145 -146 -156 -157 0
-21 -40 -41 -76 -77 -92 -93 -106 -108 -120 -121 -133 -134 -145 -146 -156 -157 0
-21 -40 -41 -76 -77 -92 -93 -107 -108 -120 -122 -133 -134 -145 -146 -156 -157 0
-21 -40 -41 -76 -77 -92 -93 -107 -108 -121 -122 -133 -135 -145 -146 -156 -157 0
-21 -40 -41 -76 -77 -92 -93 -107 -108 -121 -122 -134 -135 -145 -147 -156 -157 0
-21 -40 -41 -76 -77 -92 -93 -107 -108 -121 -122 -134 -135 -146 -147 -156 -158 0
-21 -40 -41 -76 -77 -92 -93 -107 -108 -121 -122 -134 -135 -146 -147 -157 -158 0
-19 -38 -39 -74 -75 -90 -91 -105 -106 -119 -120 -132 -133 -144 -145 -166 -167 0
-20 -38 -40 -74 -75 -90 -91 -105 -106 -119 -120 -132 -133 -144 -145 -166 -167 0
-21 -38 -41 -74 -75 -90 -91 -105 -106 -119 -120 -132 -133 -144 -145 -166 -167 0
-20 -39 -40 -74 -76 -90 -91 -105 -106 -119 -120 -132 -133 -144 -145 -166 -167 0
-21 -39 -41 -74 -76 -90 -91 -105 -106 -119 -120 -132 -133 -144 -145 -166 -167 0
-21 -40 -41 -74 -77 -90 -91 -105 -106 -119 -120 -132 -133 -144 -145 -166 -167 0
-20 -39 -40 -75 -76 -90 -92 -105 -106 -119 -120 -132 -133 -144 -145 -166 -167 0
-21 -39 -41 -75 -76 -90 -92 -105 -106 -119 -120 -132 -133 -144 -145 -166 -167 0
-21 -40 -41 -75 -77 -90 -92 -105 -106 -119 -120 -132 -133 -144 -145 -166 -167 0
-21 -40 -41 -76 -77 -90 -93 -105 -106 -119 -120 -132 -133 -144 -145 -166 -167 0
-20 -39 -40 -75 -76 -91 -92 -105 -107 -119 -120 -132 -133 -144 -145 -166 -167 0
-21 -39 -41 -75 -76 -91 -92 -105 -107 -119 -120 -132 -133 -144 -145 -166 -167 0
-21 -40 -41 -75 -77 -91 -92 -105 -107 -119 -120 -132 -133 -144 -145 -166 -167 0
-21 -40 -41 -76 -77 -91 -93 -105 -107 -119 -120 -132 -133 -144 -145 -166 -167 0
-21 -40 -41 -76 -77 -92 -93 -105 -108 -119 -120 -132 -133 -144 -145 -166 -167 0
-20 -39 -40 -75 -76 -91 -92 -106 -107 -119 -121 -132 -133 -144 -145 -166 -167 0
-21 -39 -41 -75 -76 -91 -92 -106 -107 -119 -121 -132 -133 -144 -145 -166 -167 0
-21 -40 -41 -75 -77 -91 -92 -106 -107 -119 -121 -132 -133 -144 -145 -166 -167 0
-21 -40 -41 -76 -77 -91 -93 -106 -107 -119 -121 -132 -133 -144 -145 -166 -167 0
-21 -40 -41 -76 -77 -92 -93 -106 -108 -119 -121 -132 -133 -144 -145 -166 -167 0
-21 -40 -41 -76 -77 -92 -93 -107 -108 -119 -122 -132 -133 -144 -145 -166 -167 0
-20 -39 -40 -75 -76 -91 -92 -106 -107 -120 -121 -132 -134 -144 -145 -166 -167 0
-21 -39 -41 -75 -76 -91 -92 -106 -107 -120 -121 -132 -134 -144 -145 -166 -167 0
-21 -40 -41 -75 -77 -91 -92 -106 -107 -120 -121 -132 -134 -144 -145 -166 -167 0
-21 -40 -41 -76 -77 -91 -93 -106 -107 -120 -121 -132 -134 -144 -145 -166 -167 0
-21 -40 -41 -76 -77 -92 -93 -106 -108 -120 -121 -132 -134 -144 -145 -166 -167 0
-21 -40 -41 -76 -77 -92 -93 -107 -108 -120 -122 -132 -134 -144 -145 -166 -167 0
-21 -40 -41 -76 -77 -92 -93 -107 -108 -121 -122 -132 -135 -144 -145 -166 -167 0
-20 -39 -40 -75 -76 -91 -92 -106 -107 -120 -121 -133 -134 -144 -146 -166 -167 0
-21 -39 -41 -75 -76 -91 -92 -106 -107 -120 -121 -133 -134 -144 -146 -166 -167 0
-21 -40 -41 -75 -77 -91 -92 -106 -107 -120 -121 -133 -134 -144 -146 -166 -167 0
-21 -40 -41 -76 -77 -91 -93 -106 -107 -120 -121 -133 -134 -144 -146 -166 -167 0
-21 -40 -41 -76 -77 -92 -93 -106 -108 -120 -121 -133 -134 -144 -146 -166 -167 0
-21 -40 -41 -76 -77 -92 -93 -107 -108 -120 -122 -133 -134 -144 -146 -166 -167 0
-21 -40 -41 -76 -77 -92 -93 -107 -108 -121 -122 -133 -135 -144 -146 -166 -167 0
-21 -40 -41 -76 -77 -92 -93 -107 -108 -121 -122 -134 -135 -144 -147 -166 -167 0
-20 -39 -40 -75 -76 -91 -92 -106 -107 -120 -121 -133 -134 -145 -146 -166 -168 0
-21 -39 -41 -75 -76 -91 -92 -106 -107 -120 -121 -133 -134 -145 -146 -166 -168 0
-21 -40 -41 -75 -77 -91 -92 -106 -107 -120 -121 -133 -134 -145 -146 -166 -168 0
-21 -40 -41 -76 -77 -91 -93 -106 -107 -120 -121 -133 -134 -145 -146 -166 -168 0
-21 -40 -41 -76 -77 -92 -93 -106 -108 -120 -121 -133 -134 -145 -146 -166 -168 0
-21 -40 -41 -76 -77 -92 -93 -107 -108 -120 -122 -133 -134 -145 -146 -166 -168 0
-21 -40 -41 -76 -77 -92 -93 -107 -108 -121 -122 -133 -135 -145 -146 -166 -168 0
-21 -40 -41 -76 -77 -92 -93 -107 -108 -121 -122 -134 -135 -145 -147 -166 -168 0
-21 -40 -41 -76 -77 -92 -93 -107 -108 -121 -122 -134 -135 -146 -147 -166 -169 0
-20 -39 -40 -75 -76 -91 -92 -106 -107 -120 -121 -133 -134 -145 -146 -167 -168 0
-21 -39 -41 -75 -76 -91 -92 -106 -107 -120 -121 -133 -134 -145 -146 -167 -168 0
-21 -40 -41 -75 -77 -91 -92 -106 -107 -120 -121 -133 -134 -145 -146 -167 -168 0
-21 -40 -41 -76 -77 -91 -93 -106 -107 -120 -121 -133 -134 -145 -146 -167 -168 0
-21 -40 -41 -76 -77 -92 -93 -106 -108 -120 -121 -133 -134 -145 -146 -167 -168 0
-21 -40 -41 -76 -77 -92 -93 -107 -108 -120 -122 -133 -134 -145 -146 -167 -168 0
-21 -40 -41 -76 -77 -92 -93 -107 -108 -121 -122 -133 -135 -145 -146 -167 -168 0
-21 -40 -41 -76 -77 -92 -93 -107 -108 -121 -122 -134 -135 -145 -147 -167 -168 0
-21 -40 -41 -76 -77 -92 -93 -107 -108 -121 -122 -134 -135 -146 -147 -167 -169 0
-21 -40 -41 -76 -77 -92 -93 -107 -108 -121 -122 -134 -135 -146 -147 -168 -169 0
-20 -39 -40 -75 -76 -91 -92 -106 -107 -120 -121 -133 -134 -145 -146 -177 -178 0
-21 -39 -41 -75 -76 -91 -92 -106 -107 -120 -121 -133 -134 -145 -146 -177 -178 0
-21 -40 -41 -75 -77 -91 -92 -106 -107 -120 -121 -133 -134 -145 -146 -177 -178 0
-21 -40 -41 -76 -77 -91 -93 -106 -107 -120 -121 -133 -134 -145 -146 -177 -178 0
-21 -40 -41 -76 -77 -92 -93 -106 -108 -120 -121 -133 -134 -145 -146 -177 -178 0
-21 -40 -41 -76 -77 -92 -93 -107 -108 -120 -122 -133 -134 -145 -146 -177 -178 0
-21 -40 -41 -76 -77 -92 -93 -107 -108 -121 -122 -133 -135 -145 -146 -177 -178 0
-21 -40 -41 -76 -77 -92 -93 -107 -108 -121 -122 -134 -135 -145 -147 -177 -178 0
-21 -40 -41 -76 -77 -92 -93 -107 -108 -121 -122 -134 -135 -146 -147 -177 -179 0
-21 -40 -41 -76 -77 -92 -93 -107 -108 -121 -122 -134 -135 -146 -147 -178 -179 0
-21 -40 -41 -76 -77 -92 -93 -107 -108 -121 -122 -134 -135 -146 -147 -187 -188 0
-19 -38 -39 -74 -75 -90 -91 -105 -106 -119 -120 -132 -133 -156 -157 -166 -167 0
-20 -38 -40 -74 -75 -90 -91 -105 -106 -119 -120 -132 -133 -156 -157 -166 -167 0
-21 -38 -41 -74 -75 -90 -91 -105 -106 -119 -120 -132 -133 -156 -157 -166 -167 0
-20 -39 -40 -74 -76 -90 -91 -105 -106 -119 -120 -132 -133 -156 -157 -166 -167 0
-21 -39 -41 -74 -76 -90 -91 -105 -106 -119 -120 -132 -133 -156 -157 -166 -167 0
-21 -40 -41 -74 -77 -90 -91 -105 -106 -119 -120 -132 -133 -156 -157 -166 -167 0
-20 -39 -40 -75 -76 -90 -92 -105 -106 -119 -120 -132 -133 -156 -157 -166 -167 0
-21 -39 -41 -75 -76 -90 -92 -105 -106 -119 -120 -132 -133 -156 -157 -166 -167 0
-21 -40 -41 -75 -77 -90 -92 -105 -106 -119 -120 -132 -133 -156 -157 -166 -167 0
-21 -40 -41 -76 -77 -90 -93 -105 -106 -119 -120 -132 -133 -156 -157 -166 -167 0
-20 -39 -40 -75 -76 -91 -92 -105 -107 -119 -120 -132 -133 -156 -157 -166 -167 0
-21 -39 -41 -75 -76 -91 -92 -105 -107 -119 -120 -132 -133 -156 -157 -166 -167 0
-21 -40 -41 -75 -77 -91 -92 -105 -107 -119 -120 -132 -133 -156 -157 -166 -167 0
-21 -40 -41 -76 -77 -91 -93 -105 -107 -119 -120 -132 -133 -156 -157 -166 -167 0
-21 -40 -41 -76 -77 -92 -93 -105 -108 -119 -120 -132 -133 -156 -157 -166 -167 0
-20 -39 -40 -75 -76 -91 -92 -106 -107 -119 -121 -132 -133 -156 -157 -166 -167 0
-21 -39 -41 -75 -76 -91 -92 -106 -107 -119 -121 -132 -133 -156 -157 -166 -167 0
-21 -40 -41 -75 -77 -91 -92 -106 -107 -119 -121 -132 -133 -156 -157 -166 -167 0
-21 -40 -41 -76 -77 -91 -93 -106 -107 -119 -121 -132 -133 -156 -157 -166 -167 0
-21 -40 -41 -76 -77 -92 -93 -106 -108 -119 -121 -132 -133 -156 -157 -166 -167 0
-21 -40 -41 -76 -77 -92 -93 -107 -108 -119 -122 -132 -133 -156 -157 -166 -167 0
-20 -39 -40 -75 -76 -91 -92 -106 -107 -120 -121 -132 -134 -156 -157 -166 -167 0
-21 -39 -41 -75 -76 -91 -92 -106 -107 -120 -121 -132 -134 -156 -157 -166 -167 0
-21 -40 -41 -75 -77 -91 -92 -106 -107 -120 -121 -132 -134 -156 -157 -166 -167 0
-21 -40 -41 -76 -77 -91 -93 -106 -107 -120 -121 -132 -134 -156 -157 -166 -167 0
-21 -40 -41 -76 -77 -92 -93 -106 -108 -120 -121 -132 -134 -156 -157 -166 -167 0
-21 -40 -41 -76 -77 -92 -93 -107 -108 -120 -122 -132 -134 -156 -157 -166 -167 0
-21 -40 -41 -76 -77 -92 -93 -107 -108 -121 -122 -132 -135 -156 -157 -166 -167 0
-20 -39 -40 -75 -76 -91 -92 -106 -107 -120 -121 -133 -134 -156 -158 -166 -167 0
-21 -39 -41 -75 -76 -91 -92 -106 -107 -120 -121 -133 -134 -156 -158 -166 -167 0
-21 -40 -41 -75 -77 -91 -92 -106 -107 -120 -121 -133 -134 -156 -158 -166 -167 0
-21 -40 -41 -76 -77 -91 -93 -106 -107 -120 -121 -133 -134 -156 -158 -166 -167 0
-21 -40 -41 -76 -77 -92 -93 -106 -108 -120 -121 -133 -134 -156 -158 -166 -167 0
-21 -40 -41 -76 -77 -92 -93 -107 -108 -120 -122 -133 -134 -156 -158 -166 -167 0
-21 -40 -41 -76 -77 -92 -93 -107 -108 -121 -122 -133 -135 -156 -158 -166 -167 0
-21 -40 -41 -76 -77 -92 -93 -107 -108 -121 -122 -134 -135 -156 -159 -166 -167 0
-20 -39 -40 -75 -76 -91 -92 -106 -107 -120 -121 -133 -134 -157 -158 -166 -168 0
-21 -39 -41 -75 -76 -91 -92 -106 -107 -120 -121 -133 -134 -157 -158 -166 -168 0
-21 -40 -41 -75 -77 -91 -92 -106 -107 -120 -121 -133 -134 -157 -158 -166 -168 0
-21 -40 -41 -76 -77 -91 -93 -106 -107 -120 -121 -133 -134 -157 -158 -166 -168 0
-21 -40 -41 -76 -77 -92 -93 -106 -108 -120 -121 -133 -134 -157 -158 -166 -168 0
-21 -40 -41 -76 -77 -92 -93 -107 -108 -120 -122 -133 -134 -157 -158 -166 -168 0
-21 -40 -41 -76 -77 -92 -93 -107 -108 -121 -122 -133 -135 -157 -158 -166 -168 0
-21 -40 -41 -76 -77 -92 -93 -107 -108 -121 -122 -134 -135 -157 -159 -166 -168 0
-21 -40 -41 -76 -77 -92 -93 -107 -108 -121 -122 -134 -135 -158 -159 -166 -169 0
-20 -39 -40 -75 -76 -91 -92 -106 -107 -120 -121 -133 -134 -157 -158 -167 -168 0
-21 -39 -41 -75 -76 -91 -92 -106 -107 -120 -121 -133 -134 -157 -158 -167 -168 0
-21 -40 -41 -75 -77 -91 -92 -106 -107 -120 -121 -133 -134 -157 -158 -167 -168 0
-21 -40 -41 -76 -77 -91 -93 -106 -107 -120 -121 -133 -134 -157 -158 -167 -168 0
-21 -40 -41 -76 -77 -92 -93 -106 -108 -120 -121 -133 -134 -157 -158 -167 -168 0
-21 -40 -41 -76 -77 -92 -93 -107 -108 -120 -122 -133 -134 -157 -158 -167 -168 0
-21 -40 -41 -76 -77 -92 -93 -107 -108 -121 -122 -133 -135 -157 -158 -167 -168 0
-21 -40 -41 -76 -77 -92 -93 -107 -108 -121 -122 -134 -135 -157 -159 -167 -168 0
-21 -40 -41 -76 -77 -92 -93 -107 -108 -121 -122 -134 -135 -158 -159 -167 -169 0
-21 -40 -41 -76 -77 -92 -93 -107 -108 -121 -122 -134 -135 -158 -159 -168 -169 0
-20 -39 -40 -75 -76 -91 -92 -106 -107 -120 -121 -133 -134 -157 -158 -177 -178 0
-21 -39 -41 -75 -76 -91 -92 -106 -107 -120 -121 -133 -134 -157 -158 -177 -178 0
-21 -40 -41 -75 -77 -91 -92 -106 -107 -120 -121 -133 -134 -157 -158 -177 -178 0
-21 -40 -41 -76 -77 -91 -93 -106 -107 -120 -121 -133 -134 -157 -158 -177 -178 0
-21 -40 -41 -76 -77 -92 -93 -106 -108 -120 -121 -133 -134 -157 -158 -177 -178 0
-21 -40 -41 -76 -77 -92 -93 -107 -108 -120 -122 -133 -134 -157 -158 -177 -178 0
-21 -40 -41 -76 -77 -92 -93 -107 -108 -121 -122 -133 -135 -157 -158 -177 -178 0
-21 -40 -41 -76 -77 -92 -93 -107 -108 -121 -122 -134 -135 -157 -159 -177 -178 0
-21 -40 -41 -76 -77 -92 -93 -107 -108 -121 -122 -134 -135 -158 -159 -177 -179 0
-21 -40 -41 -76 -77 -92 -93 -107 -108 -121 -122 -134 -135 -158 -159 -178 -179 0
-21 -40 -41 -76 -77 -92 -93 -107 -108 -121 -122 -134 -135 -158 -159 -187 -188 0
-20 -39 -40 -75 -76 -91 -92 -106 -107 -120 -121 -133 -134 -168 -169 -177 -178 0
-21 -39 -41 -75 -76 -91 -92 -106 -107 -120 -121 -133 -134 -168 -169 -177 -178 0
-21 -40 -41 -75 -77 -91 -92 -106 -107 -120 -121 -133 -134 -168 -169 -177 -178 0
-21 -40 -41 -76 -77 -91 -93 -106 -107 -120 -121 -133 -134 -168 -169 -177 -178 0
-21 -40 -41 -76 -77 -92 -93 -106 -108 -120 -121 -133 -134 -168 -169 -177 -178 0
-21 -40 -41 -76 -77 -92 -93 -107 -108 -120 -122 -133 -134 -168 -169 -177 -178 0
-21 -40 -41 -76 -77 -92 -93 -107 -108 -121 -122 -133 -135 -168 -169 -177 -178 0
-21 -40 -41 -76 -77 -92 -93 -107 -108 -121 -122 -134 -135 -168 -170 -177 -178 0
-21 -40 -41 -76 -77 -92 -93 -107 -108 -121 -122 -134 -135 -169 -170 -177 -179 0
-21 -40 -41 -76 -77 -92 -93 -107 -108 -121 -122 -134 -135 -169 -170 -178 -179 0
-21 -40 -41 -76 -77 -92 -93 -107 -108 -121 -122 -134 -135 -169 -170 -187 -188 0
-21 -40 -41 -76 -77 -92 -93 -107 -108 -121 -122 -134 -135 -179 -180 -187 -188 0
-19 -38 -39 -74 -75 -90 -91 -105 -106 -119 -120 -145 -146 -156 -157 -166 -167 0
-20 -38 -40 -74 -75 -90 -91 -105 -106 -119 -120 -145 -146 -156 -157 -166 -167 0
-21 -38 -41 -74 -75 -90 -91 -105 -106 -119 -120 -145 -146 -156 -157 -166 -167 0
-20 -39 -40 -74 -76 -90 -91 -105 -106 -119 -120 -145 -146 -156 -157 -166 -167 0
-21 -39 -41 -74 -76 -90 -91 -105 -106 -119 -120 -145 -146 -156 -157 -166 -167 0
-21 -40 -41 -74 -77 -90 -91 -105 -106 -119 -120 -145 -146 -156 -157 -166 -167 0
-20 -39 -40 -75 -76 -90 -92 -105 -106 -119 -120 -145 -146 -156 -157 -166 -167 0
-21 -39 -41 -75 -76 -90 -92 -105 -106 -119 -120 -145 -146 -156 -157 -166 -167 0
-21 -40 -41 -75 -77 -90 -92 -105 -106 -119 -120 -145 -146 -156 -157 -166 -167 0
-21 -40 -41 -76 -77 -90 -93 -105 -106 -119 -120 -145 -146 -156 -157 -166 -167 0
-20 -39 -40 -75 -76 -91 -92 -105 -107 -119 -120 -145 -146 -156 -157 -166 -167 0
-21 -39 -41 -75 -76 -91 -92 -105 -107 -119 -120 -145 -146 -156 -157 -166 -167 0
-21 -40 -41 -75 -77 -91 -92 -105 -107 -119 -120 -145 -146 -156 -157 -166 -167 0
-21 -40 -41 -76 -77 -91 -93 -105 -107 -119 -120 -145 -146 -156 -157 -166 -167 0
-21 -40 -41 -76 -77 -92 -93 -105 -108 -119 -120 -145 -146 -156 -157 -166 -167 0
-20 -39 -40 -75 -76 -91 -92 -106 -107 -119 -121 -145 -146 -156 -157 -166 -167 0
-21 -39 -41 -75 -76 -91 -92 -106 -107 -119 -121 -145 -146 -156 -157 -166 -167 0
-21 -40 -41 -75 -77 -91 -92 -106 -107 -119 -121 -145 -146 -156 -157 -166 -167 0
-21 -40 -41 -76 -77 -91 -93 -106 -107 -119 -121 -145 -146 -156 -157 -166 -167 0
-21 -40 -41 -76 -77 -92 -93 -106 -108 -119 -121 -145 -146 -156 -157 -166 -167 0
-21 -40 -41 -76 -77 -92 -93 -107 -108 -119 -122 -145 -146 -156 -157 -166 -167 0
-20 -39 -40 -75 -76 -91 -92 -106 -107 -120 -121 -145 -147 -156 -157 -166 -167 0
-21 -39 -41 -75 -76 -91 -92 -106 -107 -120 -121 -145 -147 -156 -157 -166 -167 0
-21 -40 -41 -75 -77 -91 -92 -106 -107 -120 -121 -145 -147 -156 -157 -166 -167 0
-21 -40 -41 -76 -77 -91 -93 -106 -107 -120 -121 -145 -147 -156 -157 -166 -167 0
-21 -40 -41 -76 -77 -92 -93 -106 -108 -120 -121 -145 -147 -156 -157 -166 -167 0
-21 -40 -41 -76 -77 -92 -93 -107 -108 -120 -122 -145 -147 -156 -157 -166 -167 0
-21 -40 -41 -76 -77 -92 -93 -107 -108 -121 -122 -145 -148 -156 -157 -166 -167 0
-20 -39 -40 -75 -76 -91 -92 -106 -107 -120 -121 -146 -147 -156 -158 -166 -167 0
-21 -39 -41 -75 -76 -91 -92 -106 -107 -120 -121 -146 -147 -156 -158 -166 -167 0
-21 -40 -41 -75 -77 -91 -92 -106 -107 -120 -121 -146 -147 -156 -158 -166 -167 0
-21 -40 -41 -76 -77 -91 -93 -106 -107 -120 -121 -146 -147 -156 -158 -166 -167 0
-21 -40 -41 -76 -77 -92 -93 -106 -108 -120 -121 -146 -147 -156 -158 -166 -167 0
-21 -40 -41 -76 -77 -92 -93 -107 -108 -120 -122 -146 -147 -156 -158 -166 -167 0
-21 -40 -41 -76 -77 -92 -93 -107 -108 -121 -122 -146 -148 -156 -158 -166 -167 0
-21 -40 -41 -76 -77 -92 -93 -107 -108 -121 -122 -147 -148 -156 -159 -166 -167 0
-20 -39 -40 -75 -76 -91 -92 -106 -107 -120 -121 -146 -147 -157 -158 -166 -168 0
-21 -39 -41 -75 -76 -91 -92 -106 -107 -120 -121 -146 -147 -157 -158 -166 -168 0
-21 -40 -41 -75 -77 -91 -92 -106 -107 -120 -121 -146 -147 -157 -158 -166 -168 0
-21 -40 -41 -76 -77 -91 -93 -106 -107 -120 -121 -146 -147 -157 -158 -166 -168 0
-21 -40 -41 -76 -77 -92 -93 -106 -108 -120 -121 -146 -147 -157 -158 -166 -168 0
-21 -40 -41 -76 -77 -92 -93 -107 -108 -120 -122 -146 -147 -157 -158 -166 -168 0
-21 -40 -41 -76 -77 -92 -93 -107 -108 -121 -122 -146 -148 -157 -158 -166 -168 0
-21 -40 -41 -76 -77 -92 -93 -107 -108 -121 -122 -147 -148 -157 -159 -166 -168 0
-21 -40 -41 -76 -77 -92 -93 -107 -108 -121 -122 -147 -148 -158 -159 -166 -169 0
-20 -39 -40 -75 -76 -91 -92 -106 -107 -120 -121 -146 -147 -157 -158 -167 -168 0
-21 -39 -41 -75 -76 -91 -92 -106 -107 -120 -121 -146 -147 -157 -158 -167 -168 0
-21 -40 -41 -75 -77 -91 -92 -106 -107 -120 -121 -146 -147 -157 -158 -167 -168 0
-21 -40 -41 -76 -77 -91 -93 -106 -107 -120 -121 -146 -147 -157 -158 -167 -168 0
-21 -40 -41 -76 -77 -92 -93 -106 -108 -120 -121 -146 -147 -157 -158 -167 -168 0
-21 -40 -41 -76 -77 -92 -93 -107 -108 -120 -122 -146 -147 -157 -158 -167 -168 0
-21 -40 -41 -76 -77 -92 -93 -107 -108 -121 -122 -146 -148 -157 -158 -167 -168 0
-21 -40 -41 -76 -77 -92 -93 -107 -108 -121 -122 -147 -148 -157 -159 -167 -168 0
-21 -40 -41 -76 -77 -92 -93 -107 -108 -121 -122 -147 -148 -158 -159 -167 -169 0
-21 -40 -41 -76 -77 -92 -93 -107 -108 -121 -122 -147 -148 -158 -159 -168 -169 0
-20 -39 -40 -75 -76 -91 -92 -106 -107 -120 -121 -146 -147 -157 -158 -177 -178 0
-21 -39 -41 -75 -76 -91 -92 -106 -107 -120 -121 -146 -147 -157 -158 -177 -178 0
-21 -40 -41 -75 -77 -91 -92 -106 -107 -120 -121 -146 -147 -157 -158 -177 -178 0
-21 -40 -41 -76 -77 -91 -93 -106 -107 -120 -121 -146 -147 -157 -158 -177 -178 0
-21 -40 -41 -76 -77 -92 -93 -106 -108 -120 -121 -146 -147 -157 -158 -177 -178 0
-21 -40 -41 -76 -77 -92 -93 -107 -108 -120 -122 -146 -147 -157 -158 -177 -178 0
-21 -40 -41 -76 -77 -92 -93 -107 -108 -121 -122 -146 -148 -157 -158 -177 -178 0
-21 -40 -41 -76 -77 -92 -93 -107 -108 -121 -122 -147 -148 -157 -159 -177 -178 0
-21 -40 -41 -76 -77 -92 -93 -107 -108 -121 -122 -147 -148 -158 -159 -177 -179 0
-21 -40 -41 -76 -77 -92 -93 -107 -108 -121 -122 -147 -148 -158 -159 -178 -179 0
-21 -40 -41 -76 -77 -92 -93 -107 -108 -121 -122 -147 -148 -158 -159 -187 -188 0
-20 -39 -40 -75 -76 -91 -92 -106 -107 -120 -121 -146 -147 -168 -169 -177 -178 0
-21 -39 -41 -75 -76 -91 -92 -106 -107 -120 -121 -146 -147 -168 -169 -177 -178 0
-21 -40 -41 -75 -77 -91 -92 -106 -107 -120 -121 -146 -147 -168 -169 -177 -178 0
-21 -40 -41 -76 -77 -91 -93 -106 -107 -120 -121 -146 -147 -168 -169 -177 -178 0
-21 -40 -41 -76 -77 -92 -93 -106 -108 -120 -121 -146 -147 -168 -169 -177 -178 0
-21 -40 -41 -76 -77 -92 -93 -107 -108 -120 -122 -146 -147 -168 -169 -177 -178 0
-21 -40 -41 -76 -77 -92 -93 -107 -108 -121 -122 -146 -148 -168 -169 -177 -178 0
-21 -40 -41 -76 -77 -92 -93 -107 -108 -121 -122 -147 -148 -168 -170 -177 -178 0
-21 -40 -41 -76 -77 -92 -93 -107 -108 -121 -122 -147 -148 -169 -170 -177 -179 0
-21 -40 -41 -76 -77 -92 -93 -107 -108 -121 -122 -147 -148 -169 -170 -178 -179 0
-21 -40 -41 -76 -77 -92 -93 -107 -108 -121 -122 -147 -148 -169 -170 -187 -188 0
-21 -40 -41 -76 -77 -92 -93 -107 -108 -121 -122 -147 -148 -179 -180 -187 -188 0
-20 -39 -40 -75 -76 -91 -92 -106 -107 -120 -121 -158 -159 -168 -169 -177 -178 0
-21 -39 -41 -75 -76 -91 -92 -106 -107 -120 -121 -158 -159 -168 -169 -177 -178 0
-21 -40 -41 -75 -77 -91 -92 -106 -107 -120 -121 -158 -159 -168 -169 -177 -178 0
-21 -40 -41 -76 -77 -91 -93 -106 -107 -120 -121 -158 -159 -168 -169 -177 -178 0
-21 -40 -41 -76 -77 -92 -93 -106 -108 -120 -121 -158 -159 -168 -169 -177 -178 0
-21 -40 -41 -76 -77 -92 -93 -107 -108 -120 -122 -158 -159 -168 -169 -177 -178 0
-21 -40 -41 -76 -77 -92 -93 -107 -108 -121 -122 -158 -160 -168 -169 -177 -178 0
-21 -40 -41 -76 -77 -92 -93 -107 -108 -121 -122 -159 -160 -168 -170 -177 -178 0
-21 -40 -41 -76 -77 -92 -93 -107 -108 -121 -122 -159 -160 -169 -170 -177 -179 0
-21 -40 -41 -76 -77 -92 -93 -107 -108 -121 -122 -159 -160 -169 -170 -178 -179 0
-21 -40 -41 -76 -77 -92 -93 -107 -108 -121 -122 -159 -160 -169 -170 -187 -188 0
-21 -40 -41 -76 -77 -92 -93 -107 -108 -121 -122 -159 -160 -179 -180 -187 -188 0
-21 -40 -41 -76 -77 -92 -93 -107 -108 -121 -122 -170 -171 -179 -180 -187 -188 0
-19 -38 -39 -74 -75 -90 -91 -105 -106 -133 -134 -145 -146 -156 -157 -166 -167 0
-20 -38 -40 -74 -75 -90 -91 -105 -106 -133 -134 -145 -146 -156 -157 -166 -167 0
-21 -38 -41 -74 -75 -90 -91 -105 -106 -133 -134 -145 -146 -156 -157 -166 -167 0
-20 -39 -40 -74 -76 -90 -91 -105 -106 -133 -134 -145 -146 -156 -157 -166 -167 0
-21 -39 -41 -74 -76 -90 -91 -105 -106 -133 -134 -145 -146 -156 -157 -166 -167 0
-21 -40 -41 -74 -77 -90 -91 -105 -106 -133 -134 -145 -146 -156 -157 -166 -167 0
-20 -39 -40 -75 -76 -90 -92 -105 -106 -133 -134 -145 -146 -156 -157 -166 -167 0
-21 -39 -41 -75 -76 -90 -92 -105 -106 -133 -134 -145 -146 -156 -157 -166 -167 0
-21 -40 -41 -75 -77 -90 -92 -105 -106 -133 -134 -145 -146 -156 -157 -166 -167 0
-21 -40 -41 -76 -77 -90 -93 -105 -106 -133 -134 -145 -146 -156 -157 -166 -167 0
-20 -39 -40 -75 -76 -91 -92 -105 -107 -133 -134 -145 -146 -156 -157 -166 -167 0
-21 -39 -41 -75 -76 -91 -92 -105 -107 -133 -134 -145 -146 -156 -157 -166 -167 0
-21 -40 -41 -75 -77 -91 -92 -105 -107 -133 -134 -145 -146 -156 -157 -166 -167 0
-21 -40 -41 -76 -77 -91 -93 -105 -107 -133 -134 -145 -146 -156 -157 -166 -167 0
-21 -40 -41 -76 -77 -92 -93 -105 -108 -133 -134 -145 -146 -156 -157 -166 -167 0
-20 -39 -40 -75 -76 -91 -92 -106 -107 -133 -135 -145 -146 -156 -157 -166 -167 0
-21 -39 -41 -75 -76 -91 -92 -106 -107 -133 -135 -145 -146 -156 -157 -166 -167 0
-21 -40 -41 -75 -77 -91 -92 -106 -107 -133 -135 -145 -146 -156 -157 -166 -167 0
-21 -40 -41 -76 -77 -91 -93 -106 -107 -133 -135 -145 -146 -156 -157 -166 -167 0
-21 -40 -41 -76 -77 -92 -93 -106 -108 -133 -135 -145 -146 -156 -157 -166 -167 0
-21 -40 -41 -76 -77 -92 -93 -107 -108 -133 -136 -145 -146 -156 -157 -166 -167 0
-20 -39 -40 -75 -76 -91 -92 -106 -107 -134 -135 -145 -147 -156 -157 -166 -167 0
-21 -39 -41 -75 -76 -91 -92 -106 -107 -134 -135 -145 -147 -156 -157 -166 -167 0
-21 -40 -41 -75 -77 -91 -92 -106 -107 -134 -135 -145 -147 -156 -157 -166 -167 0
-21 -40 -41 -76 -77 -91 -93 -106 -107 -134 -135 -145 -147 -156 -157 -166 -167 0
-21 -40 -41 -76 -77 -92 -93 -106 -108 -134 -135 -145 -147 -156 -157 -166 -167 0
-21 -40 -41 -76 -77 -92 -93 -107 -108 -134 -136 -145 -147 -156 -157 -166 -167 0
-21 -40 -41 -76 -77 -92 -93 -107 -108 -135 -136 -145 -148 -156 -157 -166 -167 0
-20 -39 -40 -75 -76 -91 -92 -106 -107 -134 -135 -146 -147 -156 -158 -166 -167 0
-21 -39 -41 -75 -76 -91 -92 -106 -107 -134 -135 -146 -147 -156 -158 -166 -167 0
-21 -40 -41 -75 -77 -91 -92 -106 -107 -134 -135 -146 -147 -156 -158 -166 -167 0
-21 -40 -41 -76 -77 -91 -93 -106 -107 -134 -135 -146 -147 -156 -158 -166 -167 0
-21 -40 -41 -76 -77 -92 -93 -106 -108 -134 -135 -146 -147 -156 -158 -166 -167 0
-21 -40 -41 -76 -77 -92 -93 -107 -108 -134 -136 -146 -147 -156 -158 -166 -167 0
-21 -40 -41 -76 -77 -92 -93 -107 -108 -135 -136 -146 -148 -156 -158 -166 -167 0
-21 -40 -41 -76 -77 -92 -93 -107 -108 -135 -136 -147 -148 -156 -159 -166 -167 0
-20 -39 -40 -75 -76 -91 -92 -106 -107 -134 -135 -146 -147 -157 -158 -166 -168 0
-21 -39 -41 -75 -76 -91 -92 -106 -107 -134 -135 -146 -147 -157 -158 -166 -168 0
-21 -40 -41 -75 -77 -91 -92 -106 -107 -134 -135 -146 -147 -157 -158 -166 -168 0
-21 -40 -41 -76 -77 -91 -93 -106 -107 -134 -135 -146 -147 -157 -158 -166 -168 0
-21 -40 -41 -76 -77 -92 -93 -106 -108 -134 -135 -146 -147 -157 -158 -166 -168 0
-21 -40 -41 -76 -77 -92 -93 -107 -108 -134 -136 -146 -147 -157 -158 -166 -168 0
-21 -40 -41 -76 -77 -92 -93 -107 -108 -135 -136 -146 -148 -157 -158 -166 -168 0
-21 -40 -41 -76 -77 -92 -93 -107 -108 -135 -136 -147 -148 -157 -159 -166 -168 0
-21 -40 -41 -76 -77 -92 -93 -107 -108 -135 -136 -147 -148 -158 -159 -166 -169 0
-20 -39 -40 -75 -76 -91 -92 -106 -107 -134 -135 -146 -147 -157 -158 -167 -168 0
-21 -39 -41 -75 -76 -91 -92 -106 -107 -134 -135 -146 -147 -157 -158 -167 -168 0
-21 -40 -41 -75 -77 -91 -92 -106 -107 -134 -135 -146 -147 -157 -158 -167 -168 0
-21 -40 -41 -76 -77 -91 -93 -106 -107 -134 -135 -146 -147 -157 -158 -167 -168 0
-21 -40 -41 -76 -77 -92 -93 -106 -108 -134 -135 -146 -147 -157 -158 -167 -168 0
-21 -40 -41 -76 -77 -92 -93 -107 -108 -134 -136 -146 -147 -157 -158 -167 -168 0
-21 -40 -41 -76 -77 -92 -93 -107 -108 -135 -136 -146 -148 -157 -158 -167 -168 0
-21 -40 -41 -76 -77 -92 -93 -107 -108 -135 -136 -147 -148 -157 -159 -167 -168 0
-21 -40 -41 -76 -77 -92 -93 -107 -108 -135 -136 -147 -148 -158 -159 -167 -169 0
-21 -40 -41 -76 -77 -92 -93 -107 -108 -135 -136 -147 -148 -158 -159 -168 -169 0
-20 -39 -40 -75 -76 -91 -92 -106 -107 -134 -135 -146 -147 -157 -158 -177 -178 0
-21 -39 -41 -75 -76 -91 -92 -106 -107 -134 -135 -146 -147 -157 -158 -177 -178 0
-21 -40 -41 -75 -77 -91 -92 -106 -107 -134 -135 -146 -147 -157 -158 -177 -178 0
-21 -40 -41 -76 -77 -91 -93 -106 -107 -134 -135 -146 -147 -157 -158 -177 -178 0
-21 -40 -41 -76 -77 -92 -93 -106 -108 -134 -135 -146 -147 -157 -158 -177 -178 0
-21 -40 -41 -76 -77 -92 -93 -107 -108 -134 -136 -146 -147 -157 -158 -177 -178 0
-21 -40 -41 -76 -77 -92 -93 -107 -108 -135 -136 -146 -148 -157 -158 -177 -178 0
-21 -40 -41 -76 -77 -92 -93 -107 -108 -135 -136 -147 -148 -157 -159 -177 -178 0
-21 -40 -41 -76 -77 -92 -93 -107 -108 -135 -136 -147 -148 -158 -159 -177 -179 0
-21 -40 -41 -76 -77 -92 -93 -107 -108 -135 -136 -147 -148 -158 -159 -178 -179 0
-21 -40 -41 -76 -77 -92 -93 -107 -108 -135 -136 -147 -148 -158 -159 -187 -188 0
-20 -39 -40 -75 -76 -91 -92 -106 -107 -134 -135 -146 -147 -168 -169 -177 -178 0
-21 -39 -41 -75 -76 -91 -92 -106 -107 -134 -135 -146 -147 -168 -169 -177 -178 0
-21 -40 -41 -75 -77 -91 -92 -106 -107 -134 -135 -146 -147 -168 -169 -177 -178 0
-21 -40 -41 -76 -77 -91 -93 -106 -107 -134 -135 -146 -147 -168 -169 -177 -178 0
-21 -40 -41 -76 -77 -92 -93 -106 -108 -134 -135 -146 -147 -168 -169 -177 -178 0
-21 -40 -41 -76 -77 -92 -93 -107 -108 -134 -136 -146 -147 -168 -169 -177 -178 0
-21 -40 -41 -76 -77 -92 -93 -107 -108 -135 -136 -146 -148 -168 -169 -177 -178 0
-21 -40 -41 -76 -77 -92 -93 -107 -108 -135 -136 -147 -148 -168 -170 -177 -178 0
-21 -40 -41 -76 -77 -92 -93 -107 -108 -135 -136 -147 -148 -169 -170 -177 -179 0
-21 -40 -41 -76 -77 -92 -93 -107 -108 -135 -136 -147 -148 -169 -170 -178 -179 0
-21 -40 -41 -76 -77 -92 -93 -107 -108 -135 -136 -147 -148 -169 -170 -187 -188 0
-21 -40 -41 -76 -77 -92 -93 -107 -108 -135 -136 -147 -148 -179 -180 -187 -188 0
-20 -39 -40 -75 -76 -91 -92 -106 -107 -134 -135 -158 -159 -168 -169 -177 -178 0
-21 -39 -41 -75 -76 -91 -92 -106 -107 -134 -135 -158 -159 -168 -169 -177 -178 0
-21 -40 -41 -75 -77 -91 -92 -106 -107 -134 -135 -158 -159 -168 -169 -177 -178 0
-21 -40 -41 -76 -77 -91 -93 -106 -107 -134 -135 -158 -159 -168 -169 -177 -178 0
-21 -40 -41 -76 -77 -92 -93 -106 -108 -134 -135 -158 -159 -168 -169 -177 -178 0
-21 -40 -41 -76 -77 -92 -93 -107 -108 -134 -136 -158 -159 -168 -169 -177 -178 0
-21 -40 -41 -76 -77 -92 -93 -107 -108 -135 -136 -158 -160 -168 -169 -177 -178 0
-21 -40 -41 -76 -77 -92 -93 -107 -108 -135 -136 -159 -160 -168 -170 -177 -178 0
-21 -40 -41 -76 -77 -92 -93 -107 -108 -135 -136 -159 -160 -169 -170 -177 -179 0
-21 -40 -41 -76 -77 -92 -93 -107 -108 -135 -136 -159 -160 -169 -170 -178 -179 0
-21 -40 -41 -76 -77 -92 -93 -107 -108 -135 -136 -159 -160 -169 -170 -187 -188 0
-21 -40 -41 -76 -77 -92 -93 -107 -108 -135 -136 -159 -160 -179 -180 -187 -188 0
-21 -40 -41 -76 -77 -92 -93 -107 -108 -135 -136 -170 -171 -179 -180 -187 -188 0
-20 -39 -40 -75 -76 -91 -92 -106 -107 -147 -148 -158 -159 -168 -169 -177 -178 0
-21 -39 -41 -75 -76 -91 -92 -106 -107 -147 -148 -158 -159 -168 -169 -177 -178 0
-21 -40 -41 -75 -77 -91 -92 -106 -107 -147 -148 -158 -159 -168 -169 -177 -178 0
-21 -40 -41 -76 -77 -91 -93 -106 -107 -147 -148 -158 -159 -168 -169 -177 -178 0
-21 -40 -41 -76 -77 -92 -93 -106 -108 -147 -148 -158 -159 -168 -169 -177 -178 0
-21 -40 -41 -76 -77 -92 -93 -107 -108 -147 -149 -158 -159 -168 -169 -177 -178 0
-21 -40 -41 -76 -77 -92 -93 -107 -108 -148 -149 -158 -160 -168 -169 -177 -178 0
-21 -40 -41 -76 -77 -92 -93 -107 -108 -148 -149 -159 -160 -168 -170 -177 -178 0
-21 -40 -41 -76 -77 -92 -93 -107 -108 -148 -149 -159 -160 -169 -170 -177 -179 0
-21 -40 -41 -76 -77 -92 -93 -107 -108 -148 -149 -159 -160 -169 -170 -178 -179 0
-21 -40 -41 -76 -77 -92 -93 -107 -108 -148 -149 -159 -160 -169 -170 -187 -188 0
-21 -40 -41 -76 -77 -92 -93 -107 -108 -148 -149 -159 -160 -179 -180 -187 -188 0
-21 -40 -41 -76 -77 -92 -93 -107 -108 -148 -149 -170 -171 -179 -180 -187 -188 0
-21 -40 -41 -76 -77 -92 -93 -107 -108 -160 -161 -170 -171 -179 -180 -187 -188 0
-19 -38 -39 -74 -75 -90 -91 -120 -121 -133 -134 -145 -146 -156 -157 -166 -167 0
-20 -38 -40 -74 -75 -90 -91 -120 -121 -133 -134 -145 -146 -156 -157 -166 -167 0
-21 -38 -41 -74 -75 -90 -91 -120 -121 -133 -134 -145 -146 -156 -157 -166 -167 0
-20 -39 -40 -74 -76 -90 -91 -120 -121 -133 -134 -145 -146 -156 -157 -166 -167 0
-21 -39 -41 -74 -76 -90 -91 -120 -121 -133 -134 -145 -146 -156 -157 -166 -167 0
-21 -40 -41 -74 -77 -90 -91 -120 -121 -133 -134 -145 -146 -156 -157 -166 -167 0
-20 -39 -40 -75 -76 -90 -92 -120 -121 -133 -134 -145 -146 -156 -157 -166 -167 0
-21 -39 -41 -75 -76 -90 -92 -120 -121 -133 -134 -145 -146 -156 -157 -166 -167 0
-21 -40 -41 -75 -77 -90 -92 -120 -121 -133 -134 -145 -146 -156 -157 -166 -167 0
-21 -40 -41 -76 -77 -90 -93 -120 -121 -133 -134 -145 -146 -156 -157 -166 -167 0
-20 -39 -40 -75 -76 -91 -92 -120 -122 -133 -134 -145 -146 -156 -157 -166 -167 0
-21 -39 -41 -75 -76 -91 -92 -120 -122 -133 -134 -145 -146 -156 -157 -166 -167 0
-21 -40 -41 -75 -77 -91 -92 -120 -122 -133 -134 -145 -146 -156 -157 -166 -167 0
-21 -40 -41 -76 -77 -91 -93 -120 -122 -133 -134 -145 -146 -156 -157 -166 -167 0
-21 -40 -41 -76 -77 -92 -93 -120 -123 -133 -134 -145 -146 -156 -157 -166 -167 0
-20 -39 -40 -75 -76 -91 -92 -121 -122 -133 -135 -145 -146 -156 -157 -166 -167 0
-21 -39 -41 -75 -76 -91 -92 -121 -122 -133 -135 -145 -146 -156 -157 -166 -167 0
-21 -40 -41 -75 -77 -91 -92 -121 -122 -133 -135 -145 -146 -156 -157 -166 -167 0
-21 -40 -41 -76 -77 -91 -93 -121 -122 -133 -135 -145 -146 -156 -157 -166 -167 0
-21 -40 -41 -76 -77 -92 -93 -121 -123 -133 -135 -145 -146 -156 -157 -166 -167 0
-21 -40 -41 -76 -77 -92 -93 -122 -123 -133 -136 -145 -146 -156 -157 -166 -167 0
-20 -39 -40 -75 -76 -91 -92 -121 -122 -134 -135 -145 -147 -156 -157 -166 -167 0
-21 -39 -41 -75 -76 -91 -92 -121 -122 -134 -135 -145 -147 -156 -157 -166 -167 0
-21 -40 -41 -75 -77 -91 -92 -121 -122 -134 -135 -145 -147 -156 -157 -166 -167 0
-21 -40 -41 -76 -77 -91 -93 -121 -122 -134 -135 -145 -147 -156 -157 -166 -167 0
-21 -40 -41 -76 -77 -92 -93 -121 -123 -134 -135 -145 -147 -156 -157 -166 -167 0
-21 -40 -41 -76 -77 -92 -93 -122 -123 -134 -136 -145 -147 -156 -157 -166 -167 0
-21 -40 -41 -76 -77 -92 -93 -122 -123 -135 -136 -145 -148 -156 -157 -166 -167 0
-20 -39 -40 -75 -76 -91 -92 -121 -122 -134 -135 -146 -147 -156 -158 -166 -167 0
-21 -39 -41 -75 -76 -91 -92 -121 -122 -134 -135 -146 -147 -156 -158 -166 -167 0
-21 -40 -41 -75 -77 -91 -92 -121 -122 -134 -135 -146 -147 -156 -158 -166 -167 0
-21 -40 -41 -76 -77 -91 -93 -121 -122 -134 -135 -146 -147 -156 -158 -166 -167 0
-21 -40 -41 -76 -77 -92 -93 -121 -123 -134 -135 -146 -147 -156 -158 -166 -167 0
-21 -40 -41 -76 -77 -92 -93 -122 -123 -134 -136 -146 -147 -156 -158 -166 -167 0
-21 -40 -41 -76 -77 -92 -93 -122 -123 -135 -136 -146 -148 -156 -158 -166 -167 0
-21 -40 -41 -76 -77 -92 -93 -122 -123 -135 -136 -147 -148 -156 -159 -166 -167 0
-20 -39 -40 -75 -76 -91 -92 -121 -122 -134 -135 -146 -147 -157 -158 -166 -168 0
-21 -39 -41 -75 -76 -91 -92 -121 -122 -134 -135 -146 -147 -157 -158 -166 -168 0
-21 -40 -41 -75 -77 -91 -92 -121 -122 -134 -135 -146 -147 -157 -158 -166 -168 0
-21 -40 -41 -76 -77 -91 -93 -121 -122 -134 -135 -146 -147 -157 -158 -166 -168 0
-21 -40 -41 -76 -77 -92 -93 -121 -123 -134 -135 -146 -147 -157 -158 -166 -168 0
-21 -40 -41 -76 -77 -92 -93 -122 -123 -134 -136 -146 -147 -157 -158 -166 -168 0
-21 -40 -41 -76 -77 -92 -93 -122 -123 -135 -136 -146 -148 -157 -158 -166 -168 0
-21 -40 -41 -76 -77 -92 -93 -122 -123 -135 -136 -147 -148 -157 -159 -166 -168 0
-21 -40 -41 -76 -77 -92 -93 -122 -123 -135 -136 -147 -148 -158 -159 -166 -169 0
-20 -39 -40 -75 -76 -91 -92 -121 -122 -134 -135 -146 -147 -157 -158 -167 -168 0
-21 -39 -41 -75 -76 -91 -92 -121 -122 -134 -135 -146 -147 -157 -158 -167 -168 0
-21 -40 -41 -75 -77 -91 -92 -121 -122 -134 -135 -146 -147 -157 -158 -167 -168 0
-21 -40 -41 -76 -77 -91 -93 -121 -122 -134 -135 -146 -147 -157 -158 -167 -168 0
-21 -40 -41 -76 -77 -92 -93 -121 -123 -134 -135 -146 -147 -157 -158 -167 -168 0
-21 -40 -41 -76 -77 -92 -93 -122 -123 -134 -136 -146 -147 -157 -158 -167 -168 0
-21 -40 -41 -76 -77 -92 -93 -122 -123 -135 -136 -146 -148 -157 -158 -167 -168 0
-21 -40 -41 -76 -77 -92 -93 -122 -123 -135 -136 -147 -148 -157 -159 -167 -168 0
-21 -40 -41 -76 -77 -92 -93 -122 -123 -135 -136 -147 -148 -158 -159 -167 -169 0
-21 -40 -41 -76 -77 -92 -93 -122 -123 -135 -136 -147 -148 -158 -159 -168 -169 0
-20 -39 -40 -75 -76 -91 -92 -121 -122 -134 -135 -146 -147 -157 -158 -177 -178 0
-21 -39 -41 -75 -76 -91 -92 -121 -122 -134 -135 -146 -147 -157 -158 -177 -178 0
-21 -40 -41 -75 -77 -91 -92 -121 -122 -134 -135 -146 -147 -157 -158 -177 -178 0
-21 -40 -41 -76 -77 -91 -93 -121 -122 -134 -135 -146 -147 -157 -158 -177 -178 0
-21 -40 -41 -76 -77 -92 -93 -121 -123 -134 -135 -146 -147 -157 -158 -177 -178 0
-21 -40 -41 -76 -77 -92 -93 -122 -123 -134 -136 -146 -147 -157 -158 -177 -178 0
-21 -40 -41 -76 -77 -92 -93 -122 -123 -135 -136 -146 -148 -157 -158 -177 -178 0
-21 -40 -41 -76 -77 -92 -93 -122 -123 -135 -136 -147 -148 -157 -159 -177 -178 0
-21 -40 -41 -76 -77 -92 -93 -122 -123 -135 -136 -147 -148 -158 -159 -177 -179 0
-21 -40 -41 -76 -77 -92 -93 -122 -123 -135 -136 -147 -148 -158 -159 -178 -179 0
-21 -40 -41 -76 -77 -92 -93 -122 -123 -135 -136 -147 -148 -158 -159 -187 -188 0
-20 -39 -40 -75 -76 -91 -92 -121 -122 -134 -135 -146 -147 -168 -169 -177 -178 0
-21 -39 -41 -75 -76 -91 -92 -121 -122 -134 -135 -146 -147 -168 -169 -177 -178 0
-21 -40 -41 -75 -77 -91 -92 -121 -122 -134 -135 -146 -147 -168 -169 -177 -178 0
-21 -40 -41 -76 -77 -91 -93 -121 -122 -134 -135 -146 -147 -168 -169 -177 -178 0
-21 -40 -41 -76 -77 -92 -93 -121 -123 -134 -135 -146 -147 -168 -169 -177 -178 0
-21 -40 -41 -76 -77 -92 -93 -122 -123 -134 -136 -146 -147 -168 -169 -177 -178 0
-21 -40 -41 -76 -77 -92 -93 -122 -123 -135 -136 -146 -148 -168 -169 -177 -178 0
-21 -40 -41 -76 -77 -92 -93 -122 -123 -135 -136 -147 -148 -168 -170 -177 -178 0
-21 -40 -41 -76 -77 -92 -93 -122 -123 -135 -136 -147 -148 -169 -170 -177 -179 0
-21 -40 -41 -76 -77 -92 -93 -122 -123 -135 -136 -147 -148 -169 -170 -178 -179 0
-21 -40 -41 -76 -77 -92 -93 -122 -123 -135 -136 -147 -148 -169 -170 -187 -188 0
-21 -40 -41 -76 -77 -92 -93 -122 -123 -135 -136 -147 -148 -179 -180 -187 -188 0
-20 -39 -40 -75 -76 -91 -92 -121 -122 -134 -135 -158 -159 -168 -169 -177 -178 0
-21 -39 -41 -75 -76 -91 -92 -121 -122 -134 -135 -158 -159 -168 -169 -177 -178 0
-21 -40 -41 -75 -77 -91 -92 -121 -122 -134 -135 -158 -159 -168 -169 -177 -178 0
-21 -40 -41 -76 -77 -91 -93 -121 -122 -134 -135 -158 -159 -168 -169 -177 -178 0
-21 -40 -41 -76 -77 -92 -93 -121 -123 -134 -135 -158 -159 -168 -169 -177 -178 0
-21 -40 -41 -76 -77 -92 -93 -122 -123 -134 -136 -158 -159 -168 -169 -177 -178 0
-21 -40 -41 -76 -77 -92 -93 -122 -123 -135 -136 -158 -160 -168 -169 -177 -178 0
-21 -40 -41 -76 -77 -92 -93 -122 -123 -135 -136 -159 -160 -168 -170 -177 -178 0
-21 -40 -41 -76 -77 -92 -93 -122 -123 -135 -136 -159 -160 -169 -170 -177 -179 0
-21 -40 -41 -76 -77 -92 -93 -122 -123 -135 -136 -159 -160 -169 -170 -178 -179 0
-21 -40 -41 -76 -77 -92 -93 -122 -123 -135 -136 -159 -160 -169 -170 -187 -188 0
-21 -40 -41 -76 -77 -92 -93 -122 -123 -135 -136 -159 -160 -179 -180 -187 -188 0
-21 -40 -41 -76 -77 -92 -93 -122 -123 -135 -136 -170 -171 -179 -180 -187 -188 0
-20 -39 -40 -75 -76 -91 -92 -121 -122 -147 -148 -158 -159 -168 -169 -177 -178 0
-21 -39 -41 -75 -76 -91 -92 -121 -122 -147 -148 -158 -159 -168 -169 -177 -178 0
-21 -40 -41 -75 -77 -91 -92 -121 -122 -147 -148 -158 -159 -168 -169 -177 -178 0
-21 -40 -41 -76 -77 -91 -93 -121 -122 -147 -148 -158 -159 -168 -169 -177 -178 0
-21 -40 -41 -76 -77 -92 -93 -121 -123 -147 -148 -158 -159 -168 -169 -177 -178 0
-21 -40 -41 -76 -77 -92 -93 -122 -123 -147 -149 -158 -159 -168 -169 -177 -178 0
-21 -40 -41 -76 -77 -92 -93 -122 -123 -148 -149 -158 -160 -168 -169 -177 -178 0
-21 -40 -41 -76 -77 -92 -93 -122 -123 -148 -149 -159 -160 -168 -170 -177 -178 0
-21 -40 -41 -76 -77 -92 -93 -122 -123 -148 -149 -159 -160 -169 -170 -177 -179 0
-21 -40 -41 -76 -77 -92 -93 -122 -123 -148 -149 -159 -160 -169 -170 -178 -179 0
-21 -40 -41 -76 -77 -92 -93 -122 -123 -148 -149 -159 -160 -169 -170 -187 -188 0
-21 -40 -41 -76 -77 -92 -93 -122 -123 -148 -149 -159 -160 -179 -180 -187 -188 0
-21 -40 -41 -76 -77 -92 -93 -122 -123 -148 -149 -170 -171 -179 -180 -187 -188 0
-21 -40 -41 -76 -77 -92 -93 -122 -123 -160 -161 -170 -171 -179 -180 -187 -188 0
-20 -39 -40 -75 -76 -91 -92 -135 -136 -147 -148 -158 -159 -168 -169 -177 -178 0
-21 -39 -41 -75 -76 -91 -92 -135 -136 -147 -148 -158 -159 -168 -169 -177 -178 0
-21 -40 -41 -75 -77 -91 -92 -135 -136 -147 -148 -158 -159 -168 -169 -177 -178 0
-21 -40 -41 -76 -77 -91 -93 -135 -136 -147 -148 -158 -159 -168 -169 -177 -178 0
-21 -40 -41 -76 -77 -92 -93 -135 -137 -147 -148 -158 -159 -168 -169 -177 -178 0
-21 -40 -41 -76 -77 -92 -93 -136 -137 -147 -149 -158 -159 -168 -169 -177 -178 0
-21 -40 -41 -76 -77 -92 -93 -136 -137 -148 -149 -158 -160 -168 -169 -177 -178 0
-21 -40 -41 -76 -77 -92 -93 -136 -137 -148 -149 -159 -160 -168 -170 -177 -178 0
-21 -40 -41 -76 -77 -92 -93 -136 -137 -148 -149 -159 -160 -169 -170 -177 -179 0
-21 -40 -41 -76 -77 -92 -93 -136 -137 -148 -149 -159 -160 -169 -170 -178 -179 0
-21 -40 -41 -76 -77 -92 -93 -136 -137 -148 -149 -159 -160 -169 -170 -187 -188 0
-21 -40 -41 -76 -77 -92 -93 -136 -137 -148 -149 -159 -160 -179 -180 -187 -188 0
-21 -40 -41 -76 -77 -92 -93 -136 -137 -148 -149 -170 -171 -179 -180 -187 -188 0
-21 -40 -41 -76 -77 -92 -93 -136 -137 -160 -161 -170 -171 -179 -180 -187 -188 0
-21 -40 -41 -76 -77 -92 -93 -149 -150 -160 -161 -170 -171 -179 -180 -187 -188 0
-19 -38 -39 -74 -75 -106 -107 -120 -121 -133 -134 -145 -146 -156 -157 -166 -167 0
-20 -38 -40 -74 -75 -106 -107 -120 -121 -133 -134 -145 -146 -156 -157 -166 -167 0
-21 -38 -41 -74 -75 -106 -107 -120 -121 -133 -134 -145 -146 -156 -157 -166 -167 0
-20 -39 -40 -74 -76 -106 -107 -120 -121 -133 -134 -145 -146 -156 -157 -166 -167 0
-21 -39 -41 -74 -76 -106 -107 -120 -121 -133 -134 -145 -146 -156 -157 -166 -167 0
-21 -40 -41 -74 -77 -106 -107 -120 -121 -133 -134 -145 -146 -156 -157 -166 -167 0
-20 -39 -40 -75 -76 -106 -108 -120 -121 -133 -134 -145 -146 -156 -157 -166 -167 0
-21 -39 -41 -75 -76 -106 -108 -120 -121 -133 -134 -145 -146 -156 -157 -166 -167 0
-21 -40 -41 -75 -77 -106 -108 -120 -121 -133 -134 -145 -146 -156 -157 -166 -167 0
-21 -40 -41 -76 -77 -106 -109 -120 -121 -133 -134 -145 -146 -156 -157 -166 -167 0
-20 -39 -40 -75 -76 -107 -108 -120 -122 -133 -134 -145 -146 -156 -157 -166 -167 0
-21 -39 -41 -75 -76 -107 -108 -120 -122 -133 -134 -145 -146 -156 -157 -166 -167 0
-21 -40 -41 -75 -77 -107 -108 -120 -122 -133 -134 -145 -146 -156 -157 -166 -167 0
-21 -40 -41 -76 -77 -107 -109 -120 -122 -133 -134 -145 -146 -156 -157 -166 -167 0
-21 -40 -41 -76 -77 -108 -109 -120 -123 -133 -134 -145 -146 -156 -157 -166 -167 0
-20 -39 -40 -75 -76 -107 -108 -121 -122 -133 -135 -145 -146 -156 -157 -166 -167 0
-21 -39 -41 -75 -76 -107 -108 -121 -122 -133 -135 -145 -146 -156 -157 -166 -167 0
-21 -40 -41 -75 -77 -107 -108 -121 -122 -133 -135 -145 -146 -156 -157 -166 -167 0
-21 -40 -41 -76 -77 -107 -109 -121 -122 -133 -135 -145 -146 -156 -157 -166 -167 0
-21 -40 -41 -76 -77 -108 -109 -121 -123 -133 -135 -145 -146 -156 -157 -166 -167 0
-21 -40 -41 -76 -77 -108 -109 -122 -123 -133 -136 -145 -146 -156 -157 -166 -167 0
-20 -39 -40 -75 -76 -107 -108 -121 -122 -134 -135 -145 -147 -156 -157 -166 -167 0
-21 -39 -41 -75 -76 -107 -108 -121 -122 -134 -135 -145 -147 -156 -157 -166 -167 0
-21 -40 -41 -75 -77 -107 -108 -121 -122 -134 -135 -145 -147 -156 -157 -166 -167 0
-21 -40 -41 -76 -77 -107 -109 -121 -122 -134 -135 -145 -147 -156 -157 -166 -167 0
-21 -40 -41 -76 -77 -108 -109 -121 -123 -134 -135 -145 -147 -156 -157 -166 -167 0
-21 -40 -41 -76 -77 -108 -109 -122 -123 -134 -136 -145 -147 -156 -157 -166 -167 0
-21 -40 -41 -76 -77 -108 -109 -122 -123 -135 -136 -145 -148 -156 -157 -166 -167 0
-20 -39 -40 -75 -76 -107 -108 -121 -122 -134 -135 -146 -147 -156 -158 -166 -167 0
-21 -39 -41 -75 -76 -107 -108 -121 -122 -134 -135 -146 -147 -156 -158 -166 -167 0
-21 -40 -41 -75 -77 -107 -108 -121 -122 -134 -135 -146 -147 -156 -158 -166 -167 0
-21 -40 -41 -76 -77 -107 -109 -121 -122 -134 -135 -146 -147 -156 -158 -166 -167 0
-21 -40 -41 -76 -77 -108 -109 -121 -123 -134 -135 -146 -147 -156 -158 -166 -167 0
-21 -40 -41 -76 -77 -108 -109 -122 -123 -134 -136 -146 -147 -156 -158 -166 -167 0
-21 -40 -41 -76 -77 -108 -109 -122 -123 -135 -136 -146 -148 -156 -158 -166 -167 0
-21 -40 -41 -76 -77 -108 -109 -122 -123 -135 -136 -147 -148 -156 -159 -166 -167 0
-20 -39 -40 -75 -76 -107 -108 -121 -122 -134 -135 -146 -147 -157 -158 -166 -168 0
-21 -39 -41 -75 -76 -107 -108 -121 -122 -134 -135 -146 -147 -157 -158 -166 -168 0
-21 -40 -41 -75 -77 -107 -108 -121 -122 -134 -135 -146 -147 -157 -158 -166 -168 0
-21 -40 -41 -76 -77 -107 -109 -121 -122 -134 -135 -146 -147 -157 -158 -166 -168 0
-21 -40 -41 -76 -77 -108 -109 -121 -123 -134 -135 -146 -147 -157 -158 -166 -168 0
-21 -40 -41 -76 -77 -108 -109 -122 -123 -134 -136 -146 -147 -157 -158 -166 -168 0
-21 -40 -41 -76 -77 -108 -109 -122 -123 -135 -136 -146 -148 -157 -158 -166 -168 0
-21 -40 -41 -76 -77 -108 -109 -122 -123 -135 -136 -147 -148 -157 -159 -166 -168 0
-21 -40 -41 -76 -77 -108 -109 -122 -123 -135 -136 -147 -148 -158 -159 -166 -169 0
-20 -39 -40 -75 -76 -107 -108 -121 -122 -134 -135 -146 -147 -157 -158 -167 -168 0
-21 -39 -41 -75 -76 -107 -108 -121 -122 -134 -135 -146 -147 -157 -158 -167 -168 0
-21 -40 -41 -75 -77 -107 -108 -121 -122 -134 -135 -146 -147 -157 -158 -167 -168 0
-21 -40 -41 -76 -77 -107 -109 -121 -122 -134 -135 -146 -147 -157 -158 -167 -168 0
-21 -40 -41 -76 -77 -108 -109 -121 -123 -134 -135 -146 -147 -157 -158 -167 -168 0
-21 -40 -41 -76 -77 -108 -109 -122 -123 -134 -136 -146 -147 -157 -158 -167 -168 0
-21 -40 -41 -76 -77 -108 -109 -122 -123 -135 -136 -146 -148 -157 -158 -167 -168 0
-21 -40 -41 -76 -77 -108 -109 -122 -123 -135 -136 -147 -148 -157 -159 -167 -168 0
-21 -40 -41 -76 -77 -108 -109 -122 -123 -135 -136 -147 -148 -158 -159 -167 -169 0
-21 -40 -41 -76 -77 -108 -109 -122 -123 -135 -136 -147 -148 -158 -159 -168 -169 0
-20 -39 -40 -75 -76 -107 -108 -121 -122 -134 -135 -146 -147 -157 -158 -177 -178 0
-21 -39 -41 -75 -76 -107 -108 -121 -122 -134 -135 -146 -147 -157 -158 -177 -178 0
-21 -40 -41 -75 -77 -107 -108 -121 -122 -134 -135 -146 -147 -157 -158 -177 -178 0
-21 -40 -41 -76 -77 -107 -109 -121 -122 -134 -135 -146 -147 -157 -158 -177 -178 0
-21 -40 -41 -76 -77 -108 -109 -121 -123 -134 -135 -146 -147 -157 -158 -177 -178 0
-21 -40 -41 -76 -77 -108 -109 -122 -123 -134 -136 -146 -147 -157 -158 -177 -178 0
-21 -40 -41 -76 -77 -108 -109 -122 -123 -135 -136 -146 -148 -157 -158 -177 -178 0
-21 -40 -41 -76 -77 -108 -109 -122 -123 -135 -136 -147 -148 -157 -159 -177 -178 0
-21 -40 -41 -76 -77 -108 -109 -122 -123 -135 -136 -147 -148 -158 -159 -177 -179 0
-21 -40 -41 -76 -77 -108 -109 -122 -123 -135 -136 -147 -148 -158 -159 -178 -179 0
-21 -40 -41 -76 -77 -108 -109 -122 -123 -135 -136 -147 -148 -158 -159 -187 -188 0
-20 -39 -40 -75 -76 -107 -108 -121 -122 -134 -135 -146 -147 -168 -169 -177 -178 0
-21 -39 -41 -75 -76 -107 -108 -121 -122 -134 -135 -146 -147 -168 -169 -177 -178 0
-21 -40 -41 -75 -77 -107 -108 -121 -122 -134 -135 -146 -147 -168 -169 -177 -178 0
-21 -40 -41 -76 -77 -107 -109 -121 -122 -134 -135 -146 -147 -168 -169 -177 -178 0
-21 -40 -41 -76 -77 -108 -109 -121 -123 -134 -135 -146 -147 -168 -169 -177 -178 0
-21 -40 -41 -76 -77 -108 -109 -122 -123 -134 -136 -146 -147 -168 -169 -177 -178 0
-21 -40 -41 -76 -77 -108 -109 -122 -123 -135 -136 -146 -148 -168 -169 -177 -178 0
-21 -40 -41 -76 -77 -108 -109 -122 -123 -135 -136 -147 -148 -168 -170 -177 -178 0
-21 -40 -41 -76 -77 -108 -109 -122 -123 -135 -136 -147 -148 -169 -170 -177 -179 0
-21 -40 -41 -76 -77 -108 -109 -122 -123 -135 -136 -147 -148 -169 -170 -178 -179 0
-21 -40 -41 -76 -77 -108 -109 -122 -123 -135 -136 -147 -148 -169 -170 -187 -188 0
-21 -40 -41 -76 -77 -108 -109 -122 -123 -135 -136 -147 -148 -179 -180 -187 -188 0
-20 -39 -40 -75 -76 -107 -108 -121 -122 -134 -135 -158 -159 -168 -169 -177 -178 0
-21 -39 -41 -75 -76 -107 -108 -121 -122 -134 -135 -158 -159 -168 -169 -177 -178 0
-21 -40 -41 -75 -77 -107 -108 -121 -122 -134 -135 -158 -159 -168 -169 -177 -178 0
-21 -40 -41 -76 -77 -107 -109 -121 -122 -134 -135 -158 -159 -168 -169 -177 -178 0
-21 -40 -41 -76 -77 -108 -109 -121 -123 -134 -135 -158 -159 -168 -169 -177 -178 0
-21 -40 -41 -76 -77 -108 -109 -122 -123 -134 -136 -158 -159 -168 -169 -177 -178 0
-21 -40 -41 -76 -77 -108 -109 -122 -123 -135 -136 -158 -160 -168 -169 -177 -178 0
-21 -40 -41 -76 -77 -108 -109 -122 -123 -135 -136 -159 -160 -168 -170 -177 -178 0
-21 -40 -41 -76 -77 -108 -109 -122 -123 -135 -136 -159 -160 -169 -170 -177 -179 0
-21 -40 -41 -76 -77 -108 -109 -122 -123 -135 -136 -159 -160 -169 -170 -178 -179 0
-21 -40 -41 -76 -77 -108 -109 -122 -123 -135 -136 -159 -160 -169 -170 -187 -188 0
-21 -40 -41 -76 -77 -108 -109 -122 -123 -135 -136 -159 -160 -179 -180 -187 -188 0
-21 -40 -41 -76 -77 -108 -109 -122 -123 -135 -136 -170 -171 -179 -180 -187 -188 0
-20 -39 -40 -75 -76 -107 -108 -121 -122 -147 -148 -158 -159 -168 -169 -177 -178 0
-21 -39 -41 -75 -76 -107 -108 -121 -122 -147 -148 -158 -159 -168 -169 -177 -178 0
-21 -40 -41 -75 -77 -107 -108 -121 -122 -147 -148 -158 -159 -168 -169 -177 -178 0
-21 -40 -41 -76 -77 -107 -109 -121 -122 -147 -148 -158 -159 -168 -169 -177 -178 0
-21 -40 -41 -76 -77 -108 -109 -121 -123 -147 -148 -158 -159 -168 -169 -177 -178 0
-21 -40 -41 -76 -77 -108 -109 -122 -123 -147 -149 -158 -159 -168 -169 -177 -178 0
-21 -40 -41 -76 -77 -108 -109 -122 -123 -148 -149 -158 -160 -168 -169 -177 -178 0
-21 -40 -41 -76 -77 -108 -109 -122 -123 -148 -149 -159 -160 -168 -170 -177 -178 0
-21 -40 -41 -76 -77 -108 -109 -122 -123 -148 -149 -159 -160 -169 -170 -177 -179 0
-21 -40 -41 -76 -77 -108 -109 -122 -123 -148 -149 -159 -160 -169 -170 -178 -179 0
-21 -40 -41 -76 -77 -108 -109 -122 -123 -148 -149 -159 -160 -169 -170 -187 -188 0
-21 -40 -41 -76 -77 -108 -109 -122 -123 -148 -149 -159 -160 -179 -180 -187 -188 0
-21 -40 -41 -76 -77 -108 -109 -122 -123 -148 -149 -170 -171 -179 -180 -187 -188 0
-21 -40 -41 -76 -77 -108 -109 -122 -123 -160 -161 -170 -171 -179 -180 -187 -188 0
-20 -39 -40 -75 -76 -107 -108 -135 -136 -147 -148 -158 -159 -168 -169 -177 -178 0
-21 -39 -41 -75 -76 -107 -108 -135 -136 -147 -148 -158 -159 -168 -169 -177 -178 0
-21 -40 -41 -75 -77 -107 -108 -135 -136 -147 -148 -158 -159 -168 -169 -177 -178 0
-21 -40 -41 -76 -77 -107 -109 -135 -136 -147 -148 -158 -159 -168 -169 -177 -178 0
-21 -40 -41 -76 -77 -108 -109 -135 -137 -147 -148 -158 -159 -168 -169 -177 -178 0
-21 -40 -41 -76 -77 -108 -109 -136 -137 -147 -149 -158 -159 -168 -169 -177 -178 0
-21 -40 -41 -76 -77 -108 -109 -136 -137 -148 -149 -158 -160 -168 -169 -177 -178 0
-21 -40 -41 -76 -77 -108 -109 -136 -137 -148 -149 -159 -160 -168 -170 -177 -178 0
-21 -40 -41 -76 -77 -108 -109 -136 -137 -148 -149 -159 -160 -169 -170 -177 -179 0
-21 -40 -41 -76 -77 -108 -109 -136 -137 -148 -149 -159 -160 -169 -170 -178 -179 0
-21 -40 -41 -76 -77 -108 -109 -136 -137 -148 -149 -159 -160 -169 -170 -187 -188 0
-21 -40 -41 -76 -77 -108 -109 -136 -137 -148 -149 -159 -160 -179 -180 -187 -188 0
-21 -40 -41 -76 -77 -108 -109 -136 -137 -148 -149 -170 -171 -179 -180 -187 -188 0
-21 -40 -41 -76 -77 -108 -109 -136 -137 -160 -161 -170 -171 -179 -180 -187 -188 0
-21 -40 -41 -76 -77 -108 -109 -149 -150 -160 -161 -170 -171 -179 -180 -187 -188 0
-20 -39 -40 -75 -76 -122 -123 -135 -136 -147 -148 -158 -159 -168 -169 -177 -178 0
-21 -39 -41 -75 -76 -122 -123 -135 -136 -147 -148 -158 -159 -168 -169 -177 -178 0
-21 -40 -41 -75 -77 -122 -123 -135 -136 -147 -148 -158 -159 -168 -169 -177 -178 0
-21 -40 -41 -76 -77 -122 -124 -135 -136 -147 -148 -158 -159 -168 -169 -177 -178 0
-21 -40 -41 -76 -77 -123 -124 -135 -137 -147 -148 -158 -159 -168 -169 -177 -178 0
-21 -40 -41 -76 -77 -123 -124 -136 -137 -147 -149 -158 -159 -168 -169 -177 -178 0
-21 -40 -41 -76 -77 -123 -124 -136 -137 -148 -149 -158 -160 -168 -169 -177 -178 0
-21 -40 -41 -76 -77 -123 -124 -136 -137 -148 -149 -159 -160 -168 -170 -177 -178 0
-21 -40 -41 -76 -77 -123 -124 -136 -137 -148 -149 -159 -160 -169 -170 -177 -179 0
-21 -40 -41 -76 -77 -123 -124 -136 -137 -148 -149 -159 -160 -169 -170 -178 -179 0
-21 -40 -41 -76 -77 -123 -124 -136 -137 -148 -149 -159 -160 -169 -170 -187 -188 0
-21 -40 -41 -76 -77 -123 -124 -136 -137 -148 -149 -159 -160 -179 -180 -187 -188 0
-21 -40 -41 -76 -77 -123 -124 -136 -137 -148 -149 -170 -171 -179 -180 -187 -188 0
-21 -40 -41 -76 -77 -123 -124 -136 -137 -160 -161 -170 -171 -179 -180 -187 -188 0
-21 -40 -41 -76 -77 -123 -124 -149 -150 -160 -161 -170 -171 -179 -180 -187 -188 0
-21 -40 -41 -76 -77 -137 -138 -149 -150 -160 -161 -170 -171 -179 -180 -187 -188 0
-19 -38 -39 -91 -92 -106 -107 -120 -121 -133 -134 -145 -146 -156 -157 -166 -167 0
-20 -38 -40 -91 -92 -106 -107 -120 -121 -133 -134 -145 -146 -156 -157 -166 -167 0
-21 -38 -41 -91 -92 -106 -107 -120 -121 -133 -134 -145 -146 -156 -157 -166 -167 0
-20 -39 -40 -91 -93 -106 -107 -120 -121 -133 -134 -145 -146 -156 -157 -166 -167 0
-21 -39 -41 -91 -93 -106 -107 -120 -121 -133 -134 -145 -146 -156 -157 -166 -167 0
-21 -40 -41 -91 -94 -106 -107 -120 -121 -133 -134 -145 -146 -156 -157 -166 -167 0
-20 -39 -40 -92 -93 -106 -108 -120 -121 -133 -134 -145 -146 -156 -157 -166 -167 0
-21 -39 -41 -92 -93 -106 -108 -120 -121 -133 -134 -145 -146 -156 -157 -166 -167 0
-21 -40 -41 -92 -94 -106 -108 -120 -121 -133 -134 -145 -146 -156 -157 -166 -167 0
-21 -40 -41 -93 -94 -106 -109 -120 -121 -133 -134 -145 -146 -156 -157 -166 -167 0
-20 -39 -40 -92 -93 -107 -108 -120 -122 -133 -134 -145 -146 -156 -157 -166 -167 0
-21 -39 -41 -92 -93 -107 -108 -120 -122 -133 -134 -145 -146 -156 -157 -166 -167 0
-21 -40 -41 -92 -94 -107 -108 -120 -122 -133 -134 -145 -146 -156 -157 -166 -167 0
-21 -40 -41 -93 -94 -107 -109 -120 -122 -133 -134 -145 -146 -156 -157 -166 -167 0
-21 -40 -41 -93 -94 -108 -109 -120 -123 -133 -134 -145 -146 -156 -157 -166 -167 0
-20 -39 -40 -92 -93 -107 -108 -121 -122 -133 -135 -145 -146 -156 -157 -166 -167 0
-21 -39 -41 -92 -93 -107 -108 -121 -122 -133 -135 -145 -146 -156 -157 -166 -167 0
-21 -40 -41 -92 -94 -107 -108 -121 -122 -133 -135 -145 -146 -156 -157 -166 -167 0
-21 -40 -41 -93 -94 -107 -109 -121 -122 -133 -135 -145 -146 -156 -157 -166 -167 0
-21 -40 -41 -93 -94 -108 -109 -121 -123 -133 -135 -145 -146 -156 -157 -166 -167 0
-21 -40 -41 -93 -94 -108 -109 -122 -123 -133 -136 -145 -146 -156 -157 -166 -167 0
-20 -39 -40 -92 -93 -107 -108 -121 -122 -134 -135 -145 -147 -156 -157 -166 -167 0
-21 -39 -41 -92 -93 -107 -108 -121 -122 -134 -135 -145 -147 -156 -157 -166 -167 0
-21 -40 -41 -92 -94 -107 -108 -121 -122 -134 -135 -145 -147 -156 -157 -166 -167 0
-21 -40 -41 -93 -94 -107 -109 -121 -122 -134 -135 -145 -147 -156 -157 -166 -167 0
-21 -40 -41 -93 -94 -108 -109 -121 -123 -134 -135 -145 -147 -156 -157 -166 -167 0
-21 -40 -41 -93 -94 -108 -109 -122 -123 -134 -136 -145 -147 -156 -157 -166 -167 0
-21 -40 -41 -93 -94 -108 -109 -122 -123 -135 -136 -145 -148 -156 -157 -166 -167 0
-20 -39 -40 -92 -93 -107 -108 -121 -122 -134 -135 -146 -147 -156 -158 -166 -167 0
-21 -39 -41 -92 -93 -107 -108 -121 -122 -134 -135 -146 -147 -156 -158 -166 -167 0
-21 -40 -41 -92 -94 -107 -108 -121 -122 -134 -135 -146 -147 -156 -158 -166 -167 0
-21 -40 -41 -93 -94 -107 -109 -121 -122 -134 -135 -146 -147 -156 -158 -166 -167 0
-21 -40 -41 -93 -94 -108 -109 -121 -123 -134 -135 -146 -147 -156 -158 -166 -167 0
-21 -40 -41 -93 -94 -108 -109 -122 -123 -134 -136 -146 -147 -156 -158 -166 -167 0
-21 -40 -41 -93 -94 -108 -109 -122 -123 -135 -136 -146 -148 -156 -158 -166 -167 0
-21 -40 -41 -93 -94 -108 -109 -122 -123 -135 -136 -147 -148 -156 -159 -166 -167 0
-20 -39 -40 -92 -93 -107 -108 -121 -122 -134 -135 -146 -147 -157 -158 -166 -168 0
-21 -39 -41 -92 -93 -107 -108 -121 -122 -134 -135 -146 -147 -157 -158 -166 -168 0
-21 -40 -41 -92 -94 -107 -108 -121 -122 -134 -135 -146 -147 -157 -158 -166 -168 0
-21 -40 -41 -93 -94 -107 -109 -121 -122 -134 -135 -146 -147 -157 -158 -166 -168 0
-21 -40 -41 -93 -94 -108 -109 -121 -123 -134 -135 -146 -147 -157 -158 -166 -168 0
-21 -40 -41 -93 -94 -108 -109 -122 -123 -134 -136 -146 -147 -157 -158 -166 -168 0
-21 -40 -41 -93 -94 -108 -109 -122 -123 -135 -136 -146 -148 -157 -158 -166 -168 0
-21 -40 -41 -93 -94 -108 -109 -122 -123 -135 -136 -147 -148 -157 -159 -166 -168 0
-21 -40 -41 -93 -94 -108 -109 -122 -123 -135 -136 -147 -148 -158 -159 -166 -169 0
-20 -39 -40 -92 -93 -107 -108 -121 -122 -134 -135 -146 -147 -157 -158 -167 -168 0
-21 -39 -41 -92 -93 -107 -108 -121 -122 -134 -135 -146 -147 -157 -158 -167 -168 0
-21 -40 -41 -92 -94 -107 -108 -121 -122 -134 -135 -146 -147 -157 -158 -167 -168 0
-21 -40 -41 -93 -94 -107 -109 -121 -122 -134 -135 -146 -147 -157 -158 -167 -168 0
-21 -40 -41 -93 -94 -108 -109 -121 -123 -134 -135 -146 -147 -157 -158 -167 -168 0
-21 -40 -41 -93 -94 -108 -109 -122 -123 -134 -136 -146 -147 -157 -158 -167 -168 0
-21 -40 -41 -93 -94 -108 -109 -122 -123 -135 -136 -146 -148 -157 -158 -167 -168 0
-21 -40 -41 -93 -94 -108 -109 -122 -123 -135 -136 -147 -148 -157 -159 -167 -168 0
-21 -40 -41 -93 -94 -108 -109 -122 -123 -135 -136 -147 -148 -158 -159 -167 -169 0
-21 -40 -41 -93 -94 -108 -109 -122 -123 -135 -136 -147 -148 -158 -159 -168 -169 0
-20 -39 -40 -92 -93 -107 -108 -121 -122 -134 -135 -146 -147 -157 -158 -177 -178 0
-21 -39 -41 -92 -93 -107 -108 -121 -122 -134 -135 -146 -147 -157 -158 -177 -178 0
-21 -40 -41 -92 -94 -107 -108 -121 -122 -134 -135 -146 -147 -157 -158 -177 -178 0
-21 -40 -41 -93 -94 -107 -109 -121 -122 -134 -135 -146 -147 -157 -158 -177 -178 0
-21 -40 -41 -93 -94 -108 -109 -121 -123 -134 -135 -146 -147 -157 -158 -177 -178 0
-21 -40 -41 -93 -94 -108 -109 -122 -123 -134 -136 -146 -147 -157 -158 -177 -178 0
-21 -40 -41 -93 -94 -108 -109 -122 -123 -135 -136 -146 -148 -157 -158 -177 -178 0
-21 -40 -41 -93 -94 -108 -109 -122 -123 -135 -136 -147 -148 -157 -159 -177 -178 0
-21 -40 -41 -93 -94 -108 -109 -122 -123 -135 -136 -147 -148 -158 -159 -177 -179 0
-21 -40 -41 -93 -94 -108 -109 -122 -123 -135 -136 -147 -148 -158 -159 -178 -179 0
-21 -40 -41 -93 -94 -108 -109 -122 -123 -135 -136 -147 -148 -158 -159 -187 -188 0
-20 -39 -40 -92 -93 -107 -108 -121 -122 -134 -135 -146 -147 -168 -169 -177 -178 0
-21 -39 -41 -92 -93 -107 -108 -121 -122 -134 -135 -146 -147 -168 -169 -177 -178 0
-21 -40 -41 -92 -94 -107 -108 -121 -122 -134 -135 -146 -147 -168 -169 -177 -178 0
-21 -40 -41 -93 -94 -107 -109 -121 -122 -134 -135 -146 -147 -168 -169 -177 -178 0
-21 -40 -41 -93 -94 -108 -109 -121 -123 -134 -135 -146 -147 -168 -169 -177 -178 0
-21 -40 -41 -93 -94 -108 -109 -122 -123 -134 -136 -146 -147 -168 -169 -177 -178 0
-21 -40 -41 -93 -94 -108 -109 -122 -123 -135 -136 -146 -148 -168 -169 -177 -178 0
-21 -40 -41 -93 -94 -108 -109 -122 -123 -135 -136 -147 -148 -168 -170 -177 -178 0
-21 -40 -41 -93 -94 -108 -109 -122 -123 -135 -136 -147 -148 -169 -170 -177 -179 0
-21 -40 -41 -93 -94 -108 -109 -122 -123 -135 -136 -147 -148 -169 -170 -178 -179 0
-21 -40 -41 -93 -94 -108 -109 -122 -123 -135 -136 -147 -148 -169 -170 -187 -188 0
-21 -40 -41 -93 -94 -108 -109 -122 -123 -135 -136 -147 -148 -179 -180 -187 -188 0
-20 -39 -40 -92 -93 -107 -108 -121 -122 -134 -135 -158 -159 -168 -169 -177 -178 0
-21 -39 -41 -92 -93 -107 -108 -121 -122 -134 -135 -158 -159 -168 -169 -177 -178 0
-21 -40 -41 -92 -94 -107 -108 -121 -122 -134 -135 -158 -159 -168 -169 -177 -178 0
-21 -40 -41 -93 -94 -107 -109 -121 -122 -134 -135 -158 -159 -168 -169 -177 -178 0
-21 -40 -41 -93 -94 -108 -109 -121 -123 -134 -135 -158 -159 -168 -169 -177 -178 0
-21 -40 -41 -93 -94 -108 -109 -122 -123 -134 -136 -158 -159 -168 -169 -177 -178 0
-21 -40 -41 -93 -94 -108 -109 -122 -123 -135 -136 -158 -160 -168 -169 -177 -178 0
-21 -40 -41 -93 -94 -108 -109 -122 -123 -135 -136 -159 -160 -168 -170 -177 -178 0
-21 -40 -41 -93 -94 -108 -109 -122 -123 -135 -136 -159 -160 -169 -170 -177 -179 0
-21 -40 -41 -93 -94 -108 -109 -122 -123 -135 -136 -159 -160 -169 -170 -178 -179 0
-21 -40 -41 -93 -94 -108 -109 -122 -123 -135 -136 -159 -160 -169 -170 -187 -188 0
-21 -40 -41 -93 -94 -108 -109 -122 -123 -135 -136 -159 -160 -179 -180 -187 -188 0
-21 -40 -41 -93 -94 -108 -109 -122 -123 -135 -136 -170 -171 -179 -180 -187 -188 0
-20 -39 -40 -92 -93 -107 -108 -121 -122 -147 -148 -158 -159 -168 -169 -177 -178 0
-21 -39 -41 -92 -93 -107 -108 -121 -122 -147 -148 -158 -159 -168 -169 -177 -178 0
-21 -40 -41 -92 -94 -107 -108 -121 -122 -147 -148 -158 -159 -168 -169 -177 -178 0
-21 -40 -41 -93 -94 -107 -109 -121 -122 -147 -148 -158 -159 -168 -169 -177 -178 0
-21 -40 -41 -93 -94 -108 -109 -121 -123 -147 -148 -158 -159 -168 -169 -177 -178 0
-21 -40 -41 -93 -94 -108 -109 -122 -123 -147 -149 -158 -159 -168 -169 -177 -178 0
-21 -40 -41 -93 -94 -108 -109 -122 -123 -148 -149 -158 -160 -168 -169 -177 -178 0
-21 -40 -41 -93 -94 -108 -109 -122 -123 -148 -149 -159 -160 -168 -170 -177 -178 0
-21 -40 -41 -93 -94 -108 -109 -122 -123 -148 -149 -159 -160 -169 -170 -177 -179 0
-21 -40 -41 -93 -94 -108 -109 -122 -123 -148 -149 -159 -160 -169 -170 -178 -179 0
-21 -40 -41 -93 -94 -108 -109 -122 -123 -148 -149 -159 -160 -169 -170 -187 -188 0
-21 -40 -41 -93 -94 -108 -109 -122 -123 -148 -149 -159 -160 -179 -180 -187 -188 0
-21 -40 -41 -93 -94 -108 -109 -122 -123 -148 -149 -170 -171 -179 -180 -187 -188 0
-21 -40 -41 -93 -94 -108 -109 -122 -123 -160 -161 -170 -171 -179 -180 -187 -188 0
-20 -39 -40 -92 -93 -107 -108 -135 -136 -147 -148 -158 -159 -168 -169 -177 -178 0
-21 -39 -41 -92 -93 -107 -108 -135 -136 -147 -148 -158 -159 -168 -169 -177 -178 0
-21 -40 -41 -92 -94 -107 -108 -135 -136 -147 -148 -158 -159 -168 -169 -177 -178 0
-21 -40 -41 -93 -94 -107 -109 -135 -136 -147 -148 -158 -159 -168 -169 -177 -178 0
-21 -40 -41 -93 -94 -108 -109 -135 -137 -147 -148 -158 -159 -168 -169 -177 -178 0
-21 -40 -41 -93 -94 -108 -109 -136 -137 -147 -149 -158 -159 -168 -169 -177 -178 0
-21 -40 -41 -93 -94 -108 -109 -136 -137 -148 -149 -158 -160 -168 -169 -177 -178 0
-21 -40 -41 -93 -94 -108 -109 -136 -137 -148 -149 -159 -160 -168 -170 -177 -178 0
-21 -40 -41 -93 -94 -108 -109 -136 -137 -148 -149 -159 -160 -169 -170 -177 -179 0
-21 -40 -41 -93 -94 -108 -109 -136 -137 -148 -149 -159 -160 -169 -170 -178 -179 0
-21 -40 -41 -93 -94 -108 -109 -136 -137 -148 -149 -159 -160 -169 -170 -187 -188 0
-21 -40 -41 -93 -94 -108 -109 -136 -137 -148 -149 -159 -160 -179 -180 -187 -188 0
-21 -40 -41 -93 -94 -108 -109 -136 -137 -148 -149 -170 -171 -179 -180 -187 -188 0
-21 -40 -41 -93 -94 -108 -109 -136 -137 -160 -161 -170 -171 -179 -180 -187 -188 0
-21 -40 -41 -93 -94 -108 -109 -149 -150 -160 -161 -170 -171 -179 -180 -187 -188 0
-20 -39 -40 -92 -93 -122 -123 -135 -136 -147 -148 -158 -159 -168 -169 -177 -178 0
-21 -39 -41 -92 -93 -122 -123 -135 -136 -147 -148 -158 -159 -168 -169 -177 -178 0
-21 -40 -41 -92 -94 -122 -123 -135 -136 -147 -148 -158 -159 -168 -169 -177 -178 0
-21 -40 -41 -93 -94 -122 -124 -135 -136 -147 -148 -158 -159 -168 -169 -177 -178 0
-21 -40 -41 -93 -94 -123 -124 -135 -137 -147 -148 -158 -159 -168 -169 -177 -178 0
-21 -40 -41 -93 -94 -123 -124 -136 -137 -147 -149 -158 -159 -168 -169 -177 -178 0
-21 -40 -41 -93 -94 -123 -124 -136 -137 -148 -149 -158 -160 -168 -169 -177 -178 0
-21 -40 -41 -93 -94 -123 -124 -136 -137 -148 -149 -159 -160 -168 -170 -177 -178 0
-21 -40 -41 -93 -94 -123 -124 -136 -137 -148 -149 -159 -160 -169 -170 -177 -179 0
-21 -40 -41 -93 -94 -123 -124 -136 -137 -148 -149 -159 -160 -169 -170 -178 -179 0
-21 -40 -41 -93 -94 -123 -124 -136 -137 -148 -149 -159 -160 -169 -170 -187 -188 0
-21 -40 -41 -93 -94 -123 -124 -136 -137 -148 -149 -159 -160 -179 -180 -187 -188 0
-21 -40 -41 -93 -94 -123 -124 -136 -137 -148 -149 -170 -171 -179 -180 -187 -188 0
-21 -40 -41 -93 -94 -123 -124 -136 -137 -160 -161 -170 -171 -179 -180 -187 -188 0
-21 -40 -41 -93 -94 -123 -124 -149 -150 -160 -161 -170 -171 -179 -180 -187 -188 0
-21 -40 -41 -93 -94 -137 -138 -149 -150 -160 -161 -170 -171 -179 -180 -187 -188 0
-20 -39 -40 -108 -109 -122 -123 -135 -136 -147 -148 -158 -159 -168 -169 -177 -178 0
-21 -39 -41 -108 -109 -122 -123 -135 -136 -147 -148 -158 -159 -168 -169 -177 -178 0
-21 -40 -41 -108 -110 -122 -123 -135 -136 -147 -148 -158 -159 -168 -169 -177 -178 0
-21 -40 -41 -109 -110 -122 -124 -135 -136 -147 -148 -158 -159 -168 -169 -177 -178 0
-21 -40 -41 -109 -110 -123 -124 -135 -137 -147 -148 -158 -159 -168 -169 -177 -178 0
-21 -40 -41 -109 -110 -123 -124 -136 -137 -147 -149 -158 -159 -168 -169 -177 -178 0
-21 -40 -41 -109 -110 -123 -124 -136 -137 -148 -149 -158 -160 -168 -169 -177 -178 0
-21 -40 -41 -109 -110 -123 -124 -136 -137 -148 -149 -159 -160 -168 -170 -177 -178 0
-21 -40 -41 -109 -110 -123 -124 -136 -137 -148 -149 -159 -160 -169 -170 -177 -179 0
-21 -40 -41 -109 -110 -123 -124 -136 -137 -148 -149 -159 -160 -169 -170 -178 -179 0
-21 -40 -41 -109 -110 -123 -124 -136 -137 -148 -149 -159 -160 -169 -170 -187 -188 0
-21 -40 -41 -109 -110 -123 -124 -136 -137 -148 -149 -159 -160 -179 -180 -187 -188 0
-21 -40 -41 -109 -110 -123 -124 -136 -137 -148 -149 -170 -171 -179 -180 -187 -188 0
-21 -40 -41 -109 -110 -123 -124 -136 -137 -160 -161 -170 -171 -179 -180 -187 -188 0
-21 -40 -41 -109 -110 -123 -124 -149 -150 -160 -161 -170 -171 -179 -180 -187 -188 0
-21 -40 -41 -109 -110 -137 -138 -149 -150 -160 -161 -170 -171 -179 -180 -187 -188 0
-21 -40 -41 -124 -125 -137 -138 -149 -150 -160 -161 -170 -171 -179 -180 -187 -188 0
-18 -56 -57 -73 -74 -89 -90 -104 -105 -118 -119 -131 -132 -143 -144 -154 -155 0
-19 -56 -58 -73 -74 -89 -90 -104 -105 -118 -119 -131 -132 -143 -144 -154 -155 0
-20 -56 -59 -73 -74 -89 -90 -104 -105 -118 -119 -131 -132 -143 -144 -154 -155 0
-21 -56 -60 -73 -74 -89 -90 -104 -105 -118 -119 -131 -132 -143 -144 -154 -155 0
-19 -57 -58 -73 -75 -89 -90 -104 -105 -118 -119 -131 -132 -143 -144 -154 -155 0
-20 -57 -59 -73 -75 -89 -90 -104 -105 -118 -119 -131 -132 -143 -144 -154 -155 0
-21 -57 -60 -73 -75 -89 -90 -104 -105 -118 -119 -131 -132 -143 -144 -154 -155 0
-20 -58 -59 -73 -76 -89 -90 -104 -105 -118 -119 -131 -132 -143 -144 -154 -155 0
-21 -58 -60 -73 -76 -89 -90 -104 -105 -118 -119 -131 -132 -143 -144 -154 -155 0
-21 -59 -60 -73 -77 -89 -90 -104 -105 -118 -119 -131 -132 -143 -144 -154 -155 0
-19 -57 -58 -74 -75 -89 -91 -104 -105 -118 -119 -131 -132 -143 -144 -154 -155 0
-20 -57 -59 -74 -75 -89 -91 -104 -105 -118 -119 -131 -132 -143 -144 -154 -155 0
-21 -57 -60 -74 -75 -89 -91 -104 -105 -118 -119 -131 -132 -143 -144 -154 -155 0
-20 -58 -59 -74 -76 -89 -91 -104 -105 -118 -119 -131 -132 -143 -144 -154 -155 0
-21 -58 -60 -74 -76 -89 -91 -104 -105 -118 -119 -131 -132 -143 -144 -154 -155 0
-21 -59 -60 -74 -77 -89 -91 -104 -105 -118 -119 -131 -132 -143 -144 -154 -155 0
-20 -58 -59 -75 -76 -89 -92 -104 -105 -118 -119 -131 -132 -143 -144 -154 -155 0
-21 -58 -60 -75 -76 -89 -92 -104 -105 -118 -119 -131 -132 -143 -144 -154 -155 0
-21 -59 -60 -75 -77 -89 -92 -104 -105 -118 -119 -131 -132 -143 -144 -154 -155 0
-21 -59 -60 -76 -77 -89 -93 -104 -105 -118 -119 -131 -132 -143 -144 -154 -155 0
-19 -57 -58 -74 -75 -90 -91 -104 -106 -118 -119 -131 -132 -143 -144 -154 -155 0
-20 -57 -59 -74 -75 -90 -91 -104 -106 -118 -119 -131 -132 -143 -144 -154 -155 0
-21 -57 -60 -74 -75 -90 -91 -104 -106 -118 -119 -131 -132 -143 -144 -154 -155 0
-20 -58 -59 -74 -76 -90 -91 -104 -106 -118 -119 -131 -132 -143 -144 -154 -155 0
-21 -58 -60 -74 -76 -90 -91 -104 -106 -118 -119 -131 -132 -143 -144 -154 -155 0
-21 -59 -60 -74 -77 -90 -91 -104 -106 -118 -119 -131 -132 -143 -144 -154 -155 0
-20 -58 -59 -75 -76 -90 -92 -104 -106 -118 -119 -131 -132 -143 -144 -154 -155 0
-21 -58 -60 -75 -76 -90 -92 -104 -106 -118 -119 -131 -132 -143 -144 -154 -155 0
-21 -59 -60 -75 -77 -90 -92 -104 -106 -118 -119 -131 -132 -143 -144 -154 -155 0
-21 -59 -60 -76 -77 -90 -93 -104 -106 -118 -119 -131 -132 -143 -144 -154 -155 0
-20 -58 -59 -75 -76 -91 -92 -104 -107 -118 -119 -131 -132 -143 -144 -154 -155 0
-21 -58 -60 -75 -76 -91 -92 -104 -107 -118 -119 -131 -132 -143 -144 -154 -155 0
-21 -59 -60 -75 -77 -91 -92 -104 -107 -118 -119 -131 -132 -143 -144 -154 -155 0
-21 -59 -60 -76 -77 -91 -93 -104 -107 -118 -119 -131 -132 -143 -144 -154 -155 0
-21 -59 -60 -76 -77 -92 -93 -104 -108 -118 -119 -131 -132 -143 -144 -154 -155 0
-19 -57 -58 -74 -75 -90 -91 -105 -106 -118 -120 -131 -132 -143 -144 -154 -155 0
-20 -57 -59 -74 -75 -90 -91 -105 -106 -118 -120 -131 -132 -143 -144 -154 -155 0
-21 -57 -60 -74 -75 -90 -91 -105 -106 -118 -120 -131 -132 -143 -144 -154 -155 0
-20 -58 -59 -74 -76 -90 -91 -105 -106 -118 -120 -131 -132 -143 -144 -154 -155 0
-21 -58 -60 -74 -76 -90 -91 -105 -106 -118 -120 -131 -132 -143 -144 -154 -155 0
-21 -59 -60 -74 -77 -90 -91 -105 -106 -118 -120 -131 -132 -143 -144 -154 -155 0
-20 -58 -59 -75 -76 -90 -92 -105 -106 -118 -120 -131 -132 -143 -144 -154 -155 0
-21 -58 -60 -75 -76 -90 -92 -105 -106 -118 -120 -131 -132 -143 -144 -154 -155 0
-21 -59 -60 -75 -77 -90 -92 -105 -106 -118 -120 -131 -132 -143 -144 -154 -155 0
-21 -59 -60 -76 -77 -90 -93 -105 -106 -118 -120 -131 -132 -143 -144 -154 -155 0
-20 -58 -59 -75 -76 -91 -92 -105 -107 -118 -120 -131 -132 -143 -144 -154 -155 0
-21 -58 -60 -75 -76 -91 -92 -105 -107 -118 -120 -131 -132 -143 -144 -154 -155 0
-21 -59 -60 -75 -77 -91 -92 -105 -107 -118 -120 -131 -132 -143 -144 -154 -155 0
-21 -59 -60 -76 -77 -91 -93 -105 -107 -118 -120 -131 -132 -143 -144 -154 -155 0
-21 -59 -60 -76 -77 -92 -93 -105 -108 -118 -120 -131 -132 -143 -144 -154 -155 0
-20 -58 -59 -75 -76 -91 -92 -106 -107 -118 -121 -131 -132 -143 -144 -154 -155 0
-21 -58 -60 -75 -76 -91 -92 -106 -107 -118 -121 -131 -132 -143 -144 -154 -155 0
-21 -59 -60 -75 -77 -91 -92 -106 -107 -118 -121 -131 -132 -143 -144 -154 -155 0
-21 -59 -60 -76 -77 -91 -93 -106 -107 -118 -121 -131 -132 -143 -144 -154 -155 0
-21 -59 -60 -76 -77 -92 -93 -106 -108 -118 -121 -131 -132 -143 -144 -154 -155 0
-21 -59 -60 -76 -77 -92 -93 -107 -108 -118 -122 -131 -132 -143 -144 -154 -155 0
-19 -57 -58 -74 -75 -90 -91 -105 -106 -119 -120 -131 -133 -143 -144 -154 -155 0
-20 -57 -59 -74 -75 -90 -91 -105 -106 -119 -120 -131 -133 -143 -144 -154 -155 0
-21 -57 -60 -74 -75 -90 -91 -105 -106 -119 -120 -131 -133 -143 -144 -154 -155 0
-20 -58 -59 -74 -76 -90 -91 -105 -106 -119 -120 -131 -133 -143 -144 -154 -155 0
-21 -58 -60 -74 -76 -90 -91 -105 -106 -119 -120 -131 -133 -143 -144 -154 -155 0
-21 -59 -60 -74 -77 -90 -91 -105 -106 -119 -120 -131 -133 -143 -144 -154 -155 0
-20 -58 -59 -75 -76 -90 -92 -105 -106 -119 -120 -131 -133 -143 -144 -154 -155 0
-21 -58 -60 -75 -76 -90 -92 -105 -106 -119 -120 -131 -133 -143 -144 -154 -155 0
-21 -59 -60 -75 -77 -90 -92 -105 -106 -119 -120 -131 -133 -143 -144 -154 -155 0
-21 -59 -60 -76 -77 -90 -93 -105 -106 -119 -120 -131 -133 -143 -144 -154 -155 0
-20 -58 -59 -75 -76 -91 -92 -105 -107 -119 -120 -131 -133 -143 -144 -154 -155 0
-21 -58 -60 -75 -76 -91 -92 -105 -107 -119 -120 -131 -133 -143 -144 -154 -155 0
-21 -59 -60 -75 -77 -91 -92 -105 -107 -119 -120 -131 -133 -143 -144 -154 -155 0
-21 -59 -60 -76 -77 -91 -93 -105 -107 -119 -120 -131 -133 -143 -144 -154 -155 0
-21 -59 -60 -76 -77 -92 -93 -105 -108 -119 -120 -131 -133 -143 -144 -154 -155 0
-20 -58 -59 -75 -76 -91 -92 -106 -107 -119 -121 -131 -133 -143 -144 -154 -155 0
-21 -58 -60 -75 -76 -91 -92 -106 -107 -119 -121 -131 -133 -143 -144 -154 -155 0
-21 -59 -60 -75 -77 -91 -92 -106 -107 -119 -121 -131 -133 -143 -144 -154 -155 0
-21 -59 -60 -76 -77 -91 -93 -106 -107 -119 -121 -131 -133 -143 -144 -154 -155 0
-21 -59 -60 -76 -77 -92 -93 -106 -108 -119 -121 -131 -133 -143 -144 -154 -155 0
-21 -59 -60 -76 -77 -92 -93 -107 -108 -119 -122 -131 -133 -143 -144 -154 -155 0
-20 -58 -59 -75 -76 -91 -92 -106 -107 -120 -121 -131 -134 -143 -144 -154 -155 0
-21 -58 -60 -75 -76 -91 -92 -106 -107 -120 -121 -131 -134 -143 -144 -154 -155 0
-21 -59 -60 -75 -77 -91 -92 -106 -107 -120 -121 -131 -134 -143 -144 -154 -155 0
-21 -59 -60 -76 -77 -91 -93 -106 -107 -120 -121 -131 -134 -143 -144 -154 -155 0
-21 -59 -60 -76 -77 -92 -93 -106 -108 -120 -121 -131 -134 -143 -144 -154 -155 0
-21 -59 -60 -76 -77 -92 -93 -107 -108 -120 -122 -131 -134 -143 -144 -154 -155 0
-21 -59 -60 -76 -77 -92 -93 -107 -108 -121 -122 -131 -135 -143 -144 -154 -155 0
-19 -57 -58 -74 -75 -90 -91 -105 -106 -119 -120 -132 -133 -143 -145 -154 -155 0
-20 -57 -59 -74 -75 -90 -91 -105 -106 -119 -120 -132 -133 -143 -145 -154 -155 0
-21 -57 -60 -74 -75 -90 -91 -105 -106 -119 -120 -132 -133 -143 -145 -154 -155 0
-20 -58 -59 -74 -76 -90 -91 -105 -106 -119 -120 -132 -133 -143 -145 -154 -155 0
-21 -58 -60 -74 -76 -90 -91 -105 -106 -119 -120 -132 -133 -143 -145 -154 -155 0
-21 -59 -60 -74 -77 -90 -91 -105 -106 -119 -120 -132 -133 -143 -145 -154 -155 0
-20 -58 -59 -75 -76 -90 -92 -105 -106 -119 -120 -132 -133 -143 -145 -154 -155 0
-21 -58 -60 -75 -76 -90 -92 -105 -106 -119 -120 -132 -133 -143 -145 -154 -155 0
-21 -59 -60 -75 -77 -90 -92 -105 -106 -119 -120 -132 -133 -143 -145 -154 -155 0
-21 -59 -60 -76 -77 -90 -93 -105 -106 -119 -120 -132 -133 -143 -145 -154 -155 0
-20 -58 -59 -75 -76 -91 -92 -105 -107 -119 -120 -132 -133 -143 -145 -154 -155 0
-21 -58 -60 -75 -76 -91 -92 -105 -107 -119 -120 -132 -133 -143 -145 -154 -155 0
-21 -59 -60 -75 -77 -91 -92 -105 -107 -119 -120 -132 -133 -143 -145 -154 -155 0
-21 -59 -60 -76 -77 -91 -93 -105 -107 -119 -120 -132 -133 -143 -145 -154 -155 0
-21 -59 -60 -76 -77 -92 -93 -105 -108 -119 -120 -132 -133 -143 -145 -154 -155 0
-20 -58 -59 -75 -76 -91 -92 -106 -107 -119 -121 -132 -133 -143 -145 -154 -155 0
-21 -58 -60 -75 -76 -91 -92 -106 -107 -119 -121 -132 -133 -143 -145 -154 -155 0
-21 -59 -60 -75 -77 -91 -92 -106 -107 -119 -121 -132 -133 -143 -145 -154 -155 0
-21 -59 -60 -76 -77 -91 -93 -106 -107 -119 -121 -132 -133 -143 -145 -154 -155 0
-21 -59 -60 -76 -77 -92 -93 -106 -108 -119 -121 -132 -133 -143 -145 -154 -155 0
-21 -59 -60 -76 -77 -92 -93 -107 -108 -119 -122 -132 -133 -143 -145 -154 -155 0
-20 -58 -59 -75 -76 -91 -92 -106 -107 -120 -121 -132 -134 -143 -145 -154 -155 0
-21 -58 -60 -75 -76 -91 -92 -106 -107 -120 -121 -132 -134 -143 -145 -154 -155 0
-21 -59 -60 -75 -77 -91 -92 -106 -107 -120 -121 -132 -134 -143 -145 -154 -155 0
-21 -59 -60 -76 -77 -91 -93 -106 -107 -120 -121 -132 -134 -143 -145 -154 -155 0
-21 -59 -60 -76 -77 -92 -93 -106 -108 -120 -121 -132 -134 -143 -145 -154 -155 0
-21 -59 -60 -76 -77 -92 -93 -107 -108 -120 -122 -132 -134 -143 -145 -154 -155 0
-21 -59 -60 -76 -77 -92 -93 -107 -108 -121 -122 -132 -135 -143 -145 -154 -155 0
-20 -58 -59 -75 -76 -91 -92 -106 -107 -120 -121 -133 -134 -143 -146 -154 -155 0
-21 -58 -60 -75 -76 -91 -92 -106 -107 -120 -121 -133 -134 -143 -146 -154 -155 0
-21 -59 -60 -75 -77 -91 -92 -106 -107 -120 -121 -133 -134 -143 -146 -154 -155 0
-21 -59 -60 -76 -77 -91 -93 -106 -107 -120 -121 -133 -134 -143 -146 -154 -155 0
-21 -59 -60 -76 -77 -92 -93 -106 -108 -120 -121 -133 -134 -143 -146 -154 -155 0
-21 -59 -60 -76 -77 -92 -93 -107 -108 -120 -122 -133 -134 -143 -146 -154 -155 0
-21 -59 -60 -76 -77 -92 -93 -107 -108 -121 -122 -133 -135 -143 -146 -154 -155 0
-21 -59 -60 -76 -77 -92 -93 -107 -108 -121 -122 -134 -135 -143 -147 -154 -155 0
-19 -57 -58 -74 -75 -90 -91 -105 -106 -119 -120 -132 -133 -144 -145 -154 -156 0
-20 -57 -59 -74 -75 -90 -91 -105 -106 -119 -120 -132 -133 -144 -145 -154 -156 0
-21 -57 -60 -74 -75 -90 -91 -105 -106 -119 -120 -132 -133 -144 -145 -154 -156 0
-20 -58 -59 -74 -76 -90 -91 -105 -106 -119 -120 -132 -133 -144 -145 -154 -156 0
-21 -58 -60 -74 -76 -90 -91 -105 -106 -119 -120 -132 -133 -144 -145 -154 -156 0
-21 -59 -60 -74 -77 -90 -91 -105 -106 -119 -120 -132 -133 -144 -145 -154 -156 0
-20 -58 -59 -75 -76 -90 -92 -105 -106 -119 -120 -132 -133 -144 -145 -154 -156 0
-21 -58 -60 -75 -76 -90 -92 -105 -106 -119 -120 -132 -133 -144 -145 -154 -156 0
-21 -59 -60 -75 -77 -90 -92 -105 -106 -119 -120 -132 -133 -144 -145 -154 -156 0
-21 -59 -60 -76 -77 -90 -93 -105 -106 -119 -120 -132 -133 -144 -145 -154 -156 0
-20 -58 -59 -75 -76 -91 -92 -105 -107 -119 -120 -132 -133 -144 -145 -154 -156 0
-21 -58 -60 -75 -76 -91 -92 -105 -107 -119 -120 -132 -133 -144 -145 -154 -156 0
-21 -59 -60 -75 -77 -91 -92 -105 -107 -119 -120 -132 -133 -144 -145 -154 -156 0
-21 -59 -60 -76 -77 -91 -93 -105 -107 -119 -120 -132 -133 -144 -145 -154 -156 0
-21 -59 -60 -76 -77 -92 -93 -105 -108 -119 -120 -132 -133 -144 -145 -154 -156 0
-20 -58 -59 -75 -76 -91 -92 -106 -107 -119 -121 -132 -133 -144 -145 -154 -156 0
-21 -58 -60 -75 -76 -91 -92 -106 -107 -119 -121 -132 -133 -144 -145 -154 -156 0
-21 -59 -60 -75 -77 -91 -92 -106 -107 -119 -121 -132 -133 -144 -145 -154 -156 0
-21 -59 -60 -76 -77 -91 -93 -106 -107 -119 -121 -132 -133 -144 -145 -154 -156 0
-21 -59 -60 -76 -77 -92 -93 -106 -108 -119 -121 -132 -133 -144 -145 -154 -156 0
-21 -59 -60 -76 -77 -92 -93 -107 -108 -119 -122 -132 -133 -144 -145 -154 -156 0
-20 -58 -59 -75 -76 -91 -92 -106 -107 -120 -121 -132 -134 -144 -145 -154 -156 0
-21 -58 -60 -75 -76 -91 -92 -106 -107 -120 -121 -132 -134 -144 -145 -154 -156 0
-21 -59 -60 -75 -77 -91 -92 -106 -107 -120 -121 -132 -134 -144 -145 -154 -156 0
-21 -59 -60 -76 -77 -91 -93 -106 -107 -120 -121 -132 -134 -144 -145 -154 -156 0
-21 -59 -60 -76 -77 -92 -93 -106 -108 -120 -121 -132 -134 -144 -145 -154 -156 0
-21 -59 -60 -76 -77 -92 -93 -107 -108 -120 -122 -132 -134 -144 -145 -154 -156 0
-21 -59 -60 -76 -77 -92 -93 -107 -108 -121 -122 -132 -135 -144 -145 -154 -156 0
-20 -58 -59 -75 -76 -91 -92 -106 -107 -120 -121 -133 -134 -144 -146 -154 -156 0
-21 -58 -60 -75 -76 -91 -92 -106 -107 -120 -121 -133 -134 -144 -146 -154 -156 0
-21 -59 -60 -75 -77 -91 -92 -106 -107 -120 -121 -133 -134 -144 -146 -154 -156 0
-21 -59 -60 -76 -77 -91 -93 -106 -107 -120 -121 -133 -134 -144 -146 -154 -156 0
-21 -59 -60 -76 -77 -92 -93 -106 -108 -120 -121 -133 -134 -144 -146 -154 -156 0
-21 -59 -60 -76 -77 -92 -93 -107 -108 -120 -122 -133 -134 -144 -146 -154 -156 0
-21 -59 -60 -76 -77 -92 -93 -107 -108 -121 -122 -133 -135 -144 -146 -154 -156 0
-21 -59 -60 -76 -77 -92 -93 -107 -108 -121 -122 -134 -135 -144 -147 -154 -156 0
-20 -58 -59 -75 -76 -91 -92 -106 -107 -120 -121 -133 -134 -145 -146 -154 -157 0
-21 -58 -60 -75 -76 -91 -92 -106 -107 -120 -121 -133 -134 -145 -146 -154 -157 0
-21 -59 -60 -75 -77 -91 -92 -106 -107 -120 -121 -133 -134 -145 -146 -154 -157 0
-21 -59 -60 -76 -77 -91 -93 -106 -107 -120 -121 -133 -134 -145 -146 -154 -157 0
-21 -59 -60 -76 -77 -92 -93 -106 -108 -120 -121 -133 -134 -145 -146 -154 -157 0
-21 -59 -60 -76 -77 -92 -93 -107 -108 -120 -122 -133 -134 -145 -146 -154 -157 0
-21 -59 -60 -76 -77 -92 -93 -107 -108 -121 -122 -133 -135 -145 -146 -154 -157 0
-21 -59 -60 -76 -77 -92 -93 -107 -108 -121 -122 -134 -135 -145 -147 -154 -157 0
-21 -59 -60 -76 -77 -92 -93 -107 -108 -121 -122 -134 -135 -146 -147 -154 -158 0
-19 -57 -58 -74 -75 -90 -91 -105 -106 -119 -120 -132 -133 -144 -145 -155 -156 0
-20 -57 -59 -74 -75 -90 -91 -105 -106 -119 -120 -132 -133 -144 -145 -155 -156 0
-21 -57 -60 -74 -75 -90 -91 -105 -106 -119 -120 -132 -133 -144 -145 -155 -156 0
-20 -58 -59 -74 -76 -90 -91 -105 -106 -119 -120 -132 -133 -144 -145 -155 -156 0
-21 -58 -60 -74 -76 -90 -91 -105 -106 -119 -120 -132 -133 -144 -145 -155 -156 0
-21 -59 -60 -74 -77 -90 -91 -105 -106 -119 -120 -132 -133 -144 -145 -155 -156 0
-20 -58 -59 -75 -76 -90 -92 -105 -106 -119 -120 -132 -133 -144 -145 -155 -156 0
-21 -58 -60 -75 -76 -90 -92 -105 -106 -119 -120 -132 -133 -144 -145 -155 -156 0
-21 -59 -60 -75 -77 -90 -92 -105 -106 -119 -120 -132 -133 -144 -145 -155 -156 0
-21 -59 -60 -76 -77 -90 -93 -105 -106 -119 -120 -132 -133 -144 -145 -155 -156 0
-20 -58 -59 -75 -76 -91 -92 -105 -107 -119 -120 -132 -133 -144 -145 -155 -156 0
-21 -58 -60 -75 -76 -91 -92 -105 -107 -119 -120 -132 -133 -144 -145 -155 -156 0
-21 -59 -60 -75 -77 -91 -92 -105 -107 -119 -120 -132 -133 -144 -145 -155 -156 0
-21 -59 -60 -76 -77 -91 -93 -105 -107 -119 -120 -132 -133 -144 -145 -155 -156 0
-21 -59 -60 -76 -77 -92 -93 -105 -108 -119 -120 -132 -133 -144 -145 -155 -156 0
-20 -58 -59 -75 -76 -91 -92 -106 -107 -119 -121 -132 -133 -144 -145 -155 -156 0
-21 -58 -60 -75 -76 -91 -92 -106 -107 -119 -121 -132 -133 -144 -145 -155 -156 0
-21 -59 -60 -75 -77 -91 -92 -106 -107 -119 -121 -132 -133 -144 -145 -155 -156 0
-21 -59 -60 -76 -77 -91 -93 -106 -107 -119 -121 -132 -133 -144 -145 -155 -156 0
-21 -59 -60 -76 -77 -92 -93 -106 -108 -119 -121 -132 -133 -144 -145 -155 -156 0
-21 -59 -60 -76 -77 -92 -93 -107 -108 -119 -122 -132 -133 -144 -145 -155 -156 0
-20 -58 -59 -75 -76 -91 -92 -106 -107 -120 -121 -132 -134 -144 -145 -155 -156 0
-21 -58 -60 -75 -76 -91 -92 -106 -107 -120 -121 -132 -134 -144 -145 -155 -156 0
-21 -59 -60 -75 -77 -91 -92 -106 -107 -120 -121 -132 -134 -144 -145 -155 -156 0
-21 -59 -60 -76 -77 -91 -93 -106 -107 -120 -121 -132 -134 -144 -145 -155 -156 0
-21 -59 -60 -76 -77 -92 -93 -106 -108 -120 -121 -132 -134 -144 -145 -155 -156 0
-21 -59 -60 -76 -77 -92 -93 -107 -108 -120 -122 -132 -134 -144 -145 -155 -156 0
-21 -59 -60 -76 -77 -92 -93 -107 -108 -121 -122 -132 -135 -144 -145 -155 -156 0
-20 -58 -59 -75 -76 -91 -92 -106 -107 -120 -121 -133 -134 -144 -146 -155 -156 0
-21 -58 -60 -75 -76 -91 -92 -106 -107 -120 -121 -133 -134 -144 -146 -155 -156 0
-21 -59 -60 -75 -77 -91 -92 -106 -107 -120 -121 -133 -134 -144 -146 -155 -156 0
-21 -59 -60 -76 -77 -91 -93 -106 -107 -120 -121 -133 -134 -144 -146 -155 -156 0
-21 -59 -60 -76 -77 -92 -93 -106 -108 -120 -121 -133 -134 -144 -146 -155 -156 0
-21 -59 -60 -76 -77 -92 -93 -107 -108 -120 -122 -133 -134 -144 -146 -155 -156 0
-21 -59 -60 -76 -77 -92 -93 -107 -108 -121 -122 -133 -135 -144 -146 -155 -156 0
-21 -59 -60 -76 -77 -92 -93 -107 -108 -121 -122 -134 -135 -144 -147 -155 -156 0
-20 -58 -59 -75 -76 -91 -92 -106 -107 -120 -121 -133 -134 -145 -146 -155 -157 0
-21 -58 -60 -75 -76 -91 -92 -106 -107 -120 -121 -133 -134 -145 -146 -155 -157 0
-21 -59 -60 -75 -77 -91 -92 -106 -107 -120 -121 -133 -134 -145 -146 -155 -157 0
-21 -59 -60 -76 -77 -91 -93 -106 -107 -120 -121 -133 -134 -145 -146 -155 -157 0
-21 -59 -60 -76 -77 -92 -93 -106 -108 -120 -121 -133 -134 -145 -146 -155 -157 0
-21 -59 -60 -76 -77 -92 -93 -107 -108 -120 -122 -133 -134 -145 -146 -155 -157 0
-21 -59 -60 -76 -77 -92 -93 -107 -108 -121 -122 -133 -135 -145 -146 -155 -157 0
-21 -59 -60 -76 -77 -92 -93 -107 -108 -121 -122 -134 -135 -145 -147 -155 -157 0
-21 -59 -60 -76 -77 -92 -93 -107 -108 -121 -122 -134 -135 -146 -147 -155 -158 0
-20 -58 -59 -75 -76 -91 -92 -106 -107 -120 -121 -133 -134 -145 -146 -156 -157 0
-21 -58 -60 -75 -76 -91 -92 -106 -107 -120 -121 -133 -134 -145 -146 -156 -157 0
-21 -59 -60 -75 -77 -91 -92 -106 -107 -120 -121 -133 -134 -145 -146 -156 -157 0
-21 -59 -60 -76 -77 -91 -93 -106 -107 -120 -121 -133 -134 -145 -146 -156 -157 0
-21 -59 -60 -76 -77 -92 -93 -106 -108 -120 -121 -133 -134 -145 -146 -156 -157 0
-21 -59 -60 -76 -77 -92 -93 -107 -108 -120 -122 -133 -134 -145 -146 -156 -157 0
-21 -59 -60 -76 -77 -92 -93 -107 -108 -121 -122 -133 -135 -145 -146 -156 -157 0
-21 -59 -60 -76 -77 -92 -93 -107 -108 -121 -122 -134 -135 -145 -147 -156 -157 0
-21 -59 -60 -76 -77 -92 -93 -107 -108 -121 -122 -134 -135 -146 -147 -156 -158 0
-21 -59 -60 -76 -77 -92 -93 -107 -108 -121 -122 -134 -135 -146 -147 -157 -158 0
-19 -57 -58 -74 -75 -90 -91 -105 -106 -119 -120 -132 -133 -144 -145 -166 -167 0
-20 -57 -59 -74 -75 -90 -91 -105 -106 -119 -120 -132 -133 -144 -145 -166 -167 0
-21 -57 -60 -74 -75 -90 -91 -105 -106 -119 -120 -132 -133 -144 -145 -166 -167 0
-20 -58 -59 -74 -76 -90 -91 -105 -106 -119 -120 -132 -133 -144 -145 -166 -167 0
-21 -58 -60 -74 -76 -90 -91 -105 -106 -119 -120 -132 -133 -144 -145 -166 -167 0
-21 -59 -60 -74 -77 -90 -91 -105 -106 -119 -120 -132 -133 -144 -145 -166 -167 0
-20 -58 -59 -75 -76 -90 -92 -105 -106 -119 -120 -132 -133 -144 -145 -166 -167 0
-21 -58 -60 -75 -76 -90 -92 -105 -106 -119 -120 -132 -133 -144 -145 -166 -167 0
-21 -59 -60 -75 -77 -90 -92 -105 -106 -119 -120 -132 -133 -144 -145 -166 -167 0
-21 -59 -60 -76 -77 -90 -93 -105 -106 -119 -120 -132 -133 -144 -145 -166 -167 0
-20 -58 -59 -75 -76 -91 -92 -105 -107 -119 -120 -132 -133 -144 -145 -166 -167 0
-21 -58 -60 -75 -76 -91 -92 -105 -107 -119 -120 -132 -133 -144 -145 -166 -167 0
-21 -59 -60 -75 -77 -91 -92 -105 -107 -119 -120 -132 -133 -144 -145 -166 -167 0
-21 -59 -60 -76 -77 -91 -93 -105 -107 -119 -120 -132 -133 -144 -145 -166 -167 0
-21 -59 -60 -76 -77 -92 -93 -105 -108 -119 -120 -132 -133 -144 -145 -166 -167 0
-20 -58 -59 -75 -76 -91 -92 -106 -107 -119 -121 -132 -133 -144 -145 -166 -167 0
-21 -58 -60 -75 -76 -91 -92 -106 -107 -119 -121 -132 -133 -144 -145 -166 -167 0
-21 -59 -60 -75 -77 -91 -92 -106 -107 -119 -121 -132 -133 -144 -145 -166 -167 0
-21 -59 -60 -76 -77 -91 -93 -106 -107 -119 -121 -132 -133 -144 -145 -166 -167 0
-21 -59 -60 -76 -77 -92 -93 -106 -108 -119 -121 -132 -133 -144 -145 -166 -167 0
-21 -59 -60 -76 -77 -92 -93 -107 -108 -119 -122 -132 -133 -144 -145 -166 -167 0
-20 -58 -59 -75 -76 -91 -92 -106 -107 -120 -121 -132 -134 -144 -145 -166 -167 0
-21 -58 -60 -75 -76 -91 -92 -106 -107 -120 -121 -132 -134 -144 -145 -166 -167 0
-21 -59 -60 -75 -77 -91 -92 -106 -107 -120 -121 -132 -134 -144 -145 -166 -167 0
-21 -59 -60 -76 -77 -91 -93 -106 -107 -120 -121 -132 -134 -144 -145 -166 -167 0
-21 -59 -60 -76 -77 -92 -93 -106 -108 -120 -121 -132 -134 -144 -145 -166 -167 0
-21 -59 -60 -76 -77 -92 -93 -107 -108 -120 -122 -132 -134 -144 -145 -166 -167 0
-21 -59 -60 -76 -77 -92 -93 -107 -108 -121 -122 -132 -135 -144 -145 -166 -167 0
-20 -58 -59 -75 -76 -91 -92 -106 -107 -120 -121 -133 -134 -144 -146 -166 -167 0
-21 -58 -60 -75 -76 -91 -92 -106 -107 -120 -121 -133 -134 -144 -146 -166 -167 0
-21 -59 -60 -75 -77 -91 -92 -106 -107 -120 -121 -133 -134 -144 -146 -166 -167 0
-21 -59 -60 -76 -77 -91 -93 -106 -107 -120 -121 -133 -134 -144 -146 -166 -167 0
-21 -59 -60 -76 -77 -92 -93 -106 -108 -120 -121 -133 -134 -144 -146 -166 -167 0
-21 -59 -60 -76 -77 -92 -93 -107 -108 -120 -122 -133 -134 -144 -146 -166 -167 0
-21 -59 -60 -76 -77 -92 -93 -107 -108 -121 -122 -133 -135 -144 -146 -166 -167 0
-21 -59 -60 -76 -77 -92 -93 -107 -108 -121 -122 -134 -135 -144 -147 -166 -167 0
-20 -58 -59 -75 -76 -91 -92 -106 -107 -120 -121 -133 -134 -145 -146 -166 -168 0
-21 -58 -60 -75 -76 -91 -92 -106 -107 -120 -121 -133 -134 -145 -146 -166 -168 0
-21 -59 -60 -75 -77 -91 -92 -106 -107 -120 -121 -133 -134 -145 -146 -166 -168 0
-21 -59 -60 -76 -77 -91 -93 -106 -107 -120 -121 -133 -134 -145 -146 -166 -168 0
-21 -59 -60 -76 -77 -92 -93 -106 -108 -120 -121 -133 -134 -145 -146 -166 -168 0
-21 -59 -60 -76 -77 -92 -93 -107 -108 -120 -122 -133 -134 -145 -146 -166 -168 0
-21 -59 -60 -76 -77 -92 -93 -107 -108 -121 -122 -133 -135 -145 -146 -166 -168 0
-21 -59 -60 -76 -77 -92 -93 -107 -108 -121 -122 -134 -135 -145 -147 -166 -168 0
-21 -59 -60 -76 -77 -92 -93 -107 -108 -121 -122 -134 -135 -146 -147 -166 -169 0
-20 -58 -59 -75 -76 -91 -92 -106 -107 -120 -121 -133 -134 -145 -146 -167 -168 0
-21 -58 -60 -75 -76 -91 -92 -106 -107 -120 -121 -133 -134 -145 -146 -167 -168 0
-21 -59 -60 -75 -77 -91 -92 -106 -107 -120 -121 -133 -134 -145 -146 -167 -168 0
-21 -59 -60 -76 -77 -91 -93 -106 -107 -120 -121 -133 -134 -145 -146 -167 -168 0
-21 -59 -60 -76 -77 -92 -93 -106 -108 -120 -121 -133 -134 -145 -146 -167 -168 0
-21 -59 -60 -76 -77 -92 -93 -107 -108 -120 -122 -133 -134 -145 -146 -167 -168 0
-21 -59 -60 -76 -77 -92 -93 -107 -108 -121 -122 -133 -135 -145 -146 -167 -168 0
-21 -59 -60 -76 -77 -92 -93 -107 -108 -121 -122 -134 -135 -145 -147 -167 -168 0
-21 -59 -60 -76 -77 -92 -93 -107 -108 -121 -122 -134 -135 -146 -147 -167 -169 0
-21 -59 -60 -76 -77 -92 -93 -107 -108 -121 -122 -134 -135 -146 -147 -168 -169 0
-20 -58 -59 -75 -76 -91 -92 -106 -107 -120 -121 -133 -134 -145 -146 -177 -178 0
-21 -58 -60 -75 -76 -91 -92 -106 -107 -120 -121 -133 -134 -145 -146 -177 -178 0
-21 -59 -60 -75 -77 -91 -92 -106 -107 -120 -121 -133 -134 -145 -146 -177 -178 0
-21 -59 -60 -76 -77 -91 -93 -106 -107 -120 -121 -133 -134 -145 -146 -177 -178 0
-21 -59 -60 -76 -77 -92 -93 -106 -108 -120 -121 -133 -134 -145 -146 -177 -178 0
-21 -59 -60 -76 -77 -92 -93 -107 -108 -120 -122 -133 -134 -145 -146 -177 -178 0
-21 -59 -60 -76 -77 -92 -93 -107 -108 -121 -122 -133 -135 -145 -146 -177 -178 0
-21 -59 -60 -76 -77 -92 -93 -107 -108 -121 -122 -134 -135 -145 -147 -177 -178 0
-21 -59 -60 -76 -77 -92 -93 -107 -108 -121 -122 -134 -135 -146 -147 -177 -179 0
-21 -59 -60 -76 -77 -92 -93 -107 -108 -121 -122 -134 -135 -146 -147 -178 -179 0
-21 -59 -60 -76 -77 -92 -93 -107 -108 -121 -122 -134 -135 -146 -147 -187 -188 0
-19 -57 -58 -74 -75 -90 -91 -105 -106 -119 -120 -132 -133 -156 -157 -166 -167 0
-20 -57 -59 -74 -75 -90 -91 -105 -106 -119 -120 -132 -133 -156 -157 -166 -167 0
-21 -57 -60 -74 -75 -90 -91 -105 -106 -119 -120 -132 -133 -156 -157 -166 -167 0
-20 -58 -59 -74 -76 -90 -91 -105 -106 -119 -120 -132 -133 -156 -157 -166 -167 0
-21 -58 -60 -74 -76 -90 -91 -105 -106 -119 -120 -132 -133 -156 -157 -166 -167 0
-21 -59 -60 -74 -77 -90 -91 -105 -106 -119 -120 -132 -133 -156 -157 -166 -167 0
-20 -58 -59 -75 -76 -90 -92 -105 -106 -119 -120 -132 -133 -156 -157 -166 -167 0
-21 -58 -60 -75 -76 -90 -92 -105 -106 -119 -120 -132 -133 -156 -157 -166 -167 0
-21 -59 -60 -75 -77 -90 -92 -105 -106 -119 -120 -132 -133 -156 -157 -166 -167 0
-21 -59 -60 -76 -77 -90 -93 -105 -106 -119 -120 -132 -133 -156 -157 -166 -167 0
-20 -58 -59 -75 -76 -91 -92 -105 -107 -119 -120 -132 -133 -156 -157 -166 -167 0
-21 -58 -60 -75 -76 -91 -92 -105 -107 -119 -120 -132 -133 -156 -157 -166 -167 0
-21 -59 -60 -75 -77 -91 -92 -105 -107 -119 -120 -132 -133 -156 -157 -166 -167 0
-21 -59 -60 -76 -77 -91 -93 -105 -107 -119 -120 -132 -133 -156 -157 -166 -167 0
-21 -59 -60 -76 -77 -92 -93 -105 -108 -119 -120 -132 -133 -156 -157 -166 -167 0
-20 -58 -59 -75 -76 -91 -92 -106 -107 -119 -121 -132 -133 -156 -157 -166 -167 0
-21 -58 -60 -75 -76 -91 -92 -106 -107 -119 -121 -132 -133 -156 -157 -166 -167 0
-21 -59 -60 -75 -77 -91 -92 -106 -107 -119 -121 -132 -133 -156 -157 -166 -167 0
-21 -59 -60 -76 -77 -91 -93 -106 -107 -119 -121 -132 -133 -156 -157 -166 -167 0
-21 -59 -60 -76 -77 -92 -93 -106 -108 -119 -121 -132 -133 -156 -157 -166 -167 0
-21 -59 -60 -76 -77 -92 -93 -107 -108 -119 -122 -132 -133 -156 -157 -166 -167 0
-20 -58 -59 -75 -76 -91 -92 -106 -107 -120 -121 -132 -134 -156 -157 -166 -167 0
-21 -58 -60 -75 -76 -91 -92 -106 -107 -120 -121 -132 -134 -156 -157 -166 -167 0
-21 -59 -60 -75 -77 -91 -92 -106 -107 -120 -121 -132 -134 -156 -157 -166 -167 0
-21 -59 -60 -76 -77 -91 -93 -106 -107 -120 -121 -132 -134 -156 -157 -166 -167 0
-21 -59 -60 -76 -77 -92 -93 -106 -108 -120 -121 -132 -134 -156 -157 -166 -167 0
-21 -59 -60 -76 -77 -92 -93 -107 -108 -120 -122 -132 -134 -156 -157 -166 -167 0
-21 -59 -60 -76 -77 -92 -93 -107 -108 -121 -122 -132 -135 -156 -157 -166 -167 0
-20 -58 -59 -75 -76 -91 -92 -106 -107 -120 -121 -133 -134 -156 -158 -166 -167 0
-21 -58 -60 -75 -76 -91 -92 -106 -107 -120 -121 -133 -134 -156 -158 -166 -167 0
-21 -59 -60 -75 -77 -91 -92 -106 -107 -120 -121 -133 -134 -156 -158 -166 -167 0
-21 -59 -60 -76 -77 -91 -93 -106 -107 -120 -121 -133 -134 -156 -158 -166 -167 0
-21 -59 -60 -76 -77 -92 -93 -106 -108 -120 -121 -133 -134 -156 -158 -166 -167 0
-21 -59 -60 -76 -77 -92 -93 -107 -108 -120 -122 -133 -134 -156 -158 -166 -167 0
-21 -59 -60 -76 -77 -92 -93 -107 -108 -121 -122 -133 -135 -156 -158 -166 -167 0
-21 -59 -60 -76 -77 -92 -93 -107 -108 -121 -122 -134 -135 -156 -159 -166 -167 0
-20 -58 -59 -75 -76 -91 -92 -106 -107 -120 -121 -133 -134 -157 -158 -166 -168 0
-21 -58 -60 -75 -76 -91 -92 -106 -107 -120 -121 -133 -134 -157 -158 -166 -168 0
-21 -59 -60 -75 -77 -91 -92 -106 -107 -120 -121 -133 -134 -157 -158 -166 -168 0
-21 -59 -60 -76 -77 -91 -93 -106 -107 -120 -121 -133 -134 -157 -158 -166 -168 0
-21 -59 -60 -76 -77 -92 -93 -106 -108 -120 -121 -133 -134 -157 -158 -166 -168 0
-21 -59 -60 -76 -77 -92 -93 -107 -108 -120 -122 -133 -134 -157 -158 -166 -168 0
-21 -59 -60 -76 -77 -92 -93 -107 -108 -121 -122 -133 -135 -157 -158 -166 -168 0
-21 -59 -60 -76 -77 -92 -93 -107 -108 -121 -122 -134 -135 -157 -159 -166 -168 0
-21 -59 -60 -76 -77 -92 -93 -107 -108 -121 -122 -134 -135 -158 -159 -166 -169 0
-20 -58 -59 -75 -76 -91 -92 -106 -107 -120 -121 -133 -134 -157 -158 -167 -168 0
-21 -58 -60 -75 -76 -91 -92 -106 -107 -120 -121 -133 -134 -157 -158 -167 -168 0
-21 -59 -60 -75 -77 -91 -92 -106 -107 -120 -121 -133 -134 -157 -158 -167 -168 0
-21 -59 -60 -76 -77 -91 -93 -106 -107 -120 -121 -133 -134 -157 -158 -167 -168 0
-21 -59 -60 -76 -77 -92 -93 -106 -108 -120 -121 -133 -134 -157 -158 -167 -168 0
-21 -59 -60 -76 -77 -92 -93 -107 -108 -120 -122 -133 -134 -157 -158 -167 -168 0
-21 -59 -60 -76 -77 -92 -93 -107 -108 -121 -122 -133 -135 -157 -158 -167 -168 0
-21 -59 -60 -76 -77 -92 -93 -107 -108 -121 -122 -134 -135 -157 -159 -167 -168 0
-21 -59 -60 -76 -77 -92 -93 -107 -108 -121 -122 -134 -135 -158 -159 -167 -169 0
-21 -59 -60 -76 -77 -92 -93 -107 -108 -121 -122 -134 -135 -158 -159 -168 -169 0
-20 -58 -59 -75 -76 -91 -92 -106 -107 -120 -121 -133 -134 -157 -158 -177 -178 0
-21 -58 -60 -75 -76 -91 -92 -106 -107 -120 -121 -133 -134 -157 -158 -177 -178 0
-21 -59 -60 -75 -77 -91 -92 -106 -107 -120 -121 -133 -134 -157 -158 -177 -178 0
-21 -59 -60 -76 -77 -91 -93 -106 -107 -120 -121 -133 -134 -157 -158 -177 -178 0
-21 -59 -60 -76 -77 -92 -93 -106 -108 -120 -121 -133 -134 -157 -158 -177 -178 0
-21 -59 -60 -76 -77 -92 -93 -107 -108 -120 -122 -133 -134 -157 -158 -177 -178 0
-21 -59 -60 -76 -77 -92 -93 -107 -108 -121 -122 -133 -135 -157 -158 -177 -178 0
-21 -59 -60 -76 -77 -92 -93 -107 -108 -121 -122 -134 -135 -157 -159 -177 -178 0
-21 -59 -60 -76 -77 -92 -93 -107 -108 -121 -122 -134 -135 -158 -159 -177 -179 0
-21 -59 -60 -76 -77 -92 -93 -107 -108 -121 -122 -134 -135 -158 -159 -178 -179 0
-21 -59 -60 -76 -77 -92 -93 -107 -108 -121 -122 -134 -135 -158 -159 -187 -188 0
-20 -58 -59 -75 -76 -91 -92 -106 -107 -120 -121 -133 -134 -168 -169 -177 -178 0
-21 -58 -60 -75 -76 -91 -92 -106 -107 -120 -121 -133 -134 -168 -169 -177 -178 0
-21 -59 -60 -75 -77 -91 -92 -106 -107 -120 -121 -133 -134 -168 -169 -177 -178 0
-21 -59 -60 -76 -77 -91 -93 -106 -107 -120 -121 -133 -134 -168 -169 -177 -178 0
-21 -59 -60 -76 -77 -92 -93 -106 -108 -120 -121 -133 -134 -168 -169 -177 -178 0
-21 -59 -60 -76 -77 -92 -93 -107 -108 -120 -122 -133 -134 -168 -169 -177 -178 0
-21 -59 -60 -76 -77 -92 -93 -107 -108 -121 -122 -133 -135 -168 -169 -177 -178 0
-21 -59 -60 -76 -77 -92 -93 -107 -108 -121 -122 -134 -135 -168 -170 -177 -178 0
-21 -59 -60 -76 -77 -92 -93 -107 -108 -121 -122 -134 -135 -169 -170 -177 -179 0
-21 -59 -60 -76 -77 -92 -93 -107 -108 -121 -122 -134 -135 -169 -170 -178 -179 0
-21 -59 -60 -76 -77 -92 -93 -107 -108 -121 -122 -134 -135 -169 -170 -187 -188 0
-21 -59 -60 -76 -77 -92 -93 -107 -108 -121 -122 -134 -135 -179 -180 -187 -188 0
-19 -57 -58 -74 -75 -90 -91 -105 -106 -119 -120 -145 -146 -156 -157 -166 -167 0
-20 -57 -59 -74 -75 -90 -91 -105 -106 -119 -120 -145 -146 -156 -157 -166 -167 0
-21 -57 -60 -74 -75 -90 -91 -105 -106 -119 -120 -145 -146 -156 -157 -166 -167 0
-20 -58 -59 -74 -76 -90 -91 -105 -106 -119 -120 -145 -146 -156 -157 -166 -167 0
-21 -58 -60 -74 -76 -90 -91 -105 -106 -119 -120 -145 -146 -156 -157 -166 -167 0
-21 -59 -60 -74 -77 -90 -91 -105 -106 -119 -120 -145 -146 -156 -157 -166 -167 0
-20 -58 -59 -75 -76 -90 -92 -105 -106 -119 -120 -145 -146 -156 -157 -166 -167 0
-21 -58 -60 -75 -76 -90 -92 -105 -106 -119 -120 -145 -146 -156 -157 -166 -167 0
-21 -59 -60 -75 -77 -90 -92 -105 -106 -119 -120 -145 -146 -156 -157 -166 -167 0
-21 -59 -60 -76 -77 -90 -93 -105 -106 -119 -120 -145 -146 -156 -157 -166 -167 0
-20 -58 -59 -75 -76 -91 -92 -105 -107 -119 -120 -145 -146 -156 -157 -166 -167 0
-21 -58 -60 -75 -76 -91 -92 -105 -107 -119 -120 -145 -146 -156 -157 -166 -167 0
-21 -59 -60 -75 -77 -91 -92 -105 -107 -119 -120 -145 -146 -156 -157 -166 -167 0
-21 -59 -60 -76 -77 -91 -93 -105 -107 -119 -120 -145 -146 -156 -157 -166 -167 0
-21 -59 -60 -76 -77 -92 -93 -105 -108 -119 -120 -145 -146 -156 -157 -166 -167 0
-20 -58 -59 -75 -76 -91 -92 -106 -107 -119 -121 -145 -146 -156 -157 -166 -167 0
-21 -58 -60 -75 -76 -91 -92 -106 -107 -119 -121 -145 -146 -156 -157 -166 -167 0
-21 -59 -60 -75 -77 -91 -92 -106 -107 -119 -121 -145 -146 -156 -157 -166 -167 0
-21 -59 -60 -76 -77 -91 -93 -106 -107 -119 -121 -145 -146 -156 -157 -166 -167 0
-21 -59 -60 -76 -77 -92 -93 -106 -108 -119 -121 -145 -146 -156 -157 -166 -167 0
-21 -59 -60 -76 -77 -92 -93 -107 -108 -119 -122 -145 -146 -156 -157 -166 -167 0
-20 -58 -59 -75 -76 -91 -92 -106 -107 -120 -121 -145 -147 -156 -157 -166 -167 0
-21 -58 -60 -75 -76 -91 -92 -106 -107 -120 -121 -145 -147 -156 -157 -166 -167 0
-21 -59 -60 -75 -77 -91 -92 -106 -107 -120 -121 -145 -147 -156 -157 -166 -167 0
-21 -59 -60 -76 -77 -91 -93 -106 -107 -120 -121 -145 -147 -156 -157 -166 -167 0
-21 -59 -60 -76 -77 -92 -93 -106 -108 -120 -121 -145 -147 -156 -157 -166 -167 0
-21 -59 -60 -76 -77 -92 -93 -107 -108 -120 -122 -145 -147 -156 -157 -166 -167 0
-21 -59 -60 -76 -77 -92 -93 -107 -108 -121 -122 -145 -148 -156 -157 -166 -167 0
-20 -58 -59 -75 -76 -91 -92 -106 -107 -120 -121 -146 -147 -156 -158 -166 -167 0
-21 -58 -60 -75 -76 -91 -92 -106 -107 -120 -121 -146 -147 -156 -158 -166 -167 0
-21 -59 -60 -75 -77 -91 -92 -106 -107 -120 -121 -146 -147 -156 -158 -166 -167 0
-21 -59 -60 -76 -77 -91 -93 -106 -107 -120 -121 -146 -147 -156 -158 -166 -167 0
-21 -59 -60 -76 -77 -92 -93 -106 -108 -120 -121 -146 -147 -156 -158 -166 -167 0
-21 -59 -60 -76 -77 -92 -93 -107 -108 -120 -122 -146 -147 -156 -158 -166 -167 0
-21 -59 -60 -76 -77 -92 -93 -107 -108 -121 -122 -146 -148 -156 -158 -166 -167 0
-21 -59 -60 -76 -77 -92 -93 -107 -108 -121 -122 -147 -148 -156 -159 -166 -167 0
-20 -58 -59 -75 -76 -91 -92 -106 -107 -120 -121 -146 -147 -157 -158 -166 -168 0
-21 -58 -60 -75 -76 -91 -92 -106 -107 -120 -121 -146 -147 -157 -158 -166 -168 0
-21 -59 -60 -75 -77 -91 -92 -106 -107 -120 -121 -146 -147 -157 -158 -166 -168 0
-21 -59 -60 -76 -77 -91 -93 -106 -107 -120 -121 -146 -147 -157 -158 -166 -168 0
-21 -59 -60 -76 -77 -92 -93 -106 -108 -120 -121 -146 -147 -157 -158 -166 -168 0
-21 -59 -60 -76 -77 -92 -93 -107 -108 -120 -122 -146 -147 -157 -158 -166 -168 0
-21 -59 -60 -76 -77 -92 -93 -107 -108 -121 -122 -146 -148 -157 -158 -166 -168 0
-21 -59 -60 -76 -77 -92 -93 -107 -108 -121 -122 -147 -148 -157 -159 -166 -168 0
-21 -59 -60 -76 -77 -92 -93 -107 -108 -121 -122 -147 -148 -158 -159 -166 -169 0
-20 -58 -59 -75 -76 -91 -92 -106 -107 -120 -121 -146 -147 -157 -158 -167 -168 0
-21 -58 -60 -75 -76 -91 -92 -106 -107 -120 -121 -146 -147 -157 -158 -167 -168 0
-21 -59 -60 -75 -77 -91 -92 -106 -107 -120 -121 -146 -147 -157 -158 -167 -168 0
-21 -59 -60 -76 -77 -91 -93 -106 -107 -120 -121 -146 -147 -157 -158 -167 -168 0
-21 -59 -60 -76 -77 -92 -93 -106 -108 -120 -121 -146 -147 -157 -158 -167 -168 0
-21 -59 -60 -76 -77 -92 -93 -107 -108 -120 -122 -146 -147 -157 -158 -167 -168 0
-21 -59 -60 -76 -77 -92 -93 -107 -108 -121 -122 -146 -148 -157 -158 -167 -168 0
-21 -59 -60 -76 -77 -92 -93 -107 -108 -121 -122 -147 -148 -157 -159 -167 -168 0
-21 -59 -60 -76 -77 -92 -93 -107 -108 -121 -122 -147 -148 -158 -159 -167 -169 0
-21 -59 -60 -76 -77 -92 -93 -107 -108 -121 -122 -147 -148 -158 -159 -168 -169 0
-20 -58 -59 -75 -76 -91 -92 -106 -107 -120 -121 -146 -147 -157 -158 -177 -178 0
-21 -58 -60 -75 -76 -91 -92 -106 -107 -120 -121 -146 -147 -157 -158 -177 -178 0
-21 -59 -60 -75 -77 -91 -92 -106 -107 -120 -121 -146 -147 -157 -158 -177 -178 0
-21 -59 -60 -76 -77 -91 -93 -106 -107 -120 -121 -146 -147 -157 -158 -177 -178 0
-21 -59 -60 -76 -77 -92 -93 -106 -108 -120 -121 -146 -147 -157 -158 -177 -178 0
-21 -59 -60 -76 -77 -92 -93 -107 -108 -120 -122 -146 -147 -157 -158 -177 -178 0
-21 -59 -60 -76 -77 -92 -93 -107 -108 -121 -122 -146 -148 -157 -158 -177 -178 0
-21 -59 -60 -76 -77 -92 -93 -107 -108 -121 -122 -147 -148 -157 -159 -177 -178 0
-21 -59 -60 -76 -77 -92 -93 -107 -108 -121 -122 -147 -148 -158 -159 -177 -179 0
-21 -59 -60 -76 -77 -92 -93 -107 -108 -121 -122 -147 -148 -158 -159 -178 -179 0
-21 -59 -60 -76 -77 -92 -93 -107 -108 -121 -122 -147 -148 -158 -159 -187 -188 0
-20 -58 -59 -75 -76 -91 -92 -106 -107 -120 -121 -146 -147 -168 -169 -177 -178 0
-21 -58 -60 -75 -76 -91 -92 -106 -107 -120 -121 -146 -147 -168 -169 -177 -178 0
-21 -59 -60 -75 -77 -91 -92 -106 -107 -120 -121 -146 -147 -168 -169 -177 -178 0
-21 -59 -60 -76 -77 -91 -93 -106 -107 -120 -121 -146 -147 -168 -169 -177 -178 0
-21 -59 -60 -76 -77 -92 -93 -106 -108 -120 -121 -146 -147 -168 -169 -177 -178 0
-21 -59 -60 -76 -77 -92 -93 -107 -108 -120 -122 -146 -147 -168 -169 -177 -178 0
-21 -59 -60 -76 -77 -92 -93 -107 -108 -121 -122 -146 -148 -168 -169 -177 -178 0
-21 -59 -60 -76 -77 -92 -93 -107 -108 -121 -122 -147 -148 -168 -170 -177 -178 0
-21 -59 -60 -76 -77 -92 -93 -107 -108 -121 -122 -147 -148 -169 -170 -177 -179 0
-21 -59 -60 -76 -77 -92 -93 -107 -108 -121 -122 -147 -148 -169 -170 -178 -179 0
-21 -59 -60 -76 -77 -92 -93 -107 -108 -121 -122 -147 -148 -169 -170 -187 -188 0
-21 -59 -60 -76 -77 -92 -93 -107 -108 -121 -122 -147 -148 -179 -180 -187 -188 0
-20 -58 -59 -75 -76 -91 -92 -106 -107 -120 -121 -158 -159 -168 -169 -177 -178 0
-21 -58 -60 -75 -76 -91 -92 -106 -107 -120 -121 -158 -159 -168 -169 -177 -178 0
-21 -59 -60 -75 -77 -91 -92 -106 -107 -120 -121 -158 -159 -168 -169 -177 -178 0
-21 -59 -60 -76 -77 -91 -93 -106 -107 -120 -121 -158 -159 -168 -169 -177 -178 0
-21 -59 -60 -76 -77 -92 -93 -106 -108 -120 -121 -158 -159 -168 -169 -177 -178 0
-21 -59 -60 -76 -77 -92 -93 -107 -108 -120 -122 -158 -159 -168 -169 -177 -178 0
-21 -59 -60 -76 -77 -92 -93 -107 -108 -121 -122 -158 -160 -168 -169 -177 -178 0
-21 -59 -60 -76 -77 -92 -93 -107 -108 -121 -122 -159 -160 -168 -170 -177 -178 0
-21 -59 -60 -76 -77 -92 -93 -107 -108 -121 -122 -159 -160 -169 -170 -177 -179 0
-21 -59 -60 -76 -77 -92 -93 -107 -108 -121 -122 -159 -160 -169 -170 -178 -179 0
-21 -59 -60 -76 -77 -92 -93 -107 -108 -121 -122 -159 -160 -169 -170 -187 -188 0
-21 -59 -60 -76 -77 -92 -93 -107 -108 -121 -122 -159 -160 -179 -180 -187 -188 0
-21 -59 -60 -76 -77 -92 -93 -107 -108 -121 -122 -170 -171 -179 -180 -187 -188 0
-19 -57 -58 -74 -75 -90 -91 -105 -106 -133 -134 -145 -146 -156 -157 -166 -167 0
-20 -57 -59 -74 -75 -90 -91 -105 -106 -133 -134 -145 -146 -156 -157 -166 -167 0
-21 -57 -60 -74 -75 -90 -91 -105 -106 -133 -134 -145 -146 -156 -157 -166 -167 0
-20 -58 -59 -74 -76 -90 -91 -105 -106 -133 -134 -145 -146 -156 -157 -166 -167 0
-21 -58 -60 -74 -76 -90 -91 -105 -106 -133 -134 -145 -146 -156 -157 -166 -167 0
-21 -59 -60 -74 -77 -90 -91 -105 -106 -133 -134 -145 -146 -156 -157 -166 -167 0
-20 -58 -59 -75 -76 -90 -92 -105 -106 -133 -134 -145 -146 -156 -157 -166 -167 0
-21 -58 -60 -75 -76 -90 -92 -105 -106 -133 -134 -145 -146 -156 -157 -166 -167 0
-21 -59 -60 -75 -77 -90 -92 -105 -106 -133 -134 -145 -146 -156 -157 -166 -167 0
-21 -59 -60 -76 -77 -90 -93 -105 -106 -133 -134 -145 -146 -156 -157 -166 -167 0
-20 -58 -59 -75 -76 -91 -92 -105 -107 -133 -134 -145 -146 -156 -157 -166 -167 0
-21 -58 -60 -75 -76 -91 -92 -105 -107 -133 -134 -145 -146 -156 -157 -166 -167 0
-21 -59 -60 -75 -77 -91 -92 -105 -107 -133 -134 -145 -146 -156 -157 -166 -167 0
-21 -59 -60 -76 -77 -91 -93 -105 -107 -133 -134 -145 -146 -156 -157 -166 -167 0
-21 -59 -60 -76 -77 -92 -93 -105 -108 -133 -134 -145 -146 -156 -157 -166 -167 0
-20 -58 -59 -75 -76 -91 -92 -106 -107 -133 -135 -145 -146 -156 -157 -166 -167 0
-21 -58 -60 -75 -76 -91 -92 -106 -107 -133 -135 -145 -146 -156 -157 -166 -167 0
-21 -59 -60 -75 -77 -91 -92 -106 -107 -133 -135 -145 -146 -156 -157 -166 -167 0
-21 -59 -60 -76 -77 -91 -93 -106 -107 -133 -135 -145 -146 -156 -157 -166 -167 0
-21 -59 -60 -76 -77 -92 -93 -106 -108 -133 -135 -145 -146 -156 -157 -166 -167 0
-21 -59 -60 -76 -77 -92 -93 -107 -108 -133 -136 -145 -146 -156 -157 -166 -167 0
-20 -58 -59 -75 -76 -91 -92 -106 -107 -134 -135 -145 -147 -156 -157 -166 -167 0
-21 -58 -60 -75 -76 -91 -92 -106 -107 -134 -135 -145 -147 -156 -157 -166 -167 0
-21 -59 -60 -75 -77 -91 -92 -106 -107 -134 -135 -145 -147 -156 -157 -166 -167 0
-21 -59 -60 -76 -77 -91 -93 -106 -107 -134 -135 -145 -147 -156 -157 -166 -167 0
-21 -59 -60 -76 -77 -92 -93 -106 -108 -134 -135 -145 -147 -156 -157 -166 -167 0
-21 -59 -60 -76 -77 -92 -93 -107 -108 -134 -136 -145 -147 -156 -157 -166 -167 0
-21 -59 -60 -76 -77 -92 -93 -107 -108 -135 -136 -145 -148 -156 -157 -166 -167 0
-20 -58 -59 -75 -76 -91 -92 -106 -107 -134 -135 -146 -147 -156 -158 -166 -167 0
-21 -58 -60 -75 -76 -91 -92 -106 -107 -134 -135 -146 -147 -156 -158 -166 -167 0
-21 -59 -60 -75 -77 -91 -92 -106 -107 -134 -135 -146 -147 -156 -158 -166 -167 0
-21 -59 -60 -76 -77 -91 -93 -106 -107 -134 -135 -146 -147 -156 -158 -166 -167 0
-21 -59 -60 -76 -77 -92 -93 -106 -108 -134 -135 -146 -147 -156 -158 -166 -167 0
-21 -59 -60 -76 -77 -92 -93 -107 -108 -134 -136 -146 -147 -156 -158 -166 -167 0
-21 -59 -60 -76 -77 -92 -93 -107 -108 -135 -136 -146 -148 -156 -158 -166 -167 0
-21 -59 -60 -76 -77 -92 -93 -107 -108 -135 -136 -147 -148 -156 -159 -166 -167 0
-20 -58 -59 -75 -76 -91 -92 -106 -107 -134 -135 -146 -147 -157 -158 -166 -168 0
-21 -58 -60 -75 -76 -91 -92 -106 -107 -134 -135 -146 -147 -157 -158 -166 -168 0
-21 -59 -60 -75 -77 -91 -92 -106 -107 -134 -135 -146 -147 -157 -158 -166 -168 0
-21 -59 -60 -76 -77 -91 -93 -106 -107 -134 -135 -146 -147 -157 -158 -166 -168 0
-21 -59 -60 -76 -77 -92 -93 -106 -108 -134 -135 -146 -147 -157 -158 -166 -168 0
-21 -59 -60 -76 -77 -92 -93 -107 -108 -134 -136 -146 -147 -157 -158 -166 -168 0
-21 -59 -60 -76 -77 -92 -93 -107 -108 -135 -136 -146 -148 -157 -158 -166 -168 0
-21 -59 -60 -76 -77 -92 -93 -107 -108 -135 -136 -147 -148 -157 -159 -166 -168 0
-21 -59 -60 -76 -77 -92 -93 -107 -108 -135 -136 -147 -148 -158 -159 -166 -169 0
-20 -58 -59 -75 -76 -91 -92 -106 -107 -134 -135 -146 -147 -157 -158 -167 -168 0
-21 -58 -60 -75 -76 -91 -92 -106 -107 -134 -135 -146 -147 -157 -158 -167 -168 0
-21 -59 -60 -75 -77 -91 -92 -106 -107 -134 -135 -146 -147 -157 -158 -167 -168 0
-21 -59 -60 -76 -77 -91 -93 -106 -107 -134 -135 -146 -147 -157 -158 -167 -168 0
-21 -59 -60 -76 -77 -92 -93 -106 -108 -134 -135 -146 -147 -157 -158 -167 -168 0
-21 -59 -60 -76 -77 -92 -93 -107 -108 -134 -136 -146 -147 -157 -158 -167 -168 0
-21 -59 -60 -76 -77 -92 -93 -107 -108 -135 -136 -146 -148 -157 -158 -167 -168 0
-21 -59 -60 -76 -77 -92 -93 -107 -108 -135 -136 -147 -148 -157 -159 -167 -168 0
-21 -59 -60 -76 -77 -92 -93 -107 -108 -135 -136 -147 -148 -158 -159 -167 -169 0
-21 -59 -60 -76 -77 -92 -93 -107 -108 -135 -136 -147 -148 -158 -159 -168 -169 0
-20 -58 -59 -75 -76 -91 -92 -106 -107 -134 -135 -146 -147 -157 -158 -177 -178 0
-21 -58 -60 -75 -76 -91 -92 -106 -107 -134 -135 -146 -147 -157 -158 -177 -178 0
-21 -59 -60 -75 -77 -91 -92 -106 -107 -134 -135 -146 -147 -157 -158 -177 -178 0
-21 -59 -60 -76 -77 -91 -93 -106 -107 -134 -135 -146 -147 -157 -158 -177 -178 0
-21 -59 -60 -76 -77 -92 -93 -106 -108 -134 -135 -146 -147 -157 -158 -177 -178 0
-21 -59 -60 -76 -77 -92 -93 -107 -108 -134 -136 -146 -147 -157 -158 -177 -178 0
-21 -59 -60 -76 -77 -92 -93 -107 -108 -135 -136 -146 -148 -157 -158 -177 -178 0
-21 -59 -60 -76 -77 -92 -93 -107 -108 -135 -136 -147 -148 -157 -159 -177 -178 0
-21 -59 -60 -76 -77 -92 -93 -107 -108 -135 -136 -147 -148 -158 -159 -177 -179 0
-21 -59 -60 -76 -77 -92 -93 -107 -108 -135 -136 -147 -148 -158 -159 -178 -179 0
-21 -59 -60 -76 -77 -92 -93 -107 -108 -135 -136 -147 -148 -158 -159 -187 -188 0
-20 -58 -59 -75 -76 -91 -92 -106 -107 -134 -135 -146 -147 -168 -169 -177 -178 0
-21 -58 -60 -75 -76 -91 -92 -106 -107 -134 -135 -146 -147 -168 -169 -177 -178 0
-21 -59 -60 -75 -77 -91 -92 -106 -107 -134 -135 -146 -147 -168 -169 -177 -178 0
-21 -59 -60 -76 -77 -91 -93 -106 -107 -134 -135 -146 -147 -168 -169 -177 -178 0
-21 -59 -60 -76 -77 -92 -93 -106 -108 -134 -135 -146 -147 -168 -169 -177 -178 0
-21 -59 -60 -76 -77 -92 -93 -107 -108 -134 -136 -146 -147 -168 -169 -177 -178 0
-21 -59 -60 -76 -77 -92 -93 -107 -108 -135 -136 -146 -148 -168 -169 -177 -178 0
-21 -59 -60 -76 -77 -92 -93 -107 -108 -135 -136 -147 -148 -168 -170 -177 -178 0
-21 -59 -60 -76 -77 -92 -93 -107 -108 -135 -136 -147 -148 -169 -170 -177 -179 0
-21 -59 -60 -76 -77 -92 -93 -107 -108 -135 -136 -147 -148 -169 -170 -178 -179 0
-21 -59 -60 -76 -77 -92 -93 -107 -108 -135 -136 -147 -148 -169 -170 -187 -188 0
-21 -59 -60 -76 -77 -92 -93 -107 -108 -135 -136 -147 -148 -179 -180 -187 -188 0
-20 -58 -59 -75 -76 -91 -92 -106 -107 -134 -135 -158 -159 -168 -169 -177 -178 0
-21 -58 -60 -75 -76 -91 -92 -106 -107 -134 -135 -158 -159 -168 -169 -177 -178 0
-21 -59 -60 -75 -77 -91 -92 -106 -107 -134 -135 -158 -159 -168 -169 -177 -178 0
-21 -59 -60 -76 -77 -91 -93 -106 -107 -134 -135 -158 -159 -168 -169 -177 -178 0
-21 -59 -60 -76 -77 -92 -93 -106 -108 -134 -135 -158 -159 -168 -169 -177 -178 0
-21 -59 -60 -76 -77 -92 -93 -107 -108 -134 -136 -158 -159 -168 -169 -177 -178 0
-21 -59 -60 -76 -77 -92 -93 -107 -108 -135 -136 -158 -160 -168 -169 -177 -178 0
-21 -59 -60 -76 -77 -92 -93 -107 -108 -135 -136 -159 -160 -168 -170 -177 -178 0
-21 -59 -60 -76 -77 -92 -93 -107 -108 -135 -136 -159 -160 -169 -170 -177 -179 0
-21 -59 -60 -76 -77 -92 -93 -107 -108 -135 -136 -159 -160 -169 -170 -178 -179 0
-21 -59 -60 -76 -77 -92 -93 -107 -108 -135 -136 -159 -160 -169 -170 -187 -188 0
-21 -59 -60 -76 -77 -92 -93 -107 -108 -135 -136 -159 -160 -179 -180 -187 -188 0
-21 -59 -60 -76 -77 -92 -93 -107 -108 -135 -136 -170 -171 -179 -180 -187 -188 0
-20 -58 -59 -75 -76 -91 -92 -106 -107 -147 -148 -158 -159 -168 -169 -177 -178 0
-21 -58 -60 -75 -76 -91 -92 -106 -107 -147 -148 -158 -159 -168 -169 -177 -178 0
-21 -59 -60 -75 -77 -91 -92 -106 -107 -147 -148 -158 -159 -168 -169 -177 -178 0
-21 -59 -60 -76 -77 -91 -93 -106 -107 -147 -148 -158 -159 -168 -169 -177 -178 0
-21 -59 -60 -76 -77 -92 -93 -106 -108 -147 -148 -158 -159 -168 -169 -177 -178 0
-21 -59 -60 -76 -77 -92 -93 -107 -108 -147 -149 -158 -159 -168 -169 -177 -178 0
-21 -59 -60 -76 -77 -92 -93 -107 -108 -148 -149 -158 -160 -168 -169 -177 -178 0
-21 -59 -60 -76 -77 -92 -93 -107 -108 -148 -149 -159 -160 -168 -170 -177 -178 0
-21 -59 -60 -76 -77 -92 -93 -107 -108 -148 -149 -159 -160 -169 -170 -177 -179 0
-21 -59 -60 -76 -77 -92 -93 -107 -108 -148 -149 -159 -160 -169 -170 -178 -179 0
-21 -59 -60 -76 -77 -92 -93 -107 -108 -148 -149 -159 -160 -169 -170 -187 -188 0
-21 -59 -60 -76 -77 -92 -93 -107 -108 -148 -149 -159 -160 -179 -180 -187 -188 0
-21 -59 -60 -76 -77 -92 -93 -107 -108 -148 -149 -170 -171 -179 -180 -187 -188 0
-21 -59 -60 -76 -77 -92 -93 -107 -108 -160 -161 -170 -171 -179 -180 -187 -188 0
-19 -57 -58 -74 -75 -90 -91 -120 -121 -133 -134 -145 -146 -156 -157 -166 -167 0
-20 -57 -59 -74 -75 -90 -91 -120 -121 -133 -134 -145 -146 -156 -157 -166 -167 0
-21 -57 -60 -74 -75 -90 -91 -120 -121 -133 -134 -145 -146 -156 -157 -166 -167 0
-20 -58 -59 -74 -76 -90 -91 -120 -121 -133 -134 -145 -146 -156 -157 -166 -167 0
-21 -58 -60 -74 -76 -90 -91 -120 -121 -133 -134 -145 -146 -156 -157 -166 -167 0
-21 -59 -60 -74 -77 -90 -91 -120 -121 -133 -134 -145 -146 -156 -157 -166 -167 0
-20 -58 -59 -75 -76 -90 -92 -120 -121 -133 -134 -145 -146 -156 -157 -166 -167 0
-21 -58 -60 -75 -76 -90 -92 -120 -121 -133 -134 -145 -146 -156 -157 -166 -167 0
-21 -59 -60 -75 -77 -90 -92 -120 -121 -133 -134 -145 -146 -156 -157 -166 -167 0
-21 -59 -60 -76 -77 -90 -93 -120 -121 -133 -134 -145 -146 -156 -157 -166 -167 0
-20 -58 -59 -75 -76 -91 -92 -120 -122 -133 -134 -145 -146 -156 -157 -166 -167 0
-21 -58 -60 -75 -76 -91 -92 -120 -122 -133 -134 -145 -146 -156 -157 -166 -167 0
-21 -59 -60 -75 -77 -91 -92 -120 -122 -133 -134 -145 -146 -156 -157 -166 -167 0
-21 -59 -60 -76 -77 -91 -93 -120 -122 -133 -134 -145 -146 -156 -157 -166 -167 0
-21 -59 -60 -76 -77 -92 -93 -120 -123 -133 -134 -145 -146 -156 -157 -166 -167 0
-20 -58 -59 -75 -76 -91 -92 -121 -122 -133 -135 -145 -146 -156 -157 -166 -167 0
-21 -58 -60 -75 -76 -91 -92 -121 -122 -133 -135 -145 -146 -156 -157 -166 -167 0
-21 -59 -60 -75 -77 -91 -92 -121 -122 -133 -135 -145 -146 -156 -157 -166 -167 0
-21 -59 -60 -76 -77 -91 -93 -121 -122 -133 -135 -145 -146 -156 -157 -166 -167 0
-21 -59 -60 -76 -77 -92 -93 -121 -123 -133 -135 -145 -146 -156 -157 -166 -167 0
-21 -59 -60 -76 -77 -92 -93 -122 -123 -133 -136 -145 -146 -156 -157 -166 -167 0
-20 -58 -59 -75 -76 -91 -92 -121 -122 -134 -135 -145 -147 -156 -157 -166 -167 0
-21 -58 -60 -75 -76 -91 -92 -121 -122 -134 -135 -145 -147 -156 -157 -166 -167 0
-21 -59 -60 -75 -77 -91 -92 -121 -122 -134 -135 -145 -147 -156 -157 -166 -167 0
-21 -59 -60 -76 -77 -91 -93 -121 -122 -134 -135 -145 -147 -156 -157 -166 -167 0
-21 -59 -60 -76 -77 -92 -93 -121 -123 -134 -135 -145 -147 -156 -157 -166 -167 0
-21 -59 -60 -76 -77 -92 -93 -122 -123 -134 -136 -145 -147 -156 -157 -166 -167 0
-21 -59 -60 -76 -77 -92 -93 -122 -123 -135 -136 -145 -148 -156 -157 -166 -167 0
-20 -58 -59 -75 -76 -91 -92 -121 -122 -134 -135 -146 -147 -156 -158 -166 -167 0
-21 -58 -60 -75 -76 -91 -92 -121 -122 -134 -135 -146 -147 -156 -158 -166 -167 0
-21 -59 -60 -75 -77 -91 -92 -121 -122 -134 -135 -146 -147 -156 -158 -166 -167 0
-21 -59 -60 -76 -77 -91 -93 -121 -122 -134 -135 -146 -147 -156 -158 -166 -167 0
-21 -59 -60 -76 -77 -92 -93 -121 -123 -134 -135 -146 -147 -156 -158 -166 -167 0
-21 -59 -60 -76 -77 -92 -93 -122 -123 -134 -136 -146 -147 -156 -158 -166 -167 0
-21 -59 -60 -76 -77 -92 -93 -122 -123 -135 -136 -146 -148 -156 -158 -166 -167 0
-21 -59 -60 -76 -77 -92 -93 -122 -123 -135 -136 -147 -148 -156 -159 -166 -167 0
-20 -58 -59 -75 -76 -91 -92 -121 -122 -134 -135 -146 -147 -157 -158 -166 -168 0
-21 -58 -60 -75 -76 -91 -92 -121 -122 -134 -135 -146 -147 -157 -158 -166 -168 0
-21 -59 -60 -75 -77 -91 -92 -121 -122 -134 -135 -146 -147 -157 -158 -166 -168 0
-21 -59 -60 -76 -77 -91 -93 -121 -122 -134 -135 -146 -147 -157 -158 -166 -168 0
-21 -59 -60 -76 -77 -92 -93 -121 -123 -134 -135 -146 -147 -157 -158 -166 -168 0
-21 -59 -60 -76 -77 -92 -93 -122 -123 -134 -136 -146 -147 -157 -158 -166 -168 0
-21 -59 -60 -76 -77 -92 -93 -122 -123 -135 -136 -146 -148 -157 -158 -166 -168 0
-21 -59 -60 -76 -77 -92 -93 -122 -123 -135 -136 -147 -148 -157 -159 -166 -168 0
-21 -59 -60 -76 -77 -92 -93 -122 -123 -135 -136 -147 -148 -158 -159 -166 -169 0
-20 -58 -59 -75 -76 -91 -92 -121 -122 -134 -135 -146 -147 -157 -158 -167 -168 0
-21 -58 -60 -75 -76 -91 -92 -121 -122 -134 -135 -146 -147 -157 -158 -167 -168 0
-21 -59 -60 -75 -77 -91 -92 -121 -122 -134 -135 -146 -147 -157 -158 -167 -168 0
-21 -59 -60 -76 -77 -91 -93 -121 -122 -134 -135 -146 -147 -157 -158 -167 -168 0
-21 -59 -60 -76 -77 -92 -93 -121 -123 -134 -135 -146 -147 -157 -158 -167 -168 0
-21 -59 -60 -76 -77 -92 -93 -122 -123 -134 -136 -146 -147 -157 -158 -167 -168 0
-21 -59 -60 -76 -77 -92 -93 -122 -123 -135 -136 -146 -148 -157 -158 -167 -168 0
-21 -59 -60 -76 -77 -92 -93 -122 -123 -135 -136 -147 -148 -157 -159 -167 -168 0
-21 -59 -60 -76 -77 -92 -93 -122 -123 -135 -136 -147 -148 -158 -159 -167 -169 0
-21 -59 -60 -76 -77 -92 -93 -122 -123 -135 -136 -147 -148 -158 -159 -168 -169 0
-20 -58 -59 -75 -76 -91 -92 -121 -122 -134 -135 -146 -147 -157 -158 -177 -178 0
-21 -58 -60 -75 -76 -91 -92 -121 -122 -134 -135 -146 -147 -157 -158 -177 -178 0
-21 -59 -60 -75 -77 -91 -92 -121 -122 -134 -135 -146 -147 -157 -158 -177 -178 0
-21 -59 -60 -76 -77 -91 -93 -121 -122 -134 -135 -146 -147 -157 -158 -177 -178 0
-21 -59 -60 -76 -77 -92 -93 -121 -123 -134 -135 -146 -147 -157 -158 -177 -178 0
-21 -59 -60 -76 -77 -92 -93 -122 -123 -134 -136 -146 -147 -157 -158 -177 -178 0
-21 -59 -60 -76 -77 -92 -93 -122 -123 -135 -136 -146 -148 -157 -158 -177 -178 0
-21 -59 -60 -76 -77 -92 -93 -122 -123 -135 -136 -147 -148 -157 -159 -177 -178 0
-21 -59 -60 -76 -77 -92 -93 -122 -123 -135 -136 -147 -148 -158 -159 -177 -179 0
-21 -59 -60 -76 -77 -92 -93 -122 -123 -135 -136 -147 -148 -158 -159 -178 -179 0
-21 -59 -60 -76 -77 -92 -93 -122 -123 -135 -136 -147 -148 -158 -159 -187 -188 0
-20 -58 -59 -75 -76 -91 -92 -121 -122 -134 -135 -146 -147 -168 -169 -177 -178 0
-21 -58 -60 -75 -76 -91 -92 -121 -122 -134 -135 -146 -147 -168 -169 -177 -178 0
-21 -59 -60 -75 -77 -91 -92 -121 -122 -134 -135 -146 -147 -168 -169 -177 -178 0
-21 -59 -60 -76 -77 -91 -93 -121 -122 -134 -135 -146 -147 -168 -169 -177 -178 0
-21 -59 -60 -76 -77 -92 -93 -121 -123 -134 -135 -146 -147 -168 -169 -177 -178 0
-21 -59 -60 -76 -77 -92 -93 -122 -123 -134 -136 -146 -147 -168 -169 -177 -178 0
-21 -59 -60 -76 -77 -92 -93 -122 -123 -135 -136 -146 -148 -168 -169 -177 -178 0
-21 -59 -60 -76 -77 -92 -93 -122 -123 -135 -136 -147 -148 -168 -170 -177 -178 0
-21 -59 -60 -76 -77 -92 -93 -122 -123 -135 -136 -147 -148 -169 -170 -177 -179 0
-21 -59 -60 -76 -77 -92 -93 -122 -123 -135 -136 -147 -148 -169 -170 -178 -179 0
-21 -59 -60 -76 -77 -92 -93 -122 -123 -135 -136 -147 -148 -169 -170 -187 -188 0
-21 -59 -60 -76 -77 -92 -93 -122 -123 -135 -136 -147 -148 -179 -180 -187 -188 0
-20 -58 -59 -75 -76 -91 -92 -121 -122 -134 -135 -158 -159 -168 -169 -177 -178 0
-21 -58 -60 -75 -76 -91 -92 -121 -122 -134 -135 -158 -159 -168 -169 -177 -178 0
-21 -59 -60 -75 -77 -91 -92 -121 -122 -134 -135 -158 -159 -168 -169 -177 -178 0
-21 -59 -60 -76 -77 -91 -93 -121 -122 -134 -135 -158 -159 -168 -169 -177 -178 0
-21 -59 -60 -76 -77 -92 -93 -121 -123 -134 -135 -158 -159 -168 -169 -177 -178 0
-21 -59 -60 -76 -77 -92 -93 -122 -123 -134 -136 -158 -159 -168 -169 -177 -178 0
-21 -59 -60 -76 -77 -92 -93 -122 -123 -135 -136 -158 -160 -168 -169 -177 -178 0
-21 -59 -60 -76 -77 -92 -93 -122 -123 -135 -136 -159 -160 -168 -170 -177 -178 0
-21 -59 -60 -76 -77 -92 -93 -122 -123 -135 -136 -159 -160 -169 -170 -177 -179 0
-21 -59 -60 -76 -77 -92 -93 -122 -123 -135 -136 -159 -160 -169 -170 -178 -179 0
-21 -59 -60 -76 -77 -92 -93 -122 -123 -135 -136 -159 -160 -169 -170 -187 -188 0
-21 -59 -60 -76 -77 -92 -93 -122 -123 -135 -136 -159 -160 -179 -180 -187 -188 0
-21 -59 -60 -76 -77 -92 -93 -122 -123 -135 -136 -170 -171 -179 -180 -187 -188 0
-20 -58 -59 -75 -76 -91 -92 -121 -122 -147 -148 -158 -159 -168 -169 -177 -178 0
-21 -58 -60 -75 -76 -91 -92 -121 -122 -147 -148 -158 -159 -168 -169 -177 -178 0
-21 -59 -60 -75 -77 -91 -92 -121 -122 -147 -148 -158 -159 -168 -169 -177 -178 0
-21 -59 -60 -76 -77 -91 -93 -121 -122 -147 -148 -158 -159 -168 -169 -177 -178 0
-21 -59 -60 -76 -77 -92 -93 -121 -123 -147 -148 -158 -159 -168 -169 -177 -178 0
-21 -59 -60 -76 -77 -92 -93 -122 -123 -147 -149 -158 -159 -168 -169 -177 -178 0
-21 -59 -60 -76 -77 -92 -93 -122 -123 -148 -149 -158 -160 -168 -169 -177 -178 0
-21 -59 -60 -76 -77 -92 -93 -122 -123 -148 -149 -159 -160 -168 -170 -177 -178 0
-21 -59 -60 -76 -77 -92 -93 -122 -123 -148 -149 -159 -160 -169 -170 -177 -179 0
-21 -59 -60 -76 -77 -92 -93 -122 -123 -148 -149 -159 -160 -169 -170 -178 -179 0
-21 -59 -60 -76 -77 -92 -93 -122 -123 -148 -149 -159 -160 -169 -170 -187 -188 0
-21 -59 -60 -76 -77 -92 -93 -122 -123 -148 -149 -159 -160 -179 -180 -187 -188 0
-21 -59 -60 -76 -77 -92 -93 -122 -123 -148 -149 -170 -171 -179 -180 -187 -188 0
-21 -59 -60 -76 -77 -92 -93 -122 -123 -160 -161 -170 -171 -179 -180 -187 -188 0
-20 -58 -59 -75 -76 -91 -92 -135 -136 -147 -148 -158 -159 -168 -169 -177 -178 0
-21 -58 -60 -75 -76 -91 -92 -135 -136 -147 -148 -158 -159 -168 -169 -177 -178 0
-21 -59 -60 -75 -77 -91 -92 -135 -136 -147 -148 -158 -159 -168 -169 -177 -178 0
-21 -59 -60 -76 -77 -91 -93 -135 -136 -147 -148 -158 -159 -168 -169 -177 -178 0
-21 -59 -60 -76 -77 -92 -93 -135 -137 -147 -148 -158 -159 -168 -169 -177 -178 0
-21 -59 -60 -76 -77 -92 -93 -136 -137 -147 -149 -158 -159 -168 -169 -177 -178 0
-21 -59 -60 -76 -77 -92 -93 -136 -137 -148 -149 -158 -160 -168 -169 -177 -178 0
-21 -59 -60 -76 -77 -92 -93 -136 -137 -148 -149 -159 -160 -168 -170 -177 -178 0
-21 -59 -60 -76 -77 -92 -93 -136 -137 -148 -149 -159 -160 -169 -170 -177 -179 0
-21 -59 -60 -76 -77 -92 -93 -136 -137 -148 -149 -159 -160 -169 -170 -178 -179 0
-21 -59 -60 -76 -77 -92 -93 -136 -137 -148 -149 -159 -160 -169 -170 -187 -188 0
-21 -59 -60 -76 -77 -92 -93 -136 -137 -148 -149 -159 -160 -179 -180 -187 -188 0
-21 -59 -60 -76 -77 -92 -93 -136 -137 -148 -149 -170 -171 -179 -180 -187 -188 0
-21 -59 -60 -76 -77 -92 -93 -136 -137 -160 -161 -170 -171 -179 -180 -187 -188 0
-21 -59 -60 -76 -77 -92 -93 -149 -150 -160 -161 -170 -171 -179 -180 -187 -188 0
-19 -57 -58 -74 -75 -106 -107 -120 -121 -133 -134 -145 -146 -156 -157 -166 -167 0
-20 -57 -59 -74 -75 -106 -107 -120 -121 -133 -134 -145 -146 -156 -157 -166 -167 0
-21 -57 -60 -74 -75 -106 -107 -120 -121 -133 -134 -145 -146 -156 -157 -166 -167 0
-20 -58 -59 -74 -76 -106 -107 -120 -121 -133 -134 -145 -146 -156 -157 -166 -167 0
-21 -58 -60 -74 -76 -106 -107 -120 -121 -133 -134 -145 -146 -156 -157 -166 -167 0
-21 -59 -60 -74 -77 -106 -107 -120 -121 -133 -134 -145 -146 -156 -157 -166 -167 0
-20 -58 -59 -75 -76 -106 -108 -120 -121 -133 -134 -145 -146 -156 -157 -166 -167 0
-21 -58 -60 -75 -76 -106 -108 -120 -121 -133 -134 -145 -146 -156 -157 -166 -167 0
-21 -59 -60 -75 -77 -106 -108 -120 -121 -133 -134 -145 -146 -156 -157 -166 -167 0
-21 -59 -60 -76 -77 -106 -109 -120 -121 -133 -134 -145 -146 -156 -157 -166 -167 0
-20 -58 -59 -75 -76 -107 -108 -120 -122 -133 -134 -145 -146 -156 -157 -166 -167 0
-21 -58 -60 -75 -76 -107 -108 -120 -122 -133 -134 -145 -146 -156 -157 -166 -167 0
-21 -59 -60 -75 -77 -107 -108 -120 -122 -133 -134 -145 -146 -156 -157 -166 -167 0
-21 -59 -60 -76 -77 -107 -109 -120 -122 -133 -134 -145 -146 -156 -157 -166 -167 0
-21 -59 -60 -76 -77 -108 -109 -120 -123 -133 -134 -145 -146 -156 -157 -166 -167 0
-20 -58 -59 -75 -76 -107 -108 -121 -122 -133 -135 -145 -146 -156 -157 -166 -167 0
-21 -58 -60 -75 -76 -107 -108 -121 -122 -133 -135 -145 -146 -156 -157 -166 -167 0
-21 -59 -60 -75 -77 -107 -108 -121 -122 -133 -135 -145 -146 -156 -157 -166 -167 0
-21 -59 -60 -76 -77 -107 -109 -121 -122 -133 -135 -145 -146 -156 -157 -166 -167 0
-21 -59 -60 -76 -77 -108 -109 -121 -123 -133 -135 -145 -146 -156 -157 -166 -167 0
-21 -59 -60 -76 -77 -108 -109 -122 -123 -133 -136 -145 -146 -156 -157 -166 -167 0
-20 -58 -59 -75 -76 -107 -108 -121 -122 -134 -135 -145 -147 -156 -157 -166 -167 0
-21 -58 -60 -75 -76 -107 -108 -121 -122 -134 -135 -145 -147 -156 -157 -166 -167 0
-21 -59 -60 -75 -77 -107 -108 -121 -122 -134 -135 -145 -147 -156 -157 -166 -167 0
-21 -59 -60 -76 -77 -107 -109 -121 -122 -134 -135 -145 -147 -156 -157 -166 -167 0
-21 -59 -60 -76 -77 -108 -109 -121 -123 -134 -135 -145 -147 -156 -157 -166 -167 0
-21 -59 -60 -76 -77 -108 -109 -122 -123 -134 -136 -145 -147 -156 -157 -166 -167 0
-21 -59 -60 -76 -77 -108 -109 -122 -123 -135 -136 -145 -148 -156 -157 -166 -167 0
-20 -58 -59 -75 -76 -107 -108 -121 -122 -134 -135 -146 -147 -156 -158 -166 -167 0
-21 -58 -60 -75 -76 -107 -108 -121 -122 -134 -135 -146 -147 -156 -158 -166 -167 0
-21 -59 -60 -75 -77 -107 -108 -121 -122 -134 -135 -146 -147 -156 -158 -166 -167 0
-21 -59 -60 -76 -77 -107 -109 -121 -122 -134 -135 -146 -147 -156 -158 -166 -167 0
-21 -59 -60 -76 -77 -108 -109 -121 -123 -134 -135 -146 -147 -156 -158 -166 -167 0
-21 -59 -60 -76 -77 -108 -109 -122 -123 -134 -136 -146 -147 -156 -158 -166 -167 0
-21 -59 -60 -76 -77 -108 -109 -122 -123 -135 -136 -146 -148 -156 -158 -166 -167 0
-21 -59 -60 -76 -77 -108 -109 -122 -123 -135 -136 -147 -148 -156 -159 -166 -167 0
-20 -58 -59 -75 -76 -107 -108 -121 -122 -134 -135 -146 -147 -157 -158 -166 -168 0
-21 -58 -60 -75 -76 -107 -108 -121 -122 -134 -135 -146 -147 -157 -158 -166 -168 0
-21 -59 -60 -75 -77 -107 -108 -121 -122 -134 -135 -146 -147 -157 -158 -166 -168 0
-21 -59 -60 -76 -77 -107 -109 -121 -122 -134 -135 -146 -147 -157 -158 -166 -168 0
-21 -59 -60 -76 -77 -108 -109 -121 -123 -134 -135 -146 -147 -157 -158 -166 -168 0
-21 -59 -60 -76 -77 -108 -109 -122 -123 -134 -136 -146 -147 -157 -158 -166 -168 0
-21 -59 -60 -76 -77 -108 -109 -122 -123 -135 -136 -146 -148 -157 -158 -166 -168 0
-21 -59 -60 -76 -77 -108 -109 -122 -123 -135 -136 -147 -148 -157 -159 -166 -168 0
-21 -59 -60 -76 -77 -108 -109 -122 -123 -135 -136 -147 -148 -158 -159 -166 -169 0
-20 -58 -59 -75 -76 -107 -108 -121 -122 -134 -135 -146 -147 -157 -158 -167 -168 0
-21 -58 -60 -75 -76 -107 -108 -121 -122 -134 -135 -146 -147 -157 -158 -167 -168 0
-21 -59 -60 -75 -77 -107 -108 -121 -122 -134 -135 -146 -147 -157 -158 -167 -168 0
-21 -59 -60 -76 -77 -107 -109 -121 -122 -134 -135 -146 -147 -157 -158 -167 -168 0
-21 -59 -60 -76 -77 -108 -109 -121 -123 -134 -135 -146 -147 -157 -158 -167 -168 0
-21 -59 -60 -76 -77 -108 -109 -122 -123 -134 -136 -146 -147 -157 -158 -167 -168 0
-21 -59 -60 -76 -77 -108 -109 -122 -123 -135 -136 -146 -148 -157 -158 -167 -168 0
-21 -59 -60 -76 -77 -108 -109 -122 -123 -135 -136 -147 -148 -157 -159 -167 -168 0
-21 -59 -60 -76 -77 -108 -109 -122 -123 -135 -136 -147 -148 -158 -159 -167 -169 0
-21 -59 -60 -76 -77 -108 -109 -122 -123 -135 -136 -147 -148 -158 -159 -168 -169 0
-20 -58 -59 -75 -76 -107 -108 -121 -122 -134 -135 -146 -147 -157 -158 -177 -178 0
-21 -58 -60 -75 -76 -107 -108 -121 -122 -134 -135 -146 -147 -157 -158 -177 -178 0
-21 -59 -60 -75 -77 -107 -108 -121 -122 -134 -135 -146 -147 -157 -158 -177 -178 0
-21 -59 -60 -76 -77 -107 -109 -121 -122 -134 -135 -146 -147 -157 -158 -177 -178 0
-21 -59 -60 -76 -77 -108 -109 -121 -123 -134 -135 -146 -147 -157 -158 -177 -178 0
-21 -59 -60 -76 -77 -108 -109 -122 -123 -134 -136 -146 -147 -157 -158 -177 -178 0
-21 -59 -60 -76 -77 -108 -109 -122 -123 -135 -136 -146 -148 -157 -158 -177 -178 0
-21 -59 -60 -76 -77 -108 -109 -122 -123 -135 -136 -147 -148 -157 -159 -177 -178 0
-21 -59 -60 -76 -77 -108 -109 -122 -123 -135 -136 -147 -148 -158 -159 -177 -179 0
-21 -59 -60 -76 -77 -108 -109 -122 -123 -135 -136 -147 -148 -158 -159 -178 -179 0
-21 -59 -60 -76 -77 -108 -109 -122 -123 -135 -136 -147 -148 -158 -159 -187 -188 0
-20 -58 -59 -75 -76 -107 -108 -121 -122 -134 -135 -146 -147 -168 -169 -177 -178 0
-21 -58 -60 -75 -76 -107 -108 -121 -122 -134 -135 -146 -147 -168 -169 -177 -178 0
-21 -59 -60 -75 -77 -107 -108 -121 -122 -134 -135 -146 -147 -168 -169 -177 -178 0
-21 -59 -60 -76 -77 -107 -109 -121 -122 -134 -135 -146 -147 -168 -169 -177 -178 0
-21 -59 -60 -76 -77 -108 -109 -121 -123 -134 -135 -146 -147 -168 -169 -177 -178 0
-21 -59 -60 -76 -77 -108 -109 -122 -123 -134 -136 -146 -147 -168 -169 -177 -178 0
-21 -59 -60 -76 -77 -108 -109 -122 -123 -135 -136 -146 -148 -168 -169 -177 -178 0
-21 -59 -60 -76 -77 -108 -109 -122 -123 -135 -136 -147 -148 -168 -170 -177 -178 0
-21 -59 -60 -76 -77 -108 -109 -122 -123 -135 -136 -147 -148 -169 -170 -177 -179 0
-21 -59 -60 -76 -77 -108 -109 -122 -123 -135 -136 -147 -148 -169 -170 -178 -179 0
-21 -59 -60 -76 -77 -108 -109 -122 -123 -135 -136 -147 -148 -169 -170 -187 -188 0
-21 -59 -60 -76 -77 -108 -109 -122 -123 -135 -136 -147 -148 -179 -180 -187 -188 0
-20 -58 -59 -75 -76 -107 -108 -121 -122 -134 -135 -158 -159 -168 -169 -177 -178 0
-21 -58 -60 -75 -76 -107 -108 -121 -122 -134 -135 -158 -159 -168 -169 -177 -178 0
-21 -59 -60 -75 -77 -107 -108 -121 -122 -134 -135 -158 -159 -168 -169 -177 -178 0
-21 -59 -60 -76 -77 -107 -109 -121 -122 -134 -135 -158 -159 -168 -169 -177 -178 0
-21 -59 -60 -76 -77 -108 -109 -121 -123 -134 -135 -158 -159 -168 -169 -177 -178 0
-21 -59 -60 -76 -77 -108 -109 -122 -123 -134 -136 -158 -159 -168 -169 -177 -178 0
-21 -59 -60 -76 -77 -108 -109 -122 -123 -135 -136 -158 -160 -168 -169 -177 -178 0
-21 -59 -60 -76 -77 -108 -109 -122 -123 -135 -136 -159 -160 -168 -170 -177 -178 0
-21 -59 -60 -76 -77 -108 -109 -122 -123 -135 -136 -159 -160 -169 -170 -177 -179 0
-21 -59 -60 -76 -77 -108 -109 -122 -123 -135 -136 -159 -160 -169 -170 -178 -179 0
-21 -59 -60 -76 -77 -108 -109 -122 -123 -135 -136 -159 -160 -169 -170 -187 -188 0
-21 -59 -60 -76 -77 -108 -109 -122 -123 -135 -136 -159 -160 -179 -180 -187 -188 0
-21 -59 -60 -76 -77 -108 -109 -122 -123 -135 -136 -170 -171 -179 -180 -187 -188 0
-20 -58 -59 -75 -76 -107 -108 -121 -122 -147 -148 -158 -159 -168 -169 -177 -178 0
-21 -58 -60 -75 -76 -107 -108 -121 -122 -147 -148 -158 -159 -168 -169 -177 -178 0
-21 -59 -60 -75 -77 -107 -108 -121 -122 -147 -148 -158 -159 -168 -169 -177 -178 0
-21 -59 -60 -76 -77 -107 -109 -121 -122 -147 -148 -158 -159 -168 -169 -177 -178 0
-21 -59 -60 -76 -77 -108 -109 -121 -123 -147 -148 -158 -159 -168 -169 -177 -178 0
-21 -59 -60 -76 -77 -108 -109 -122 -123 -147 -149 -158 -159 -168 -169 -177 -178 0
-21 -59 -60 -76 -77 -108 -109 -122 -123 -148 -149 -158 -160 -168 -169 -177 -178 0
-21 -59 -60 -76 -77 -108 -109 -122 -123 -148 -149 -159 -160 -168 -170 -177 -178 0
-21 -59 -60 -76 -77 -108 -109 -122 -123 -148 -149 -159 -160 -169 -170 -177 -179 0
-21 -59 -60 -76 -77 -108 -109 -122 -123 -148 -149 -159 -160 -169 -170 -178 -179 0
-21 -59 -60 -76 -77 -108 -109 -122 -123 -148 -149 -159 -160 -169 -170 -187 -188 0
-21 -59 -60 -76 -77 -108 -109 -122 -123 -148 -149 -159 -160 -179 -180 -187 -188 0
-21 -59 -60 -76 -77 -108 -109 -122 -123 -148 -149 -170 -171 -179 -180 -187 -188 0
-21 -59 -60 -76 -77 -108 -109 -122 -123 -160 -161 -170 -171 -179 -180 -187 -188 0
-20 -58 -59 -75 -76 -107 -108 -135 -136 -147 -148 -158 -159 -168 -169 -177 -178 0
-21 -58 -60 -75 -76 -107 -108 -135 -136 -147 -148 -158 -159 -168 -169 -177 -178 0
-21 -59 -60 -75 -77 -107 -108 -135 -136 -147 -148 -158 -159 -168 -169 -177 -178 0
-21 -59 -60 -76 -77 -107 -109 -135 -136 -147 -148 -158 -159 -168 -169 -177 -178 0
-21 -59 -60 -76 -77 -108 -109 -135 -137 -147 -148 -158 -159 -168 -169 -177 -178 0
-21 -59 -60 -76 -77 -108 -109 -136 -137 -147 -149 -158 -159 -168 -169 -177 -178 0
-21 -59 -60 -76 -77 -108 -109 -136 -137 -148 -149 -158 -160 -168 -169 -177 -178 0
-21 -59 -60 -76 -77 -108 -109 -136 -137 -148 -149 -159 -160 -168 -170 -177 -178 0
-21 -59 -60 -76 -77 -108 -109 -136 -137 -148 -149 -159 -160 -169 -170 -177 -179 0
-21 -59 -60 -76 -77 -108 -109 -136 -137 -148 -149 -159 -160 -169 -170 -178 -179 0
-21 -59 -60 -76 -77 -108 -109 -136 -137 -148 -149 -159 -160 -169 -170 -187 -188 0
-21 -59 -60 -76 -77 -108 -109 -136 -137 -148 -149 -159 -160 -179 -180 -187 -188 0
-21 -59 -60 -76 -77 -108 -109 -136 -137 -148 -149 -170 -171 -179 -180 -187 -188 0
-21 -59 -60 -76 -77 -108 -109 -136 -137 -160 -161 -170 -171 -179 -180 -187 -188 0
-21 -59 -60 -76 -77 -108 -109 -149 -150 -160 -161 -170 -171 -179 -180 -187 -188 0
-20 -58 -59 -75 -76 -122 -123 -135 -136 -147 -148 -158 -159 -168 -169 -177 -178 0
-21 -58 -60 -75 -76 -122 -123 -135 -136 -147 -148 -158 -159 -168 -169 -177 -178 0
-21 -59 -60 -75 -77 -122 -123 -135 -136 -147 -148 -158 -159 -168 -169 -177 -178 0
-21 -59 -60 -76 -77 -122 -124 -135 -136 -147 -148 -158 -159 -168 -169 -177 -178 0
-21 -59 -60 -76 -77 -123 -124 -135 -137 -147 -148 -158 -159 -168 -169 -177 -178 0
-21 -59 -60 -76 -77 -123 -124 -136 -137 -147 -149 -158 -159 -168 -169 -177 -178 0
-21 -59 -60 -76 -77 -123 -124 -136 -137 -148 -149 -158 -160 -168 -169 -177 -178 0
-21 -59 -60 -76 -77 -123 -124 -136 -137 -148 -149 -159 -160 -168 -170 -177 -178 0
-21 -59 -60 -76 -77 -123 -124 -136 -137 -148 -149 -159 -160 -169 -170 -177 -179 0
-21 -59 -60 -76 -77 -123 -124 -136 -137 -148 -149 -159 -160 -169 -170 -178 -179 0
-21 -59 -60 -76 -77 -123 -124 -136 -137 -148 -149 -159 -160 -169 -170 -187 -188 0
-21 -59 -60 -76 -77 -123 -124 -136 -137 -148 -149 -159 -160 -179 -180 -187 -188 0
-21 -59 -60 -76 -77 -123 -124 -136 -137 -148 -149 -170 -171 -179 -180 -187 -188 0
-21 -59 -60 -76 -77 -123 -124 -136 -137 -160 -161 -170 -171 -179 -180 -187 -188 0
-21 -59 -60 -76 -77 -123 -124 -149 -150 -160 -161 -170 -171 -179 -180 -187 -188 0
-21 -59 -60 -76 -77 -137 -138 -149 -150 -160 -161 -170 -171 -179 -180 -187 -188 0
-19 -57 -58 -91 -92 -106 -107 -120 -121 -133 -134 -145 -146 -156 -157 -166 -167 0
-20 -57 -59 -91 -92 -106 -107 -120 -121 -133 -134 -145 -146 -156 -157 -166 -167 0
-21 -57 -60 -91 -92 -106 -107 -120 -121 -133 -134 -145 -146 -156 -157 -166 -167 0
-20 -58 -59 -91 -93 -106 -107 -120 -121 -133 -134 -145 -146 -156 -157 -166 -167 0
-21 -58 -60 -91 -93 -106 -107 -120 -121 -133 -134 -145 -146 -156 -157 -166 -167 0
-21 -59 -60 -91 -94 -106 -107 -120 -121 -133 -134 -145 -146 -156 -157 -166 -167 0
-20 -58 -59 -92 -93 -106 -108 -120 -121 -133 -134 -145 -146 -156 -157 -166 -167 0
-21 -58 -60 -92 -93 -106 -108 -120 -121 -133 -134 -145 -146 -156 -157 -166 -167 0
-21 -59 -60 -92 -94 -106 -108 -120 -121 -133 -134 -145 -146 -156 -157 -166 -167 0
-21 -59 -60 -93 -94 -106 -109 -120 -121 -133 -134 -145 -146 -156 -157 -166 -167 0
-20 -58 -59 -92 -93 -107 -108 -120 -122 -133 -134 -145 -146 -156 -157 -166 -167 0
-21 -58 -60 -92 -93 -107 -108 -120 -122 -133 -134 -145 -146 -156 -157 -166 -167 0
-21 -59 -60 -92 -94 -107 -108 -120 -122 -133 -134 -145 -146 -156 -157 -166 -167 0
-21 -59 -60 -93 -94 -107 -109 -120 -122 -133 -134 -145 -146 -156 -157 -166 -167 0
-21 -59 -60 -93 -94 -108 -109 -120 -123 -133 -134 -145 -146 -156 -157 -166 -167 0
-20 -58 -59 -92 -93 -107 -108 -121 -122 -133 -135 -145 -146 -156 -157 -166 -167 0
-21 -58 -60 -92 -93 -107 -108 -121 -122 -133 -135 -145 -146 -156 -157 -166 -167 0
-21 -59 -60 -92 -94 -107 -108 -121 -122 -133 -135 -145 -146 -156 -157 -166 -167 0
-21 -59 -60 -93 -94 -107 -109 -121 -122 -133 -135 -145 -146 -156 -157 -166 -167 0
-21 -59 -60 -93 -94 -108 -109 -121 -123 -133 -135 -145 -146 -156 -157 -166 -167 0
-21 -59 -60 -93 -94 -108 -109 -122 -123 -133 -136 -145 -146 -156 -157 -166 -167 0
-20 -58 -59 -92 -93 -107 -108 -121 -122 -134 -135 -145 -147 -156 -157 -166 -167 0
-21 -58 -60 -92 -93 -107 -108 -121 -122 -134 -135 -145 -147 -156 -157 -166 -167 0
-21 -59 -60 -92 -94 -107 -108 -121 -122 -134 -135 -145 -147 -156 -157 -166 -167 0
-21 -59 -60 -93 -94 -107 -109 -121 -122 -134 -135 -145 -147 -156 -157 -166 -167 0
-21 -59 -60 -93 -94 -108 -109 -121 -123 -134 -135 -145 -147 -156 -157 -166 -167 0
-21 -59 -60 -93 -94 -108 -109 -122 -123 -134 -136 -145 -147 -156 -157 -166 -167 0
-21 -59 -60 -93 -94 -108 -109 -122 -123 -135 -136 -145 -148 -156 -157 -166 -167 0
-20 -58 -59 -92 -93 -107 -108 -121 -122 -134 -135 -146 -147 -156 -158 -166 -167 0
-21 -58 -60 -92 -93 -107 -108 -121 -122 -134 -135 -146 -147 -156 -158 -166 -167 0
-21 -59 -60 -92 -94 -107 -108 -121 -122 -134 -135 -146 -147 -156 -158 -166 -167 0
-21 -59 -60 -93 -94 -107 -109 -121 -122 -134 -135 -146 -147 -156 -158 -166 -167 0
-21 -59 -60 -93 -94 -108 -109 -121 -123 -134 -135 -146 -147 -156 -158 -166 -167 0
-21 -59 -60 -93 -94 -108 -109 -122 -123 -134 -136 -146 -147 -156 -158 -166 -167 0
-21 -59 -60 -93 -94 -108 -109 -122 -123 -135 -136 -146 -148 -156 -158 -166 -167 0
-21 -59 -60 -93 -94 -108 -109 -122 -123 -135 -136 -147 -148 -156 -159 -166 -167 0
-20 -58 -59 -92 -93 -107 -108 -121 -122 -134 -135 -146 -147 -157 -158 -166 -168 0
-21 -58 -60 -92 -93 -107 -108 -121 -122 -134 -135 -146 -147 -157 -158 -166 -168 0
-21 -59 -60 -92 -94 -107 -108 -121 -122 -134 -135 -146 -147 -157 -158 -166 -168 0
-21 -59 -60 -93 -94 -107 -109 -121 -122 -134 -135 -146 -147 -157 -158 -166 -168 0
-21 -59 -60 -93 -94 -108 -109 -121 -123 -134 -135 -146 -147 -157 -158 -166 -168 0
-21 -59 -60 -93 -94 -108 -109 -122 -123 -134 -136 -146 -147 -157 -158 -166 -168 0
-21 -59 -60 -93 -94 -108 -109 -122 -123 -135 -136 -146 -148 -157 -158 -166 -168 0
-21 -59 -60 -93 -94 -108 -109 -122 -123 -135 -136 -147 -148 -157 -159 -166 -168 0
-21 -59 -60 -93 -94 -108 -109 -122 -123 -135 -136 -147 -148 -158 -159 -166 -169 0
-20 -58 -59 -92 -93 -107 -108 -121 -122 -134 -135 -146 -147 -157 -158 -167 -168 0
-21 -58 -60 -92 -93 -107 -108 -121 -122 -134 -135 -146 -147 -157 -158 -167 -168 0
-21 -59 -60 -92 -94 -107 -108 -121 -122 -134 -135 -146 -147 -157 -158 -167 -168 0
-21 -59 -60 -93 -94 -107 -109 -121 -122 -134 -135 -146 -147 -157 -158 -167 -168 0
-21 -59 -60 -93 -94 -108 -109 -121 -123 -134 -135 -146 -147 -157 -158 -167 -168 0
-21 -59 -60 -93 -94 -108 -109 -122 -123 -134 -136 -146 -147 -157 -158 -167 -168 0
-21 -59 -60 -93 -94 -108 -109 -122 -123 -135 -136 -146 -148 -157 -158 -167 -168 0
-21 -59 -60 -93 -94 -108 -109 -122 -123 -135 -136 -147 -148 -157 -159 -167 -168 0
-21 -59 -60 -93 -94 -108 -109 -122 -123 -135 -136 -147 -148 -158 -159 -167 -169 0
-21 -59 -60 -93 -94 -108 -109 -122 -123 -135 -136 -147 -148 -158 -159 -168 -169 0
-20 -58 -59 -92 -93 -107 -108 -121 -122 -134 -135 -146 -147 -157 -158 -177 -178 0
-21 -58 -60 -92 -93 -107 -108 -121 -122 -134 -135 -146 -147 -157 -158 -177 -178 0
-21 -59 -60 -92 -94 -107 -108 -121 -122 -134 -135 -146 -147 -157 -158 -177 -178 0
-21 -59 -60 -93 -94 -107 -109 -121 -122 -134 -135 -146 -147 -157 -158 -177 -178 0
-21 -59 -60 -93 -94 -108 -109 -121 -123 -134 -135 -146 -147 -157 -158 -177 -178 0
-21 -59 -60 -93 -94 -108 -109 -122 -123 -134 -136 -146 -147 -157 -158 -177 -178 0
-21 -59 -60 -93 -94 -108 -109 -122 -123 -135 -136 -146 -148 -157 -158 -177 -178 0
-21 -59 -60 -93 -94 -108 -109 -122 -123 -135 -136 -147 -148 -157 -159 -177 -178 0
-21 -59 -60 -93 -94 -108 -109 -122 -123 -135 -136 -147 -148 -158 -159 -177 -179 0
-21 -59 -60 -93 -94 -108 -109 -122 -123 -135 -136 -147 -148 -158 -159 -178 -179 0
-21 -59 -60 -93 -94 -108 -109 -122 -123 -135 -136 -147 -148 -158 -159 -187 -188 0
-20 -58 -59 -92 -93 -107 -108 -121 -122 -134 -135 -146 -147 -168 -169 -177 -178 0
-21 -58 -60 -92 -93 -107 -108 -121 -122 -134 -135 -146 -147 -168 -169 -177 -178 0
-21 -59 -60 -92 -94 -107 -108 -121 -122 -134 -135 -146 -147 -168 -169 -177 -178 0
-21 -59 -60 -93 -94 -107 -109 -121 -122 -134 -135 -146 -147 -168 -169 -177 -178 0
-21 -59 -60 -93 -94 -108 -109 -121 -123 -134 -135 -146 -147 -168 -169 -177 -178 0
-21 -59 -60 -93 -94 -108 -109 -122 -123 -134 -136 -146 -147 -168 -169 -177 -178 0
-21 -59 -60 -93 -94 -108 -109 -122 -123 -135 -136 -146 -148 -168 -169 -177 -178 0
-21 -59 -60 -93 -94 -108 -109 -122 -123 -135 -136 -147 -148 -168 -170 -177 -178 0
-21 -59 -60 -93 -94 -108 -109 -122 -123 -135 -136 -147 -148 -169 -170 -177 -179 0
-21 -59 -60 -93 -94 -108 -109 -122 -123 -135 -136 -147 -148 -169 -170 -178 -179 0
-21 -59 -60 -93 -94 -108 -109 -122 -123 -135 -136 -147 -148 -169 -170 -187 -188 0
-21 -59 -60 -93 -94 -108 -109 -122 -123 -135 -136 -147 -148 -179 -180 -187 -188 0
-20 -58 -59 -92 -93 -107 -108 -121 -122 -134 -135 -158 -159 -168 -169 -177 -178 0
-21 -58 -60 -92 -93 -107 -108 -121 -122 -134 -135 -158 -159 -168 -169 -177 -178 0
-21 -59 -60 -92 -94 -107 -108 -121 -122 -134 -135 -158 -159 -168 -169 -177 -178 0
-21 -59 -60 -93 -94 -107 -109 -121 -122 -134 -135 -158 -159 -168 -169 -177 -178 0
-21 -59 -60 -93 -94 -108 -109 -121 -123 -134 -135 -158 -159 -168 -169 -177 -178 0
-21 -59 -60 -93 -94 -108 -109 -122 -123 -134 -136 -158 -159 -168 -169 -177 -178 0
-21 -59 -60 -93 -94 -108 -109 -122 -123 -135 -136 -158 -160 -168 -169 -177 -178 0
-21 -59 -60 -93 -94 -108 -109 -122 -123 -135 -136 -159 -160 -168 -170 -177 -178 0
-21 -59 -60 -93 -94 -108 -109 -122 -123 -135 -136 -159 -160 -169 -170 -177 -179 0
-21 -59 -60 -93 -94 -108 -109 -122 -123 -135 -136 -159 -160 -169 -170 -178 -179 0
-21 -59 -60 -93 -94 -108 -109 -122 -123 -135 -136 -159 -160 -169 -170 -187 -188 0
-21 -59 -60 -93 -94 -108 -109 -122 -123 -135 -136 -159 -160 -179 -180 -187 -188 0
-21 -59 -60 -93 -94 -108 -109 -122 -123 -135 -136 -170 -171 -179 -180 -187 -188 0
-20 -58 -59 -92 -93 -107 -108 -121 -122 -147 -148 -158 -159 -168 -169 -177 -178 0
-21 -58 -60 -92 -93 -107 -108 -121 -122 -147 -148 -158 -159 -168 -169 -177 -178 0
-21 -59 -60 -92 -94 -107 -108 -121 -122 -147 -148 -158 -159 -168 -169 -177 -178 0
-21 -59 -60 -93 -94 -107 -109 -121 -122 -147 -148 -158 -159 -168 -169 -177 -178 0
-21 -59 -60 -93 -94 -108 -109 -121 -123 -147 -148 -158 -159 -168 -169 -177 -178 0
-21 -59 -60 -93 -94 -108 -109 -122 -123 -147 -149 -158 -159 -168 -169 -177 -178 0
-21 -59 -60 -93 -94 -108 -109 -122 -123 -148 -149 -158 -160 -168 -169 -177 -178 0
-21 -59 -60 -93 -94 -108 -109 -122 -123 -148 -149 -159 -160 -168 -170 -177 -178 0
-21 -59 -60 -93 -94 -108 -109 -122 -123 -148 -149 -159 -160 -169 -170 -177 -179 0
-21 -59 -60 -93 -94 -108 -109 -122 -123 -148 -149 -159 -160 -169 -170 -178 -179 0
-21 -59 -60 -93 -94 -108 -109 -122 -123 -148 -149 -159 -160 -169 -170 -187 -188 0
-21 -59 -60 -93 -94 -108 -109 -122 -123 -148 -149 -159 -160 -179 -180 -187 -188 0
-21 -59 -60 -93 -94 -108 -109 -122 -123 -148 -149 -170 -171 -179 -180 -187 -188 0
-21 -59 -60 -93 -94 -108 -109 -122 -123 -160 -161 -170 -171 -179 -180 -187 -188 0
-20 -58 -59 -92 -93 -107 -108 -135 -136 -147 -148 -158 -159 -168 -169 -177 -178 0
-21 -58 -60 -92 -93 -107 -108 -135 -136 -147 -148 -158 -159 -168 -169 -177 -178 0
-21 -59 -60 -92 -94 -107 -108 -135 -136 -147 -148 -158 -159 -168 -169 -177 -178 0
-21 -59 -60 -93 -94 -107 -109 -135 -136 -147 -148 -158 -159 -168 -169 -177 -178 0
-21 -59 -60 -93 -94 -108 -109 -135 -137 -147 -148 -158 -159 -168 -169 -177 -178 0
-21 -59 -60 -93 -94 -108 -109 -136 -137 -147 -149 -158 -159 -168 -169 -177 -178 0
-21 -59 -60 -93 -94 -108 -109 -136 -137 -148 -149 -158 -160 -168 -169 -177 -178 0
-21 -59 -60 -93 -94 -108 -109 -136 -137 -148 -149 -159 -160 -168 -170 -177 -178 0
-21 -59 -60 -93 -94 -108 -109 -136 -137 -148 -149 -159 -160 -169 -170 -177 -179 0
-21 -59 -60 -93 -94 -108 -109 -136 -137 -148 -149 -159 -160 -169 -170 -178 -179 0
-21 -59 -60 -93 -94 -108 -109 -136 -137 -148 -149 -159 -160 -169 -170 -187 -188 0
-21 -59 -60 -93 -94 -108 -109 -136 -137 -148 -149 -159 -160 -179 -180 -187 -188 0
-21 -59 -60 -93 -94 -108 -109 -136 -137 -148 -149 -170 -171 -179 -180 -187 -188 0
-21 -59 -60 -93 -94 -108 -109 -136 -137 -160 -161 -170 -171 -179 -180 -187 -188 0
-21 -59 -60 -93 -94 -108 -109 -149 -150 -160 -161 -170 -171 -179 -180 -187 -188 0
-20 -58 -59 -92 -93 -122 -123 -135 -136 -147 -148 -158 -159 -168 -169 -177 -178 0
-21 -58 -60 -92 -93 -122 -123 -135 -136 -147 -148 -158 -159 -168 -169 -177 -178 0
-21 -59 -60 -92 -94 -122 -123 -135 -136 -147 -148 -158 -159 -168 -169 -177 -178 0
-21 -59 -60 -93 -94 -122 -124 -135 -136 -147 -148 -158 -159 -168 -169 -177 -178 0
-21 -59 -60 -93 -94 -123 -124 -135 -137 -147 -148 -158 -159 -168 -169 -177 -178 0
-21 -59 -60 -93 -94 -123 -124 -136 -137 -147 -149 -158 -159 -168 -169 -177 -178 0
-21 -59 -60 -93 -94 -123 -124 -136 -137 -148 -149 -158 -160 -168 -169 -177 -178 0
-21 -59 -60 -93 -94 -123 -124 -136 -137 -148 -149 -159 -160 -168 -170 -177 -178 0
-21 -59 -60 -93 -94 -123 -124 -136 -137 -148 -149 -159 -160 -169 -170 -177 -179 0
-21 -59 -60 -93 -94 -123 -124 -136 -137 -148 -149 -159 -160 -169 -170 -178 -179 0
-21 -59 -60 -93 -94 -123 -124 -136 -137 -148 -149 -159 -160 -169 -170 -187 -188 0
-21 -59 -60 -93 -94 -123 -124 -136 -137 -148 -149 -159 -160 -179 -180 -187 -188 0
-21 -59 -60 -93 -94 -123 -124 -136 -137 -148 -149 -170 -171 -179 -180 -187 -188 0
-21 -59 -60 -93 -94 -123 -124 -136 -137 -160 -161 -170 -171 -179 -180 -187 -188 0
-21 -59 -60 -93 -94 -123 -124 -149 -150 -160 -161 -170 -171 -179 -180 -187 -188 0
-21 -59 -60 -93 -94 -137 -138 -149 -150 -160 -161 -170 -171 -179 -180 -187 -188 0
-20 -58 -59 -108 -109 -122 -123 -135 -136 -147 -148 -158 -159 -168 -169 -177 -178 0
-21 -58 -60 -108 -109 -122 -123 -135 -136 -147 -148 -158 -159 -168 -169 -177 -178 0
-21 -59 -60 -108 -110 -122 -123 -135 -136 -147 -148 -158 -159 -168 -169 -177 -178 0
-21 -59 -60 -109 -110 -122 -124 -135 -136 -147 -148 -158 -159 -168 -169 -177 -178 0
-21 -59 -60 -109 -110 -123 -124 -135 -137 -147 -148 -158 -159 -168 -169 -177 -178 0
-21 -59 -60 -109 -110 -123 -124 -136 -137 -147 -149 -158 -159 -168 -169 -177 -178 0
-21 -59 -60 -109 -110 -123 -124 -136 -137 -148 -149 -158 -160 -168 -169 -177 -178 0
-21 -59 -60 -109 -110 -123 -124 -136 -137 -148 -149 -159 -160 -168 -170 -177 -178 0
-21 -59 -60 -109 -110 -123 -124 -136 -137 -148 -149 -159 -160 -169 -170 -177 -179 0
-21 -59 -60 -109 -110 -123 -124 -136 -137 -148 -149 -159 -160 -169 -170 -178 -179 0
-21 -59 -60 -109 -110 -123 -124 -136 -137 -148 -149 -159 -160 -169 -170 -187 -188 0
-21 -59 -60 -109 -110 -123 -124 -136 -137 -148 -149 -159 -160 -179 -180 -187 -188 0
-21 -59 -60 -109 -110 -123 -124 -136 -137 -148 -149 -170 -171 -179 -180 -187 -188 0
-21 -59 -60 -109 -110 -123 -124 -136 -137 -160 -161 -170 -171 -179 -180 -187 -188 0
-21 -59 -60 -109 -110 -123 -124 -149 -150 -160 -161 -170 -171 -179 -180 -187 -188 0
-21 -59 -60 -109 -110 -137 -138 -149 -150 -160 -161 -170 -171 -179 -180 -187 -188 0
-21 -59 -60 -124 -125 -137 -138 -149 -150 -160 -161 -170 -171 -179 -180 -187 -188 0
-19 -75 -76 -91 -92 -106 -107 -120 -121 -133 -134 -145 -146 -156 -157 -166 -167 0
-20 -75 -77 -91 -92 -106 -107 -120 -121 -133 -134 -145 -146 -156 -157 -166 -167 0
-21 -75 -78 -91 -92 -106 -107 -120 -121 -133 -134 -145 -146 -156 -157 -166 -167 0
-20 -76 -77 -91 -93 -106 -107 -120 -121 -133 -134 -145 -146 -156 -157 -166 -167 0
-21 -76 -78 -91 -93 -106 -107 -120 -121 -133 -134 -145 -146 -156 -157 -166 -167 0
-21 -77 -78 -91 -94 -106 -107 -120 -121 -133 -134 -145 -146 -156 -157 -166 -167 0
-20 -76 -77 -92 -93 -106 -108 -120 -121 -133 -134 -145 -146 -156 -157 -166 -167 0
-21 -76 -78 -92 -93 -106 -108 -120 -121 -133 -134 -145 -146 -156 -157 -166 -167 0
-21 -77 -78 -92 -94 -106 -108 -120 -121 -133 -134 -145 -146 -156 -157 -166 -167 0
-21 -77 -78 -93 -94 -106 -109 -120 -121 -133 -134 -145 -146 -156 -157 -166 -167 0
-20 -76 -77 -92 -93 -107 -108 -120 -122 -133 -134 -145 -146 -156 -157 -166 -167 0
-21 -76 -78 -92 -93 -107 -108 -120 -122 -133 -134 -145 -146 -156 -157 -166 -167 0
-21 -77 -78 -92 -94 -107 -108 -120 -122 -133 -134 -145 -146 -156 -157 -166 -167 0
-21 -77 -78 -93 -94 -107 -109 -120 -122 -133 -134 -145 -146 -156 -157 -166 -167 0
-21 -77 -78 -93 -94 -108 -109 -120 -123 -133 -134 -145 -146 -156 -157 -166 -167 0
-20 -76 -77 -92 -93 -107 -108 -121 -122 -133 -135 -145 -146 -156 -157 -166 -167 0
-21 -76 -78 -92 -93 -107 -108 -121 -122 -133 -135 -145 -146 -156 -157 -166 -167 0
-21 -77 -78 -92 -94 -107 -108 -121 -122 -133 -135 -145 -146 -156 -157 -166 -167 0
-21 -77 -78 -93 -94 -107 -109 -121 -122 -133 -135 -145 -146 -156 -157 -166 -167 0
-21 -77 -78 -93 -94 -108 -109 -121 -123 -133 -135 -145 -146 -156 -157 -166 -167 0
-21 -77 -78 -93 -94 -108 -109 -122 -123 -133 -136 -145 -146 -156 -157 -166 -167 0
-20 -76 -77 -92 -93 -107 -108 -121 -122 -134 -135 -145 -147 -156 -157 -166 -167 0
-21 -76 -78 -92 -93 -107 -108 -121 -122 -134 -135 -145 -147 -156 -157 -166 -167 0
-21 -77 -78 -92 -94 -107 -108 -121 -122 -134 -135 -145 -147 -156 -157 -166 -167 0
-21 -77 -78 -93 -94 -107 -109 -121 -122 -134 -135 -145 -147 -156 -157 -166 -167 0
-21 -77 -78 -93 -94 -108 -109 -121 -123 -134 -135 -145 -147 -156 -157 -166 -167 0
-21 -77 -78 -93 -94 -108 -109 -122 -123 -134 -136 -145 -147 -156 -157 -166 -167 0
-21 -77 -78 -93 -94 -108 -109 -122 -123 -135 -136 -145 -148 -156 -157 -166 -167 0
-20 -76 -77 -92 -93 -107 -108 -121 -122 -134 -135 -146 -147 -156 -158 -166 -167 0
-21 -76 -78 -92 -93 -107 -108 -121 -122 -134 -135 -146 -147 -156 -158 -166 -167 0
-21 -77 -78 -92 -94 -107 -108 -121 -122 -134 -135 -146 -147 -156 -158 -166 -167 0
-21 -77 -78 -93 -94 -107 -109 -121 -122 -134 -135 -146 -147 -156 -158 -166 -167 0
-21 -77 -78 -93 -94 -108 -109 -121 -123 -134 -135 -146 -147 -156 -158 -166 -167 0
-21 -77 -78 -93 -94 -108 -109 -122 -123 -134 -136 -146 -147 -156 -158 -166 -167 0
-21 -77 -78 -93 -94 -108 -109 -122 -123 -135 -136 -146 -148 -156 -158 -166 -167 0
-21 -77 -78 -93 -94 -108 -109 -122 -123 -135 -136 -147 -148 -156 -159 -166 -167 0
-20 -76 -77 -92 -93 -107 -108 -121 -122 -134 -135 -146 -147 -157 -158 -166 -168 0
-21 -76 -78 -92 -93 -107 -108 -121 -122 -134 -135 -146 -147 -157 -158 -166 -168 0
-21 -77 -78 -92 -94 -107 -108 -121 -122 -134 -135 -146 -147 -157 -158 -166 -168 0
-21 -77 -78 -93 -94 -107 -109 -121 -122 -134 -135 -146 -147 -157 -158 -166 -168 0
-21 -77 -78 -93 -94 -108 -109 -121 -123 -134 -135 -146 -147 -157 -158 -166 -168 0
-21 -77 -78 -93 -94 -108 -109 -122 -123 -134 -136 -146 -147 -157 -158 -166 -168 0
-21 -77 -78 -93 -94 -108 -109 -122 -123 -135 -136 -146 -148 -157 -158 -166 -168 0
-21 -77 -78 -93 -94 -108 -109 -122 -123 -135 -136 -147 -148 -157 -159 -166 -168 0
-21 -77 -78 -93 -94 -108 -109 -122 -123 -135 -136 -147 -148 -158 -159 -166 -169 0
-20 -76 -77 -92 -93 -107 -108 -121 -122 -134 -135 -146 -147 -157 -158 -167 -168 0
-21 -76 -78 -92 -93 -107 -108 -121 -122 -134 -135 -146 -147 -157 -158 -167 -168 0
-21 -77 -78 -92 -94 -107 -108 -121 -122 -134 -135 -146 -147 -157 -158 -167 -168 0
-21 -77 -78 -93 -94 -107 -109 -121 -122 -134 -135 -146 -147 -157 -158 -167 -168 0
-21 -77 -78 -93 -94 -108 -109 -121 -123 -134 -135 -146 -147 -157 -158 -167 -168 0
-21 -77 -78 -93 -94 -108 -109 -122 -123 -134 -136 -146 -147 -157 -158 -167 -168 0
-21 -77 -78 -93 -94 -108 -109 -122 -123 -135 -136 -146 -148 -157 -158 -167 -168 0
-21 -77 -78 -93 -94 -108 -109 -122 -123 -135 -136 -147 -148 -157 -159 -167 -168 0
-21 -77 -78 -93 -94 -108 -109 -122 -123 -135 -136 -147 -148 -158 -159 -167 -169 0
-21 -77 -78 -93 -94 -108 -109 -122 -123 -135 -136 -147 -148 -158 -159 -168 -169 0
-20 -76 -77 -92 -93 -107 -108 -121 -122 -134 -135 -146 -147 -157 -158 -177 -178 0
-21 -76 -78 -92 -93 -107 -108 -121 -122 -134 -135 -146 -147 -157 -158 -177 -178 0
-21 -77 -78 -92 -94 -107 -108 -121 -122 -134 -135 -146 -147 -157 -158 -177 -178 0
-21 -77 -78 -93 -94 -107 -109 -121 -122 -134 -135 -146 -147 -157 -158 -177 -178 0
-21 -77 -78 -93 -94 -108 -109 -121 -123 -134 -135 -146 -147 -157 -158 -177 -178 0
-21 -77 -78 -93 -94 -108 -109 -122 -123 -134 -136 -146 -147 -157 -158 -177 -178 0
-21 -77 -78 -93 -94 -108 -109 -122 -123 -135 -136 -146 -148 -157 -158 -177 -178 0
-21 -77 -78 -93 -94 -108 -109 -122 -123 -135 -136 -147 -148 -157 -159 -177 -178 0
-21 -77 -78 -93 -94 -108 -109 -122 -123 -135 -136 -147 -148 -158 -159 -177 -179 0
-21 -77 -78 -93 -94 -108 -109 -122 -123 -135 -136 -147 -148 -158 -159 -178 -179 0
-21 -77 -78 -93 -94 -108 -109 -122 -123 -135 -136 -147 -148 -158 -159 -187 -188 0
-20 -76 -77 -92 -93 -107 -108 -121 -122 -134 -135 -146 -147 -168 -169 -177 -178 0
-21 -76 -78 -92 -93 -107 -108 -121 -122 -134 -135 -146 -147 -168 -169 -177 -178 0
-21 -77 -78 -92 -94 -107 -108 -121 -122 -134 -135 -146 -147 -168 -169 -177 -178 0
-21 -77 -78 -93 -94 -107 -109 -121 -122 -134 -135 -146 -147 -168 -169 -177 -178 0
-21 -77 -78 -93 -94 -108 -109 -121 -123 -134 -135 -146 -147 -168 -169 -177 -178 0
-21 -77 -78 -93 -94 -108 -109 -122 -123 -134 -136 -146 -147 -168 -169 -177 -178 0
-21 -77 -78 -93 -94 -108 -109 -122 -123 -135 -136 -146 -148 -168 -169 -177 -178 0
-21 -77 -78 -93 -94 -108 -109 -122 -123 -135 -136 -147 -148 -168 -170 -177 -178 0
-21 -77 -78 -93 -94 -108 -109 -122 -123 -135 -136 -147 -148 -169 -170 -177 -179 0
-21 -77 -78 -93 -94 -108 -109 -122 -123 -135 -136 -147 -148 -169 -170 -178 -179 0
-21 -77 -78 -93 -94 -108 -109 -122 -123 -135 -136 -147 -148 -169 -170 -187 -188 0
-21 -77 -78 -93 -94 -108 -109 -122 -123 -135 -136 -147 -148 -179 -180 -187 -188 0
-20 -76 -77 -92 -93 -107 -108 -121 -122 -134 -135 -158 -159 -168 -169 -177 -178 0
-21 -76 -78 -92 -93 -107 -108 -121 -122 -134 -135 -158 -159 -168 -169 -177 -178 0
-21 -77 -78 -92 -94 -107 -108 -121 -122 -134 -135 -158 -159 -168 -169 -177 -178 0
-21 -77 -78 -93 -94 -107 -109 -121 -122 -134 -135 -158 -159 -168 -169 -177 -178 0
-21 -77 -78 -93 -94 -108 -109 -121 -123 -134 -135 -158 -159 -168 -169 -177 -178 0
-21 -77 -78 -93 -94 -108 -109 -122 -123 -134 -136 -158 -159 -168 -169 -177 -178 0
-21 -77 -78 -93 -94 -108 -109 -122 -123 -135 -136 -158 -160 -168 -169 -177 -178 0
-21 -77 -78 -93 -94 -108 -109 -122 -123 -135 -136 -159 -160 -168 -170 -177 -178 0
-21 -77 -78 -93 -94 -108 -109 -122 -123 -135 -136 -159 -160 -169 -170 -177 -179 0
-21 -77 -78 -93 -94 -108 -109 -122 -123 -135 -136 -159 -160 -169 -170 -178 -179 0
-21 -77 -78 -93 -94 -108 -109 -122 -123 -135 -136 -159 -160 -169 -170 -187 -188 0
-21 -77 -78 -93 -94 -108 -109 -122 -123 -135 -136 -159 -160 -179 -180 -187 -188 0
-21 -77 -78 -93 -94 -108 -109 -122 -123 -135 -136 -170 -171 -179 -180 -187 -188 0
-20 -76 -77 -92 -93 -107 -108 -121 -122 -147 -148 -158 -159 -168 -169 -177 -178 0
-21 -76 -78 -92 -93 -107 -108 -121 -122 -147 -148 -158 -159 -168 -169 -177 -178 0
-21 -77 -78 -92 -94 -107 -108 -121 -122 -147 -148 -158 -159 -168 -169 -177 -178 0
-21 -77 -78 -93 -94 -107 -109 -121 -122 -147 -148 -158 -159 -168 -169 -177 -178 0
-21 -77 -78 -93 -94 -108 -109 -121 -123 -147 -148 -158 -159 -168 -169 -177 -178 0
-21 -77 -78 -93 -94 -108 -109 -122 -123 -147 -149 -158 -159 -168 -169 -177 -178 0
-21 -77 -78 -93 -94 -108 -109 -122 -123 -148 -149 -158 -160 -168 -169 -177 -178 0
-21 -77 -78 -93 -94 -108 -109 -122 -123 -148 -149 -159 -160 -168 -170 -177 -178 0
-21 -77 -78 -93 -94 -108 -109 -122 -123 -148 -149 -159 -160 -169 -170 -177 -179 0
-21 -77 -78 -93 -94 -108 -109 -122 -123 -148 -149 -159 -160 -169 -170 -178 -179 0
-21 -77 -78 -93 -94 -108 -109 -122 -123 -148 -149 -159 -160 -169 -170 -187 -188 0
-21 -77 -78 -93 -94 -108 -109 -122 -123 -148 -149 -159 -160 -179 -180 -187 -188 0
-21 -77 -78 -93 -94 -108 -109 -122 -123 -148 -149 -170 -171 -179 -180 -187 -188 0
-21 -77 -78 -93 -94 -108 -109 -122 -123 -160 -161 -170 -171 -179 -180 -187 -188 0
-20 -76 -77 -92 -93 -107 -108 -135 -136 -147 -148 -158 -159 -168 -169 -177 -178 0
-21 -76 -78 -92 -93 -107 -108 -135 -136 -147 -148 -158 -159 -168 -169 -177 -178 0
-21 -77 -78 -92 -94 -107 -108 -135 -136 -147 -148 -158 -159 -168 -169 -177 -178 0
-21 -77 -78 -93 -94 -107 -109 -135 -136 -147 -148 -158 -159 -168 -169 -177 -178 0
-21 -77 -78 -93 -94 -108 -109 -135 -137 -147 -148 -158 -159 -168 -169 -177 -178 0
-21 -77 -78 -93 -94 -108 -109 -136 -137 -147 -149 -158 -159 -168 -169 -177 -178 0
-21 -77 -78 -93 -94 -108 -109 -136 -137 -148 -149 -158 -160 -168 -169 -177 -178 0
-21 -77 -78 -93 -94 -108 -109 -136 -137 -148 -149 -159 -160 -168 -170 -177 -178 0
-21 -77 -78 -93 -94 -108 -109 -136 -137 -148 -149 -159 -160 -169 -170 -177 -179 0
-21 -77 -78 -93 -94 -108 -109 -136 -137 -148 -149 -159 -160 -169 -170 -178 -179 0
-21 -77 -78 -93 -94 -108 -109 -136 -137 -148 -149 -159 -160 -169 -170 -187 -188 0
-21 -77 -78 -93 -94 -108 -109 -136 -137 -148 -149 -159 -160 -179 -180 -187 -188 0
-21 -77 -78 -93 -94 -108 -109 -136 -137 -148 -149 -170 -171 -179 -180 -187 -188 0
-21 -77 -78 -93 -94 -108 -109 -136 -137 -160 -161 -170 -171 -179 -180 -187 -188 0
-21 -77 -78 -93 -94 -108 -109 -149 -150 -160 -161 -170 -171 -179 -180 -187 -188 0
-20 -76 -77 -92 -93 -122 -123 -135 -136 -147 -148 -158 -159 -168 -169 -177 -178 0
-21 -76 -78 -92 -93 -122 -123 -135 -136 -147 -148 -158 -159 -168 -169 -177 -178 0
-21 -77 -78 -92 -94 -122 -123 -135 -136 -147 -148 -158 -159 -168 -169 -177 -178 0
-21 -77 -78 -93 -94 -122 -124 -135 -136 -147 -148 -158 -159 -168 -169 -177 -178 0
-21 -77 -78 -93 -94 -123 -124 -135 -137 -147 -148 -158 -159 -168 -169 -177 -178 0
-21 -77 -78 -93 -94 -123 -124 -136 -137 -147 -149 -158 -159 -168 -169 -177 -178 0
-21 -77 -78 -93 -94 -123 -124 -136 -137 -148 -149 -158 -160 -168 -169 -177 -178 0
-21 -77 -78 -93 -94 -123 -124 -136 -137 -148 -149 -159 -160 -168 -170 -177 -178 0
-21 -77 -78 -93 -94 -123 -124 -136 -137 -148 -149 -159 -160 -169 -170 -177 -179 0
-21 -77 -78 -93 -94 -123 -124 -136 -137 -148 -149 -159 -160 -169 -170 -178 -179 0
-21 -77 -78 -93 -94 -123 -124 -136 -137 -148 -149 -159 -160 -169 -170 -187 -188 0
-21 -77 -78 -93 -94 -123 -124 -136 -137 -148 -149 -159 -160 -179 -180 -187 -188 0
-21 -77 -78 -93 -94 -123 -124 -136 -137 -148 -149 -170 -171 -179 -180 -187 -188 0
-21 -77 -78 -93 -94 -123 -124 -136 -137 -160 -161 -170 -171 -179 -180 -187 -188 0
-21 -77 -78 -93 -94 -123 -124 -149 -150 -160 -161 -170 -171 -179 -180 -187 -188 0
-21 -77 -78 -93 -94 -137 -138 -149 -150 -160 -161 -170 -171 -179 -180 -187 -188 0
-20 -76 -77 -108 -109 -122 -123 -135 -136 -147 -148 -158 -159 -168 -169 -177 -178 0
-21 -76 -78 -108 -109 -122 -123 -135 -136 -147 -148 -158 -159 -168 -169 -177 -178 0
-21 -77 -78 -108 -110 -122 -123 -135 -136 -147 -148 -158 -159 -168 -169 -177 -178 0
-21 -77 -78 -109 -110 -122 -124 -135 -136 -147 -148 -158 -159 -168 -169 -177 -178 0
-21 -77 -78 -109 -110 -123 -124 -135 -137 -147 -148 -158 -159 -168 -169 -177 -178 0
-21 -77 -78 -109 -110 -123 -124 -136 -137 -147 -149 -158 -159 -168 -169 -177 -178 0
-21 -77 -78 -109 -110 -123 -124 -136 -137 -148 -149 -158 -160 -168 -169 -177 -178 0
-21 -77 -78 -109 -110 -123 -124 -136 -137 -148 -149 -159 -160 -168 -170 -177 -178 0
-21 -77 -78 -109 -110 -123 -124 -136 -137 -148 -149 -159 -160 -169 -170 -177 -179 0
-21 -77 -78 -109 -110 -123 -124 -136 -137 -148 -149 -159 -160 -169 -170 -178 -179 0
-21 -77 -78 -109 -110 -123 -124 -136 -137 -148 -149 -159 -160 -169 -170 -187 -188 0
-21 -77 -78 -109 -110 -123 -124 -136 -137 -148 -149 -159 -160 -179 -180 -187 -188 0
-21 -77 -78 -109 -110 -123 -124 -136 -137 -148 -149 -170 -171 -179 -180 -187 -188 0
-21 -77 -78 -109 -110 -123 -124 -136 -137 -160 -161 -170 -171 -179 -180 -187 -188 0
-21 -77 -78 -109 -110 -123 -124 -149 -150 -160 -161 -170 -171 -179 -180 -187 -188 0
-21 -77 -78 -109 -110 -137 -138 -149 -150 -160 -161 -170 -171 -179 -180 -187 -188 0
-21 -77 -78 -124 -125 -137 -138 -149 -150 -160 -161 -170 -171 -179 -180 -187 -188 0
-20 -93 -94 -108 -109 -122 -123 -135 -136 -147 -148 -158 -159 -168 -169 -177 -178 0
-21 -93 -95 -108 -109 -122 -123 -135 -136 -147 -148 -158 -159 -168 -169 -177 -178 0
-21 -94 -95 -108 -110 -122 -123 -135 -136 -147 -148 -158 -159 -168 -169 -177 -178 0
-21 -94 -95 -109 -110 -122 -124 -135 -136 -147 -148 -158 -159 -168 -169 -177 -178 0
-21 -94 -95 -109 -110 -123 -124 -135 -137 -147 -148 -158 -159 -168 -169 -177 -178 0
-21 -94 -95 -109 -110 -123 -124 -136 -137 -147 -149 -158 -159 -168 -169 -177 -178 0
-21 -94 -95 -109 -110 -123 -124 -136 -137 -148 -149 -158 -160 -168 -169 -177 -178 0
-21 -94 -95 -109 -110 -123 -124 -136 -137 -148 -149 -159 -160 -168 -170 -177 -178 0
-21 -94 -95 -109 -110 -123 -124 -136 -137 -148 -149 -159 -160 -169 -170 -177 -179 0
-21 -94 -95 -109 -110 -123 -124 -136 -137 -148 -149 -159 -160 -169 -170 -178 -179 0
-21 -94 -95 -109 -110 -123 -124 -136 -137 -148 -149 -159 -160 -169 -170 -187 -188 0
-21 -94 -95 -109 -110 -123 -124 -136 -137 -148 -149 -159 -160 -179 -180 -187 -188 0
-21 -94 -95 -109 -110 -123 -124 -136 -137 -148 -149 -170 -171 -179 -180 -187 -188 0
-21 -94 -95 -109 -110 -123 -124 -136 -137 -160 -161 -170 -171 -179 -180 -187 -188 0
-21 -94 -95 -109 -110 -123 -124 -149 -150 -160 -161 -170 -171 -179 -180 -187 -188 0
-21 -94 -95 -109 -110 -137 -138 -149 -150 -160 -161 -170 -171 -179 -180 -187 -188 0
-21 -94 -95 -124 -125 -137 -138 -149 -150 -160 -161 -170 -171 -179 -180 -187 -188 0
-21 -110 -111 -124 -125 -137 -138 -149 -150 -160 -161 -170 -171 -179 -180 -187 -188 0
-38 -56 -57 -73 -74 -89 -90 -104 -105 -118 -119 -131 -132 -143 -144 -154 -155 0
-39 -56 -58 -73 -74 -89 -90 -104 -105 -118 -119 -131 -132 -143 -144 -154 -155 0
-40 -56 -59 -73 -74 -89 -90 -104 -105 -118 -119 -131 -132 -143 -144 -154 -155 0
-41 -56 -60 -73 -74 -89 -90 -104 -105 -118 -119 -131 -132 -143 -144 -154 -155 0
-39 -57 -58 -73 -75 -89 -90 -104 -105 -118 -119 -131 -132 -143 -144 -154 -155 0
-40 -57 -59 -73 -75 -89 -90 -104 -105 -118 -119 -131 -132 -143 -144 -154 -155 0
-41 -57 -60 -73 -75 -89 -90 -104 -105 -118 -119 -131 -132 -143 -144 -154 -155 0
-40 -58 -59 -73 -76 -89 -90 -104 -105 -118 -119 -131 -132 -143 -144 -154 -155 0
-41 -58 -60 -73 -76 -89 -90 -104 -105 -118 -119 -131 -132 -143 -144 -154 -155 0
-41 -59 -60 -73 -77 -89 -90 -104 -105 -118 -119 -131 -132 -143 -144 -154 -155 0
-39 -57 -58 -74 -75 -89 -91 -104 -105 -118 -119 -131 -132 -143 -144 -154 -155 0
-40 -57 -59 -74 -75 -89 -91 -104 -105 -118 -119 -131 -132 -143 -144 -154 -155 0
-41 -57 -60 -74 -75 -89 -91 -104 -105 -118 -119 -131 -132 -143 -144 -154 -155 0
-40 -58 -59 -74 -76 -89 -91 -104 -105 -118 -119 -131 -132 -143 -144 -154 -155 0
-41 -58 -60 -74 -76 -89 -91 -104 -105 -118 -119 -131 -132 -143 -144 -154 -155 0
-41 -59 -60 -74 -77 -89 -91 -104 -105 -118 -119 -131 -132 -143 -144 -154 -155 0
-40 -58 -59 -75 -76 -89 -92 -104 -105 -118 -119 -131 -132 -143 -144 -154 -155 0
-41 -58 -60 -75 -76 -89 -92 -104 -105 -118 -119 -131 -132 -143 -144 -154 -155 0
-41 -59 -60 -75 -77 -89 -92 -104 -105 -118 -119 -131 -132 -143 -144 -154 -155 0
-41 -59 -60 -76 -77 -89 -93 -104 -105 -118 -119 -131 -132 -143 -144 -154 -155 0
-39 -57 -58 -74 -75 -90 -91 -104 -106 -118 -119 -131 -132 -143 -144 -154 -155 0
-40 -57 -59 -74 -75 -90 -91 -104 -106 -118 -119 -131 -132 -143 -144 -154 -155 0
-41 -57 -60 -74 -75 -90 -91 -104 -106 -118 -119 -131 -132 -143 -144 -154 -155 0
-40 -58 -59 -74 -76 -90 -91 -104 -106 -118 -119 -131 -132 -143 -144 -154 -155 0
-41 -58 -60 -74 -76 -90 -91 -104 -106 -118 -119 -131 -132 -143 -144 -154 -155 0
-41 -59 -60 -74 -77 -90 -91 -104 -106 -118 -119 -131 -132 -143 -144 -154 -155 0
-40 -58 -59 -75 -76 -90 -92 -104 -106 -118 -119 -131 -132 -143 -144 -154 -155 0
-41 -58 -60 -75 -76 -90 -92 -104 -106 -118 -119 -131 -132 -143 -144 -154 -155 0
-41 -59 -60 -75 -77 -90 -92 -104 -106 -118 -119 -131 -132 -143 -144 -154 -155 0
-41 -59 -60 -76 -77 -90 -93 -104 -106 -118 -119 -131 -132 -143 -144 -154 -155 0
-40 -58 -59 -75 -76 -91 -92 -104 -107 -118 -119 -131 -132 -143 -144 -154 -155 0
-41 -58 -60 -75 -76 -91 -92 -104 -107 -118 -119 -131 -132 -143 -144 -154 -155 0
-41 -59 -60 -75 -77 -91 -92 -104 -107 -118 -119 -131 -132 -143 -144 -154 -155 0
-41 -59 -60 -76 -77 -91 -93 -104 -107 -118 -119 -131 -132 -143 -144 -154 -155 0
-41 -59 -60 -76 -77 -92 -93 -104 -108 -118 -119 -131 -132 -143 -144 -154 -155 0
-39 -57 -58 -74 -75 -90 -91 -105 -106 -118 -120 -131 -132 -143 -144 -154 -155 0
-40 -57 -59 -74 -75 -90 -91 -105 -106 -118 -120 -131 -132 -143 -144 -154 -155 0
-41 -57 -60 -74 -75 -90 -91 -105 -106 -118 -120 -131 -132 -143 -144 -154 -155 0
-40 -58 -59 -74 -76 -90 -91 -105 -106 -118 -120 -131 -132 -143 -144 -154 -155 0
-41 -58 -60 -74 -76 -90 -91 -105 -106 -118 -120 -131 -132 -143 -144 -154 -155 0
-41 -59 -60 -74 -77 -90 -91 -105 -106 -118 -120 -131 -132 -143 -144 -154 -155 0
-40 -58 -59 -75 -76 -90 -92 -105 -106 -118 -120 -131 -132 -143 -144 -154 -155 0
-41 -58 -60 -75 -76 -90 -92 -105 -106 -118 -120 -131 -132 -143 -144 -154 -155 0
-41 -59 -60 -75 -77 -90 -92 -105 -106 -118 -120 -131 -132 -143 -144 -154 -155 0
-41 -59 -60 -76 -77 -90 -93 -105 -106 -118 -120 -131 -132 -143 -144 -154 -155 0
-40 -58 -59 -75 -76 -91 -92 -105 -107 -118 -120 -131 -132 -143 -144 -154 -155 0
-41 -58 -60 -75 -76 -91 -92 -105 -107 -118 -120 -131 -132 -143 -144 -154 -155 0
-41 -59 -60 -75 -77 -91 -92 -105 -107 -118 -120 -131 -132 -143 -144 -154 -155 0
-41 -59 -60 -76 -77 -91 -93 -105 -107 -118 -120 -131 -132 -143 -144 -154 -155 0
-41 -59 -60 -76 -77 -92 -93 -105 -108 -118 -120 -131 -132 -143 -144 -154 -155 0
-40 -58 -59 -75 -76 -91 -92 -106 -107 -118 -121 -131 -132 -143 -144 -154 -155 0
-41 -58 -60 -75 -76 -91 -92 -106 -107 -118 -121 -131 -132 -143 -144 -154 -155 0
-41 -59 -60 -75 -77 -91 -92 -106 -107 -118 -121 -131 -132 -143 -144 -154 -155 0
-41 -59 -60 -76 -77 -91 -93 -106 -107 -118 -121 -131 -132 -143 -144 -154 -155 0
-41 -59 -60 -76 -77 -92 -93 -106 -108 -118 -121 -131 -132 -143 -144 -154 -155 0
-41 -59 -60 -76 -77 -92 -93 -107 -108 -118 -122 -131 -132 -143 -144 -154 -155 0
-39 -57 -58 -74 -75 -90 -91 -105 -106 -119 -120 -131 -133 -143 -144 -154 -155 0
-40 -57 -59 -74 -75 -90 -91 -105 -106 -119 -120 -131 -133 -143 -144 -154 -155 0
-41 -57 -60 -74 -75 -90 -91 -105 -106 -119 -120 -131 -133 -143 -144 -154 -155 0
-40 -58 -59 -74 -76 -90 -91 -105 -106 -119 -120 -131 -133 -143 -144 -154 -155 0
-41 -58 -60 -74 -76 -90 -91 -105 -106 -119 -120 -131 -133 -143 -144 -154 -155 0
-41 -59 -60 -74 -77 -90 -91 -105 -106 -119 -120 -131 -133 -143 -144 -154 -155 0
-40 -58 -59 -75 -76 -90 -92 -105 -106 -119 -120 -131 -133 -143 -144 -154 -155 0
-41 -58 -60 -75 -76 -90 -92 -105 -106 -119 -120 -131 -133 -143 -144 -154 -155 0
-41 -59 -60 -75 -77 -90 -92 -105 -106 -119 -120 -131 -133 -143 -144 -154 -155 0
-41 -59 -60 -76 -77 -90 -93 -105 -106 -119 -120 -131 -133 -143 -144 -154 -155 0
-40 -58 -59 -75 -76 -91 -92 -105 -107 -119 -120 -131 -133 -143 -144 -154 -155 0
-41 -58 -60 -75 -76 -91 -92 -105 -107 -119 -120 -131 -133 -143 -144 -154 -155 0
-41 -59 -60 -75 -77 -91 -92 -105 -107 -119 -120 -131 -133 -143 -144 -154 -155 0
-41 -59 -60 -76 -77 -91 -93 -105 -107 -119 -120 -131 -133 -143 -144 -154 -155 0
-41 -59 -60 -76 -77 -92 -93 -105 -108 -119 -120 -131 -133 -143 -144 -154 -155 0
-40 -58 -59 -75 -76 -91 -92 -106 -107 -119 -121 -131 -133 -143 -144 -154 -155 0
-41 -58 -60 -75 -76 -91 -92 -106 -107 -119 -121 -131 -133 -143 -144 -154 -155 0
-41 -59 -60 -75 -77 -91 -92 -106 -107 -119 -121 -131 -133 -143 -144 -154 -155 0
-41 -59 -60 -76 -77 -91 -93 -106 -107 -119 -121 -131 -133 -143 -144 -154 -155 0
-41 -59 -60 -76 -77 -92 -93 -106 -108 -119 -121 -131 -133 -143 -144 -154 -155 0
-41 -59 -60 -76 -77 -92 -93 -107 -108 -119 -122 -131 -133 -143 -144 -154 -155 0
-40 -58 -59 -75 -76 -91 -92 -106 -107 -120 -121 -131 -134 -143 -144 -154 -155 0
-41 -58 -60 -75 -76 -91 -92 -106 -107 -120 -121 -131 -134 -143 -144 -154 -155 0
-41 -59 -60 -75 -77 -91 -92 -106 -107 -120 -121 -131 -134 -143 -144 -154 -155 0
-41 -59 -60 -76 -77 -91 -93 -106 -107 -120 -121 -131 -134 -143 -144 -154 -155 0
-41 -59 -60 -76 -77 -92 -93 -106 -108 -120 -121 -131 -134 -143 -144 -154 -155 0
-41 -59 -60 -76 -77 -92 -93 -107 -108 -120 -122 -131 -134 -143 -144 -154 -155 0
-41 -59 -60 -76 -77 -92 -93 -107 -108 -121 -122 -131 -135 -143 -144 -154 -155 0
-39 -57 -58 -74 -75 -90 -91 -105 -106 -119 -120 -132 -133 -143 -145 -154 -155 0
-40 -57 -59 -74 -75 -90 -91 -105 -106 -119 -120 -132 -133 -143 -145 -154 -155 0
-41 -57 -60 -74 -75 -90 -91 -105 -106 -119 -120 -132 -133 -143 -145 -154 -155 0
-40 -58 -59 -74 -76 -90 -91 -105 -106 -119 -120 -132 -133 -143 -145 -154 -155 0
-41 -58 -60 -74 -76 -90 -91 -105 -106 -119 -120 -132 -133 -143 -145 -154 -155 0
-41 -59 -60 -74 -77 -90 -91 -105 -106 -119 -120 -132 -133 -143 -145 -154 -155 0
-40 -58 -59 -75 -76 -90 -92 -105 -106 -119 -120 -132 -133 -143 -145 -154 -155 0
-41 -58 -60 -75 -76 -90 -92 -105 -106 -119 -120 -132 -133 -143 -145 -154 -155 0
-41 -59 -60 -75 -77 -90 -92 -105 -106 -119 -120 -132 -133 -143 -145 -154 -155 0
-41 -59 -60 -76 -77 -90 -93 -105 -106 -119 -120 -132 -133 -143 -145 -154 -155 0
-40 -58 -59 -75 -76 -91 -92 -105 -107 -119 -120 -132 -133 -143 -145 -154 -155 0
-41 -58 -60 -75 -76 -91 -92 -105 -107 -119 -120 -132 -133 -143 -145 -154 -155 0
-41 -59 -60 -75 -77 -91 -92 -105 -107 -119 -120 -132 -133 -143 -145 -154 -155 0
-41 -59 -60 -76 -77 -91 -93 -105 -107 -119 -120 -132 -133 -143 -145 -154 -155 0
-41 -59 -60 -76 -77 -92 -93 -105 -108 -119 -120 -132 -133 -143 -145 -154 -155 0
-40 -58 -59 -75 -76 -91 -92 -106 -107 -119 -121 -132 -133 -143 -145 -154 -155 0
-41 -58 -60 -75 -76 -91 -92 -106 -107 -119 -121 -132 -133 -143 -145 -154 -155 0
-41 -59 -60 -75 -77 -91 -92 -106 -107 -119 -121 -132 -133 -143 -145 -154 -155 0
-41 -59 -60 -76 -77 -91 -93 -106 -107 -119 -121 -132 -133 -143 -145 -154 -155 0
-41 -59 -60 -76 -77 -92 -93 -106 -108 -119 -121 -132 -133 -143 -145 -154 -155 0
-41 -59 -60 -76 -77 -92 -93 -107 -108 -119 -122 -132 -133 -143 -145 -154 -155 0
-40 -58 -59 -75 -76 -91 -92 -106 -107 -120 -121 -132 -134 -143 -145 -154 -155 0
-41 -58 -60 -75 -76 -91 -92 -106 -107 -120 -121 -132 -134 -143 -145 -154 -155 0
-41 -59 -60 -75 -77 -91 -92 -106 -107 -120 -121 -132 -134 -143 -145 -154 -155 0
-41 -59 -60 -76 -77 -91 -93 -106 -107 -120 -121 -132 -134 -143 -145 -154 -155 0
-41 -59 -60 -76 -77 -92 -93 -106 -108 -120 -121 -132 -134 -143 -145 -154 -155 0
-41 -59 -60 -76 -77 -92 -93 -107 -108 -120 -122 -132 -134 -143 -145 -154 -155 0
-41 -59 -60 -76 -77 -92 -93 -107 -108 -121 -122 -132 -135 -143 -145 -154 -155 0
-40 -58 -59 -75 -76 -91 -92 -106 -107 -120 -121 -133 -134 -143 -146 -154 -155 0
-41 -58 -60 -75 -76 -91 -92 -106 -107 -120 -121 -133 -134 -143 -146 -154 -155 0
-41 -59 -60 -75 -77 -91 -92 -106 -107 -120 -121 -133 -134 -143 -146 -154 -155 0
-41 -59 -60 -76 -77 -91 -93 -106 -107 -120 -121 -133 -134 -143 -146 -154 -155 0
-41 -59 -60 -76 -77 -92 -93 -106 -108 -120 -121 -133 -134 -143 -146 -154 -155 0
-41 -59 -60 -76 -77 -92 -93 -107 -108 -120 -122 -133 -134 -143 -146 -154 -155 0
-41 -59 -60 -76 -77 -92 -93 -107 -108 -121 -122 -133 -135 -143 -146 -154 -155 0
-41 -59 -60 -76 -77 -92 -93 -107 -108 -121 -122 -134 -135 -143 -147 -154 -155 0
-39 -57 -58 -74 -75 -90 -91 -105 -106 -119 -120 -132 -133 -144 -145 -154 -156 0
-40 -57 -59 -74 -75 -90 -91 -105 -106 -119 -120 -132 -133 -144 -145 -154 -156 0
-41 -57 -60 -74 -75 -90 -91 -105 -106 -119 -120 -132 -133 -144 -145 -154 -156 0
-40 -58 -59 -74 -76 -90 -91 -105 -106 -119 -120 -132 -133 -144 -145 -154 -156 0
-41 -58 -60 -74 -76 -90 -91 -105 -106 -119 -120 -132 -133 -144 -145 -154 -156 0
-41 -59 -60 -74 -77 -90 -91 -105 -106 -119 -120 -132 -133 -144 -145 -154 -156 0
-40 -58 -59 -75 -76 -90 -92 -105 -106 -119 -120 -132 -133 -144 -145 -154 -156 0
-41 -58 -60 -75 -76 -90 -92 -105 -106 -119 -120 -132 -133 -144 -145 -154 -156 0
-41 -59 -60 -75 -77 -90 -92 -105 -106 -119 -120 -132 -133 -144 -145 -154 -156 0
-41 -59 -60 -76 -77 -90 -93 -105 -106 -119 -120 -132 -133 -144 -145 -154 -156 0
-40 -58 -59 -75 -76 -91 -92 -105 -107 -119 -120 -132 -133 -144 -145 -154 -156 0
-41 -58 -60 -75 -76 -91 -92 -105 -107 -119 -120 -132 -133 -144 -145 -154 -156 0
-41 -59 -60 -75 -77 -91 -92 -105 -107 -119 -120 -132 -133 -144 -145 -154 -156 0
-41 -59 -60 -76 -77 -91 -93 -105 -107 -119 -120 -132 -133 -144 -145 -154 -156 0
-41 -59 -60 -76 -77 -92 -93 -105 -108 -119 -120 -132 -133 -144 -145 -154 -156 0
-40 -58 -59 -75 -76 -91 -92 -106 -107 -119 -121 -132 -133 -144 -145 -154 -156 0
-41 -58 -60 -75 -76 -91 -92 -106 -107 -119 -121 -132 -133 -144 -145 -154 -156 0
-41 -59 -60 -75 -77 -91 -92 -106 -107 -119 -121 -132 -133 -144 -145 -154 -156 0
-41 -59 -60 -76 -77 -91 -93 -106 -107 -119 -121 -132 -133 -144 -145 -154 -156 0
-41 -59 -60 -76 -77 -92 -93 -106 -108 -119 -121 -132 -133 -144 -145 -154 -156 0
-41 -59 -60 -76 -77 -92 -93 -107 -108 -119 -122 -132 -133 -144 -145 -154 -156 0
-40 -58 -59 -75 -76 -91 -92 -106 -107 -120 -121 -132 -134 -144 -145 -154 -156 0
-41 -58 -60 -75 -76 -91 -92 -106 -107 -120 -121 -132 -134 -144 -145 -154 -156 0
-41 -59 -60 -75 -77 -91 -92 -106 -107 -120 -121 -132 -134 -144 -145 -154 -156 0
-41 -59 -60 -76 -77 -91 -93 -106 -107 -120 -121 -132 -134 -144 -145 -154 -156 0
-41 -59 -60 -76 -77 -92 -93 -106 -108 -120 -121 -132 -134 -144 -145 -154 -156 0
-41 -59 -60 -76 -77 -92 -93 -107 -108 -120 -122 -132 -134 -144 -145 -154 -156 0
-41 -59 -60 -76 -77 -92 -93 -107 -108 -121 -122 -132 -135 -144 -145 -154 -156 0
-40 -58 -59 -75 -76 -91 -92 -106 -107 -120 -121 -133 -134 -144 -146 -154 -156 0
-41 -58 -60 -75 -76 -91 -92 -106 -107 -120 -121 -133 -134 -144 -146 -154 -156 0
-41 -59 -60 -75 -77 -91 -92 -106 -107 -120 -121 -133 -134 -144 -146 -154 -156 0
-41 -59 -60 -76 -77 -91 -93 -106 -107 -120 -121 -133 -134 -144 -146 -154 -156 0
-41 -59 -60 -76 -77 -92 -93 -106 -108 -120 -121 -133 -134 -144 -146 -154 -156 0
-41 -59 -60 -76 -77 -92 -93 -107 -108 -120 -122 -133 -134 -144 -146 -154 -156 0
-41 -59 -60 -76 -77 -92 -93 -107 -108 -121 -122 -133 -135 -144 -146 -154 -156 0
-41 -59 -60 -76 -77 -92 -93 -107 -108 -121 -122 -134 -135 -144 -147 -154 -156 0
-40 -58 -59 -75 -76 -91 -92 -106 -107 -120 -121 -133 -134 -145 -146 -154 -157 0
-41 -58 -60 -75 -76 -91 -92 -106 -107 -120 -121 -133 -134 -145 -146 -154 -157 0
-41 -59 -60 -75 -77 -91 -92 -106 -107 -120 -121 -133 -134 -145 -146 -154 -157 0
-41 -59 -60 -76 -77 -91 -93 -106 -107 -120 -121 -133 -134 -145 -146 -154 -157 0
-41 -59 -60 -76 -77 -92 -93 -106 -108 -120 -121 -133 -134 -145 -146 -154 -157 0
-41 -59 -60 -76 -77 -92 -93 -107 -108 -120 -122 -133 -134 -145 -146 -154 -157 0
-41 -59 -60 -76 -77 -92 -93 -107 -108 -121 -122 -133 -135 -145 -146 -154 -157 0
-41 -59 -60 -76 -77 -92 -93 -107 -108 -121 -122 -134 -135 -145 -147 -154 -157 0
-41 -59 -60 -76 -77 -92 -93 -107 -108 -121 -122 -134 -135 -146 -147 -154 -158 0
-39 -57 -58 -74 -75 -90 -91 -105 -106 -119 -120 -132 -133 -144 -145 -155 -156 0
-40 -57 -59 -74 -75 -90 -91 -105 -106 -119 -120 -132 -133 -144 -145 -155 -156 0
-41 -57 -60 -74 -75 -90 -91 -105 -106 -119 -120 -132 -133 -144 -145 -155 -156 0
-40 -58 -59 -74 -76 -90 -91 -105 -106 -119 -120 -132 -133 -144 -145 -155 -156 0
-41 -58 -60 -74 -76 -90 -91 -105 -106 -119 -120 -132 -133 -144 -145 -155 -156 0
-41 -59 -60 -74 -77 -90 -91 -105 -106 -119 -120 -132 -133 -144 -145 -155 -156 0
-40 -58 -59 -75 -76 -90 -92 -105 -106 -119 -120 -132 -133 -144 -145 -155 -156 0
-41 -58 -60 -75 -76 -90 -92 -105 -106 -119 -120 -132 -133 -144 -145 -155 -156 0
-41 -59 -60 -75 -77 -90 -92 -105 -106 -119 -120 -132 -133 -144 -145 -155 -156 0
-41 -59 -60 -76 -77 -90 -93 -105 -106 -119 -120 -132 -133 -144 -145 -155 -156 0
-40 -58 -59 -75 -76 -91 -92 -105 -107 -119 -120 -132 -133 -144 -145 -155 -156 0
-41 -58 -60 -75 -76 -91 -92 -105 -107 -119 -120 -132 -133 -144 -145 -155 -156 0
-41 -59 -60 -75 -77 -91 -92 -105 -107 -119 -120 -132 -133 -144 -145 -155 -156 0
-41 -59 -60 -76 -77 -91 -93 -105 -107 -119 -120 -132 -133 -144 -145 -155 -156 0
-41 -59 -60 -76 -77 -92 -93 -105 -108 -119 -120 -132 -133 -144 -145 -155 -156 0
-40 -58 -59 -75 -76 -91 -92 -106 -107 -119 -121 -132 -133 -144 -145 -155 -156 0
-41 -58 -60 -75 -76 -91 -92 -106 -107 -119 -121 -132 -133 -144 -145 -155 -156 0
-41 -59 -60 -75 -77 -91 -92 -106 -107 -119 -121 -132 -133 -144 -145 -155 -156 0
-41 -59 -60 -76 -77 -91 -93 -106 -107 -119 -121 -132 -133 -144 -145 -155 -156 0
-41 -59 -60 -76 -77 -92 -93 -106 -108 -119 -121 -132 -133 -144 -145 -155 -156 0
-41 -59 -60 -76 -77 -92 -93 -107 -108 -119 -122 -132 -133 -144 -145 -155 -156 0
-40 -58 -59 -75 -76 -91 -92 -106 -107 -120 -121 -132 -134 -144 -145 -155 -156 0
-41 -58 -60 -75 -76 -91 -92 -106 -107 -120 -121 -132 -134 -144 -145 -155 -156 0
-41 -59 -60 -75 -77 -91 -92 -106 -107 -120 -121 -132 -134 -144 -145 -155 -156 0
-41 -59 -60 -76 -77 -91 -93 -106 -107 -120 -121 -132 -134 -144 -145 -155 -156 0
-41 -59 -60 -76 -77 -92 -93 -106 -108 -120 -121 -132 -134 -144 -145 -155 -156 0
-41 -59 -60 -76 -77 -92 -93 -107 -108 -120 -122 -132 -134 -144 -145 -155 -156 0
-41 -59 -60 -76 -77 -92 -93 -107 -108 -121 -122 -132 -135 -144 -145 -155 -156 0
-40 -58 -59 -75 -76 -91 -92 -106 -107 -120 -121 -133 -134 -144 -146 -155 -156 0
-41 -58 -60 -75 -76 -91 -92 -106 -107 -120 -121 -133 -134 -144 -146 -155 -156 0
-41 -59 -60 -75 -77 -91 -92 -106 -107 -120 -121 -133 -134 -144 -146 -155 -156 0
-41 -59 -60 -76 -77 -91 -93 -106 -107 -120 -121 -133 -134 -144 -146 -155 -156 0
-41 -59 -60 -76 -77 -92 -93 -106 -108 -120 -121 -133 -134 -144 -146 -155 -156 0
-41 -59 -60 -76 -77 -92 -93 -107 -108 -120 -122 -133 -134 -144 -146 -155 -156 0
-41 -59 -60 -76 -77 -92 -93 -107 -108 -121 -122 -133 -135 -144 -146 -155 -156 0
-41 -59 -60 -76 -77 -92 -93 -107 -108 -121 -122 -134 -135 -144 -147 -155 -156 0
-40 -58 -59 -75 -76 -91 -92 -106 -107 -120 -121 -133 -134 -145 -146 -155 -157 0
-41 -58 -60 -75 -76 -91 -92 -106 -107 -120 -121 -133 -134 -145 -146 -155 -157 0
-41 -59 -60 -75 -77 -91 -92 -106 -107 -120 -121 -133 -134 -145 -146 -155 -157 0
-41 -59 -60 -76 -77 -91 -93 -106 -107 -120 -121 -133 -134 -145 -146 -155 -157 0
-41 -59 -60 -76 -77 -92 -93 -106 -108 -120 -121 -133 -134 -145 -146 -155 -157 0
-41 -59 -60 -76 -77 -92 -93 -107 -108 -120 -122 -133 -134 -145 -146 -155 -157 0
-41 -59 -60 -76 -77 -92 -93 -107 -108 -121 -122 -133 -135 -145 -146 -155 -157 0
-41 -59 -60 -76 -77 -92 -93 -107 -108 -121 -122 -134 -135 -145 -147 -155 -157 0
-41 -59 -60 -76 -77 -92 -93 -107 -108 -121 -122 -134 -135 -146 -147 -155 -158 0
-40 -58 -59 -75 -76 -91 -92 -106 -107 -120 -121 -133 -134 -145 -146 -156 -157 0
-41 -58 -60 -75 -76 -91 -92 -106 -107 -120 -121 -133 -134 -145 -146 -156 -157 0
-41 -59 -60 -75 -77 -91 -92 -106 -107 -120 -121 -133 -134 -145 -146 -156 -157 0
-41 -59 -60 -76 -77 -91 -93 -106 -107 -120 -121 -133 -134 -145 -146 -156 -157 0
-41 -59 -60 -76 -77 -92 -93 -106 -108 -120 -121 -133 -134 -145 -146 -156 -157 0
-41 -59 -60 -76 -77 -92 -93 -107 -108 -120 -122 -133 -134 -145 -146 -156 -157 0
-41 -59 -60 -76 -77 -92 -93 -107 -108 -121 -122 -133 -135 -145 -146 -156 -157 0
-41 -59 -60 -76 -77 -92 -93 -107 -108 -121 -122 -134 -135 -145 -147 -156 -157 0
-41 -59 -60 -76 -77 -92 -93 -107 -108 -121 -122 -134 -135 -146 -147 -156 -158 0
-41 -59 -60 -76 -77 -92 -93 -107 -108 -121 -122 -134 -135 -146 -147 -157 -158 0
-39 -57 -58 -74 -75 -90 -91 -105 -106 -119 -120 -132 -133 -144 -145 -166 -167 0
-40 -57 -59 -74 -75 -90 -91 -105 -106 -119 -120 -132 -133 -144 -145 -166 -167 0
-41 -57 -60 -74 -75 -90 -91 -105 -106 -119 -120 -132 -133 -144 -145 -166 -167 0
-40 -58 -59 -74 -76 -90 -91 -105 -106 -119 -120 -132 -133 -144 -145 -166 -167 0
-41 -58 -60 -74 -76 -90 -91 -105 -106 -119 -120 -132 -133 -144 -145 -166 -167 0
-41 -59 -60 -74 -77 -90 -91 -105 -106 -119 -120 -132 -133 -144 -145 -166 -167 0
-40 -58 -59 -75 -76 -90 -92 -105 -106 -119 -120 -132 -133 -144 -145 -166 -167 0
-41 -58 -60 -75 -76 -90 -92 -105 -106 -119 -120 -132 -133 -144 -145 -166 -167 0
-41 -59 -60 -75 -77 -90 -92 -105 -106 -119 -120 -132 -133 -144 -145 -166 -167 0
-41 -59 -60 -76 -77 -90 -93 -105 -106 -119 -120 -132 -133 -144 -145 -166 -167 0
-40 -58 -59 -75 -76 -91 -92 -105 -107 -119 -120 -132 -133 -144 -145 -166 -167 0
-41 -58 -60 -75 -76 -91 -92 -105 -107 -119 -120 -132 -133 -144 -145 -166 -167 0
-41 -59 -60 -75 -77 -91 -92 -105 -107 -119 -120 -132 -133 -144 -145 -166 -167 0
-41 -59 -60 -76 -77 -91 -93 -105 -107 -119 -120 -132 -133 -144 -145 -166 -167 0
-41 -59 -60 -76 -77 -92 -93 -105 -108 -119 -120 -132 -133 -144 -145 -166 -167 0
-40 -58 -59 -75 -76 -91 -92 -106 -107 -119 -121 -132 -133 -144 -145 -166 -167 0
-41 -58 -60 -75 -76 -91 -92 -106 -107 -119 -121 -132 -133 -144 -145 -166 -167 0
-41 -59 -60 -75 -77 -91 -92 -106 -107 -119 -121 -132 -133 -144 -145 -166 -167 0
-41 -59 -60 -76 -77 -91 -93 -106 -107 -119 -121 -132 -133 -144 -145 -166 -167 0
-41 -59 -60 -76 -77 -92 -93 -106 -108 -119 -121 -132 -133 -144 -145 -166 -167 0
-41 -59 -60 -76 -77 -92 -93 -107 -108 -119 -122 -132 -133 -144 -145 -166 -167 0
-40 -58 -59 -75 -76 -91 -92 -106 -107 -120 -121 -132 -134 -144 -145 -166 -167 0
-41 -58 -60 -75 -76 -91 -92 -106 -107 -120 -121 -132 -134 -144 -145 -166 -167 0
-41 -59 -60 -75 -77 -91 -92 -106 -107 -120 -121 -132 -134 -144 -145 -166 -167 0
-41 -59 -60 -76 -77 -91 -93 -106 -107 -120 -121 -132 -134 -144 -145 -166 -167 0
-41 -59 -60 -76 -77 -92 -93 -106 -108 -120 -121 -132 -134 -144 -145 -166 -167 0
-41 -59 -60 -76 -77 -92 -93 -107 -108 -120 -122 -132 -134 -144 -145 -166 -167 0
-41 -59 -60 -76 -77 -92 -93 -107 -108 -121 -122 -132 -135 -144 -145 -166 -167 0
-40 -58 -59 -75 -76 -91 -92 -106 -107 -120 -121 -133 -134 -144 -146 -166 -167 0
-41 -58 -60 -75 -76 -91 -92 -106 -107 -120 -121 -133 -134 -144 -146 -166 -167 0
-41 -59 -60 -75 -77 -91 -92 -106 -107 -120 -121 -133 -134 -144 -146 -166 -167 0
-41 -59 -60 -76 -77 -91 -93 -106 -107 -120 -121 -133 -134 -144 -146 -166 -167 0
-41 -59 -60 -76 -77 -92 -93 -106 -108 -120 -121 -133 -134 -144 -146 -166 -167 0
-41 -59 -60 -76 -77 -92 -93 -107 -108 -120 -122 -133 -134 -144 -146 -166 -167 0
-41 -59 -60 -76 -77 -92 -93 -107 -108 -121 -122 -133 -135 -144 -146 -166 -167 0
-41 -59 -60 -76 -77 -92 -93 -107 -108 -121 -122 -134 -135 -144 -147 -166 -167 0
-40 -58 -59 -75 -76 -91 -92 -106 -107 -120 -121 -133 -134 -145 -146 -166 -168 0
-41 -58 -60 -75 -76 -91 -92 -106 -107 -120 -121 -133 -134 -145 -146 -166 -168 0
-41 -59 -60 -75 -77 -91 -92 -106 -107 -120 -121 -133 -134 -145 -146 -166 -168 0
-41 -59 -60 -76 -77 -91 -93 -106 -107 -120 -121 -133 -134 -145 -146 -166 -168 0
-41 -59 -60 -76 -77 -92 -93 -106 -108 -120 -121 -133 -134 -145 -146 -166 -168 0
-41 -59 -60 -76 -77 -92 -93 -107 -108 -120 -122 -133 -134 -145 -146 -166 -168 0
-41 -59 -60 -76 -77 -92 -93 -107 -108 -121 -122 -133 -135 -145 -146 -166 -168 0
-41 -59 -60 -76 -77 -92 -93 -107 -108 -121 -122 -134 -135 -145 -147 -166 -168 0
-41 -59 -60 -76 -77 -92 -93 -107 -108 -121 -122 -134 -135 -146 -147 -166 -169 0
-40 -58 -59 -75 -76 -91 -92 -106 -107 -120 -121 -133 -134 -145 -146 -167 -168 0
-41 -58 -60 -75 -76 -91 -92 -106 -107 -120 -121 -133 -134 -145 -146 -167 -168 0
-41 -59 -60 -75 -77 -91 -92 -106 -107 -120 -121 -133 -134 -145 -146 -167 -168 0
-41 -59 -60 -76 -77 -91 -93 -106 -107 -120 -121 -133 -134 -145 -146 -167 -168 0
-41 -59 -60 -76 -77 -92 -93 -106 -108 -120 -121 -133 -134 -145 -146 -167 -168 0
-41 -59 -60 -76 -77 -92 -93 -107 -108 -120 -122 -133 -134 -145 -146 -167 -168 0
-41 -59 -60 -76 -77 -92 -93 -107 -108 -121 -122 -133 -135 -145 -146 -167 -168 0
-41 -59 -60 -76 -77 -92 -93 -107 -108 -121 -122 -134 -135 -145 -147 -167 -168 0
-41 -59 -60 -76 -77 -92 -93 -107 -108 -121 -122 -134 -135 -146 -147 -167 -169 0
-41 -59 -60 -76 -77 -92 -93 -107 -108 -121 -122 -134 -135 -146 -147 -168 -169 0
-40 -58 -59 -75 -76 -91 -92 -106 -107 -120 -121 -133 -134 -145 -146 -177 -178 0
-41 -58 -60 -75 -76 -91 -92 -106 -107 -120 -121 -133 -134 -145 -146 -177 -178 0
-41 -59 -60 -75 -77 -91 -92 -106 -107 -120 -121 -133 -134 -145 -146 -177 -178 0
-41 -59 -60 -76 -77 -91 -93 -106 -107 -120 -121 -133 -134 -145 -146 -177 -178 0
-41 -59 -60 -76 -77 -92 -93 -106 -108 -120 -121 -133 -134 -145 -146 -177 -178 0
-41 -59 -60 -76 -77 -92 -93 -107 -108 -120 -122 -133 -134 -145 -146 -177 -178 0
-41 -59 -60 -76 -77 -92 -93 -107 -108 -121 -122 -133 -135 -145 -146 -177 -178 0
-41 -59 -60 -76 -77 -92 -93 -107 -108 -121 -122 -134 -135 -145 -147 -177 -178 0
-41 -59 -60 -76 -77 -92 -93 -107 -108 -121 -122 -134 -135 -146 -147 -177 -179 0
-41 -59 -60 -76 -77 -92 -93 -107 -108 -121 -122 -134 -135 -146 -147 -178 -179 0
-41 -59 -60 -76 -77 -92 -93 -107 -108 -121 -122 -134 -135 -146 -147 -187 -188 0
-39 -57 -58 -74 -75 -90 -91 -105 -106 -119 -120 -132 -133 -156 -157 -166 -167 0
-40 -57 -59 -74 -75 -90 -91 -105 -106 -119 -120 -132 -133 -156 -157 -166 -167 0
-41 -57 -60 -74 -75 -90 -91 -105 -106 -119 -120 -132 -133 -156 -157 -166 -167 0
-40 -58 -59 -74 -76 -90 -91 -105 -106 -119 -120 -132 -133 -156 -157 -166 -167 0
-41 -58 -60 -74 -76 -90 -91 -105 -106 -119 -120 -132 -133 -156 -157 -166 -167 0
-41 -59 -60 -74 -77 -90 -91 -105 -106 -119 -120 -132 -133 -156 -157 -166 -167 0
-40 -58 -59 -75 -76 -90 -92 -105 -106 -119 -120 -132 -133 -156 -157 -166 -167 0
-41 -58 -60 -75 -76 -90 -92 -105 -106 -119 -120 -132 -133 -156 -157 -166 -167 0
-41 -59 -60 -75 -77 -90 -92 -105 -106 -119 -120 -132 -133 -156 -157 -166 -167 0
-41 -59 -60 -76 -77 -90 -93 -105 -106 -119 -120 -132 -133 -156 -157 -166 -167 0
-40 -58 -59 -75 -76 -91 -92 -105 -107 -119 -120 -132 -133 -156 -157 -166 -167 0
-41 -58 -60 -75 -76 -91 -92 -105 -107 -119 -120 -132 -133 -156 -157 -166 -167 0
-41 -59 -60 -75 -77 -91 -92 -105 -107 -119 -120 -132 -133 -156 -157 -166 -167 0
-41 -59 -60 -76 -77 -91 -93 -105 -107 -119 -120 -132 -133 -156 -157 -166 -167 0
-41 -59 -60 -76 -77 -92 -93 -105 -108 -119 -120 -132 -133 -156 -157 -166 -167 0
-40 -58 -59 -75 -76 -91 -92 -106 -107 -119 -121 -132 -133 -156 -157 -166 -167 0
-41 -58 -60 -75 -76 -91 -92 -106 -107 -119 -121 -132 -133 -156 -157 -166 -167 0
-41 -59 -60 -75 -77 -91 -92 -106 -107 -119 -121 -132 -133 -156 -157 -166 -167 0
-41 -59 -60 -76 -77 -91 -93 -106 -107 -119 -121 -132 -133 -156 -157 -166 -167 0
-41 -59 -60 -76 -77 -92 -93 -106 -108 -119 -121 -132 -133 -156 -157 -166 -167 0
-41 -59 -60 -76 -77 -92 -93 -107 -108 -119 -122 -132 -133 -156 -157 -166 -167 0
-40 -58 -59 -75 -76 -91 -92 -106 -107 -120 -121 -132 -134 -156 -157 -166 -167 0
-41 -58 -60 -75 -76 -91 -92 -106 -107 -120 -121 -132 -134 -156 -157 -166 -167 0
-41 -59 -60 -75 -77 -91 -92 -106 -107 -120 -121 -132 -134 -156 -157 -166 -167 0
-41 -59 -60 -76 -77 -91 -93 -106 -107 -120 -121 -132 -134 -156 -157 -166 -167 0
-41 -59 -60 -76 -77 -92 -93 -106 -108 -120 -121 -132 -134 -156 -157 -166 -167 0
-41 -59 -60 -76 -77 -92 -93 -107 -108 -120 -122 -132 -134 -156 -157 -166 -167 0
-41 -59 -60 -76 -77 -92 -93 -107 -108 -121 -122 -132 -135 -156 -157 -166 -167 0
-40 -58 -59 -75 -76 -91 -92 -106 -107 -120 -121 -133 -134 -156 -158 -166 -167 0
-41 -58 -60 -75 -76 -91 -92 -106 -107 -120 -121 -133 -134 -156 -158 -166 -167 0
-41 -59 -60 -75 -77 -91 -92 -106 -107 -120 -121 -133 -134 -156 -158 -166 -167 0
-41 -59 -60 -76 -77 -91 -93 -106 -107 -120 -121 -133 -134 -156 -158 -166 -167 0
-41 -59 -60 -76 -77 -92 -93 -106 -108 -120 -121 -133 -134 -156 -158 -166 -167 0
-41 -59 -60 -76 -77 -92 -93 -107 -108 -120 -122 -133 -134 -156 -158 -166 -167 0
-41 -59 -60 -76 -77 -92 -93 -107 -108 -121 -122 -133 -135 -156 -158 -166 -167 0
-41 -59 -60 -76 -77 -92 -93 -107 -108 -121 -122 -134 -135 -156 -159 -166 -167 0
-40 -58 -59 -75 -76 -91 -92 -106 -107 -120 -121 -133 -134 -157 -158 -166 -168 0
-41 -58 -60 -75 -76 -91 -92 -106 -107 -120 -121 -133 -134 -157 -158 -166 -168 0
-41 -59 -60 -75 -77 -91 -92 -106 -107 -120 -121 -133 -134 -157 -158 -166 -168 0
-41 -59 -60 -76 -77 -91 -93 -106 -107 -120 -121 -133 -134 -157 -158 -166 -168 0
-41 -59 -60 -76 -77 -92 -93 -106 -108 -120 -121 -133 -134 -157 -158 -166 -168 0
-41 -59 -60 -76 -77 -92 -93 -107 -108 -120 -122 -133 -134 -157 -158 -166 -168 0
-41 -59 -60 -76 -77 -92 -93 -107 -108 -121 -122 -133 -135 -157 -158 -166 -168 0
-41 -59 -60 -76 -77 -92 -93 -107 -108 -121 -122 -134 -135 -157 -159 -166 -168 0
-41 -59 -60 -76 -77 -92 -93 -107 -108 -121 -122 -134 -135 -158 -159 -166 -169 0
-40 -58 -59 -75 -76 -91 -92 -106 -107 -120 -121 -133 -134 -157 -158 -167 -168 0
-41 -58 -60 -75 -76 -91 -92 -106 -107 -120 -121 -133 -134 -157 -158 -167 -168 0
-41 -59 -60 -75 -77 -91 -92 -106 -107 -120 -121 -133 -134 -157 -158 -167 -168 0
-41 -59 -60 -76 -77 -91 -93 -106 -107 -120 -121 -133 -134 -157 -158 -167 -168 0
-41 -59 -60 -76 -77 -92 -93 -106 -108 -120 -121 -133 -134 -157 -158 -167 -168 0
-41 -59 -60 -76 -77 -92 -93 -107 -108 -120 -122 -133 -134 -157 -158 -167 -168 0
-41 -59 -60 -76 -77 -92 -93 -107 -108 -121 -122 -133 -135 -157 -158 -167 -168 0
-41 -59 -60 -76 -77 -92 -93 -107 -108 -121 -122 -134 -135 -157 -159 -167 -168 0
-41 -59 -60 -76 -77 -92 -93 -107 -108 -121 -122 -134 -135 -158 -159 -167 -169 0
-41 -59 -60 -76 -77 -92 -93 -107 -108 -121 -122 -134 -135 -158 -159 -168 -169 0
-40 -58 -59 -75 -76 -91 -92 -106 -107 -120 -121 -133 -134 -157 -158 -177 -178 0
-41 -58 -60 -75 -76 -91 -92 -106 -107 -120 -121 -133 -134 -157 -158 -177 -178 0
-41 -59 -60 -75 -77 -91 -92 -106 -107 -120 -121 -133 -134 -157 -158 -177 -178 0
-41 -59 -60 -76 -77 -91 -93 -106 -107 -120 -121 -133 -134 -157 -158 -177 -178 0
-41 -59 -60 -76 -77 -92 -93 -106 -108 -120 -121 -133 -134 -157 -158 -177 -178 0
-41 -59 -60 -76 -77 -92 -93 -107 -108 -120 -122 -133 -134 -157 -158 -177 -178 0
-41 -59 -60 -76 -77 -92 -93 -107 -108 -121 -122 -133 -135 -157 -158 -177 -178 0
-41 -59 -60 -76 -77 -92 -93 -107 -108 -121 -122 -134 -135 -157 -159 -177 -178 0
-41 -59 -60 -76 -77 -92 -93 -107 -108 -121 -122 -134 -135 -158 -159 -177 -179 0
-41 -59 -60 -76 -77 -92 -93 -107 -108 -121 -122 -134 -135 -158 -159 -178 -179 0
-41 -59 -60 -76 -77 -92 -93 -107 -108 -121 -122 -134 -135 -158 -159 -187 -188 0
-40 -58 -59 -75 -76 -91 -92 -106 -107 -120 -121 -133 -134 -168 -169 -177 -178 0
-41 -58 -60 -75 -76 -91 -92 -106 -107 -120 -121 -133 -134 -168 -169 -177 -178 0
-41 -59 -60 -75 -77 -91 -92 -106 -107 -120 -121 -133 -134 -168 -169 -177 -178 0
-41 -59 -60 -76 -77 -91 -93 -106 -107 -120 -121 -133 -134 -168 -169 -177 -178 0
-41 -59 -60 -76 -77 -92 -93 -106 -108 -120 -121 -133 -134 -168 -169 -177 -178 0
-41 -59 -60 -76 -77 -92 -93 -107 -108 -120 -122 -133 -134 -168 -169 -177 -178 0
-41 -59 -60 -76 -77 -92 -93 -107 -108 -121 -122 -133 -135 -168 -169 -177 -178 0
-41 -59 -60 -76 -77 -92 -93 -107 -108 -121 -122 -134 -135 -168 -170 -177 -178 0
-41 -59 -60 -76 -77 -92 -93 -107 -108 -121 -122 -134 -135 -169 -170 -177 -179 0
-41 -59 -60 -76 -77 -92 -93 -107 -108 -121 -122 -134 -135 -169 -170 -178 -179 0
-41 -59 -60 -76 -77 -92 -93 -107 -108 -121 -122 -134 -135 -169 -170 -187 -188 0
-41 -59 -60 -76 -77 -92 -93 -107 -108 -121 -122 -134 -135 -179 -180 -187 -188 0
-39 -57 -58 -74 -75 -90 -91 -105 -106 -119 -120 -145 -146 -156 -157 -166 -167 0
-40 -57 -59 -74 -75 -90 -91 -105 -106 -119 -120 -145 -146 -156 -157 -166 -167 0
-41 -57 -60 -74 -75 -90 -91 -105 -106 -119 -120 -145 -146 -156 -157 -166 -167 0
-40 -58 -59 -74 -76 -90 -91 -105 -106 -119 -120 -145 -146 -156 -157 -166 -167 0
-41 -58 -60 -74 -76 -90 -91 -105 -106 -119 -120 -145 -146 -156 -157 -166 -167 0
-41 -59 -60 -74 -77 -90 -91 -105 -106 -119 -120 -145 -146 -156 -157 -166 -167 0
-40 -58 -59 -75 -76 -90 -92 -105 -106 -119 -120 -145 -146 -156 -157 -166 -167 0
-41 -58 -60 -75 -76 -90 -92 -105 -106 -119 -120 -145 -146 -156 -157 -166 -167 0
-41 -59 -60 -75 -77 -90 -92 -105 -106 -119 -120 -145 -146 -156 -157 -166 -167 0
-41 -59 -60 -76 -77 -90 -93 -105 -106 -119 -120 -145 -146 -156 -157 -166 -167 0
-40 -58 -59 -75 -76 -91 -92 -105 -107 -119 -120 -145 -146 -156 -157 -166 -167 0
-41 -58 -60 -75 -76 -91 -92 -105 -107 -119 -120 -145 -146 -156 -157 -166 -167 0
-41 -59 -60 -75 -77 -91 -92 -105 -107 -119 -120 -145 -146 -156 -157 -166 -167 0
-41 -59 -60 -76 -77 -91 -93 -105 -107 -119 -120 -145 -146 -156 -157 -166 -167 0
-41 -59 -60 -76 -77 -92 -93 -105 -108 -119 -120 -145 -146 -156 -157 -166 -167 0
-40 -58 -59 -75 -76 -91 -92 -106 -107 -119 -121 -145 -146 -156 -157 -166 -167 0
-41 -58 -60 -75 -76 -91 -92 -106 -107 -119 -121 -145 -146 -156 -157 -166 -167 0
-41 -59 -60 -75 -77 -91 -92 -106 -107 -119 -121 -145 -146 -156 -157 -166 -167 0
-41 -59 -60 -76 -77 -91 -93 -106 -107 -119 -121 -145 -146 -156 -157 -166 -167 0
-41 -59 -60 -76 -77 -92 -93 -106 -108 -119 -121 -145 -146 -156 -157 -166 -167 0
-41 -59 -60 -76 -77 -92 -93 -107 -108 -119 -122 -145 -146 -156 -157 -166 -167 0
-40 -58 -59 -75 -76 -91 -92 -106 -107 -120 -121 -145 -147 -156 -157 -166 -167 0
-41 -58 -60 -75 -76 -91 -92 -106 -107 -120 -121 -145 -147 -156 -157 -166 -167 0
-41 -59 -60 -75 -77 -91 -92 -106 -107 -120 -121 -145 -147 -156 -157 -166 -167 0
-41 -59 -60 -76 -77 -91 -93 -106 -107 -120 -121 -145 -147 -156 -157 -166 -167 0
-41 -59 -60 -76 -77 -92 -93 -106 -108 -120 -121 -145 -147 -156 -157 -166 -167 0
-41 -59 -60 -76 -77 -92 -93 -107 -108 -120 -122 -145 -147 -156 -157 -166 -167 0
-41 -59 -60 -76 -77 -92 -93 -107 -108 -121 -122 -145 -148 -156 -157 -166 -167 0
-40 -58 -59 -75 -76 -91 -92 -106 -107 -120 -121 -146 -147 -156 -158 -166 -167 0
-41 -58 -60 -75 -76 -91 -92 -106 -107 -120 -121 -146 -147 -156 -158 -166 -167 0
-41 -59 -60 -75 -77 -91 -92 -106 -107 -120 -121 -146 -147 -156 -158 -166 -167 0
-41 -59 -60 -76 -77 -91 -93 -106 -107 -120 -121 -146 -147 -156 -158 -166 -167 0
-41 -59 -60 -76 -77 -92 -93 -106 -108 -120 -121 -146 -147 -156 -158 -166 -167 0
-41 -59 -60 -76 -77 -92 -93 -107 -108 -120 -122 -146 -147 -156 -158 -166 -167 0
-41 -59 -60 -76 -77 -92 -93 -107 -108 -121 -122 -146 -148 -156 -158 -166 -167 0
-41 -59 -60 -76 -77 -92 -93 -107 -108 -121 -122 -147 -148 -156 -159 -166 -167 0
-40 -58 -59 -75 -76 -91 -92 -106 -107 -120 -121 -146 -147 -157 -158 -166 -168 0
-41 -58 -60 -75 -76 -91 -92 -106 -107 -120 -121 -146 -147 -157 -158 -166 -168 0
-41 -59 -60 -75 -77 -91 -92 -106 -107 -120 -121 -146 -147 -157 -158 -166 -168 0
-41 -59 -60 -76 -77 -91 -93 -106 -107 -120 -121 -146 -147 -157 -158 -166 -168 0
-41 -59 -60 -76 -77 -92 -93 -106 -108 -120 -121 -146 -147 -157 -158 -166 -168 0
-41 -59 -60 -76 -77 -92 -93 -107 -108 -120 -122 -146 -147 -157 -158 -166 -168 0
-41 -59 -60 -76 -77 -92 -93 -107 -108 -121 -122 -146 -148 -157 -158 -166 -168 0
-41 -59 -60 -76 -77 -92 -93 -107 -108 -121 -122 -147 -148 -157 -159 -166 -168 0
-41 -59 -60 -76 -77 -92 -93 -107 -108 -121 -122 -147 -148 -158 -159 -166 -169 0
-40 -58 -59 -75 -76 -91 -92 -106 -107 -120 -121 -146 -147 -157 -158 -167 -168 0
-41 -58 -60 -75 -76 -91 -92 -106 -107 -120 -121 -146 -147 -157 -158 -167 -168 0
-41 -59 -60 -75 -77 -91 -92 -106 -107 -120 -121 -146 -147 -157 -158 -167 -168 0
-41 -59 -60 -76 -77 -91 -93 -106 -107 -120 -121 -146 -147 -157 -158 -167 -168 0
-41 -59 -60 -76 -77 -92 -93 -106 -108 -120 -121 -146 -147 -157 -158 -167 -168 0
-41 -59 -60 -76 -77 -92 -93 -107 -108 -120 -122 -146 -147 -157 -158 -167 -168 0
-41 -59 -60 -76 -77 -92 -93 -107 -108 -121 -122 -146 -148 -157 -158 -167 -168 0
-41 -59 -60 -76 -77 -92 -93 -107 -108 -121 -122 -147 -148 -157 -159 -167 -168 0
-41 -59 -60 -76 -77 -92 -93 -107 -108 -121 -122 -147 -148 -158 -159 -167 -169 0
-41 -59 -60 -76 -77 -92 -93 -107 -108 -121 -122 -147 -148 -158 -159 -168 -169 0
-40 -58 -59 -75 -76 -91 -92 -106 -107 -120 -121 -146 -147 -157 -158 -177 -178 0
-41 -58 -60 -75 -76 -91 -92 -106 -107 -120 -121 -146 -147 -157 -158 -177 -178 0
-41 -59 -60 -75 -77 -91 -92 -106 -107 -120 -121 -146 -147 -157 -158 -177 -178 0
-41 -59 -60 -76 -77 -91 -93 -106 -107 -120 -121 -146 -147 -157 -158 -177 -178 0
-41 -59 -60 -76 -77 -92 -93 -106 -108 -120 -121 -146 -147 -157 -158 -177 -178 0
-41 -59 -60 -76 -77 -92 -93 -107 -108 -120 -122 -146 -147 -157 -158 -177 -178 0
-41 -59 -60 -76 -77 -92 -93 -107 -108 -121 -122 -146 -148 -157 -158 -177 -178 0
-41 -59 -60 -76 -77 -92 -93 -107 -108 -121 -122 -147 -148 -157 -159 -177 -178 0
-41 -59 -60 -76 -77 -92 -93 -107 -108 -121 -122 -147 -148 -158 -159 -177 -179 0
-41 -59 -60 -76 -77 -92 -93 -107 -108 -121 -122 -147 -148 -158 -159 -178 -179 0
-41 -59 -60 -76 -77 -92 -93 -107 -108 -121 -122 -147 -148 -158 -159 -187 -188 0
-40 -58 -59 -75 -76 -91 -92 -106 -107 -120 -121 -146 -147 -168 -169 -177 -178 0
-41 -58 -60 -75 -76 -91 -92 -106 -107 -120 -121 -146 -147 -168 -169 -177 -178 0
-41 -59 -60 -75 -77 -91 -92 -106 -107 -120 -121 -146 -147 -168 -169 -177 -178 0
-41 -59 -60 -76 -77 -91 -93 -106 -107 -120 -121 -146 -147 -168 -169 -177 -178 0
-41 -59 -60 -76 -77 -92 -93 -106 -108 -120 -121 -146 -147 -168 -169 -177 -178 0
-41 -59 -60 -76 -77 -92 -93 -107 -108 -120 -122 -146 -147 -168 -169 -177 -178 0
-41 -59 -60 -76 -77 -92 -93 -107 -108 -121 -122 -146 -148 -168 -169 -177 -178 0
-41 -59 -60 -76 -77 -92 -93 -107 -108 -121 -122 -147 -148 -168 -170 -177 -178 0
-41 -59 -60 -76 -77 -92 -93 -107 -108 -121 -122 -147 -148 -169 -170 -177 -179 0
-41 -59 -60 -76 -77 -92 -93 -107 -108 -121 -122 -147 -148 -169 -170 -178 -179 0
-41 -59 -60 -76 -77 -92 -93 -107 -108 -121 -122 -147 -148 -169 -170 -187 -188 0
-41 -59 -60 -76 -77 -92 -93 -107 -108 -121 -122 -147 -148 -179 -180 -187 -188 0
-40 -58 -59 -75 -76 -91 -92 -106 -107 -120 -121 -158 -159 -168 -169 -177 -178 0
-41 -58 -60 -75 -76 -91 -92 -106 -107 -120 -121 -158 -159 -168 -169 -177 -178 0
-41 -59 -60 -75 -77 -91 -92 -106 -107 -120 -121 -158 -159 -168 -169 -177 -178 0
-41 -59 -60 -76 -77 -91 -93 -106 -107 -120 -121 -158 -159 -168 -169 -177 -178 0
-41 -59 -60 -76 -77 -92 -93 -106 -108 -120 -121 -158 -159 -168 -169 -177 -178 0
-41 -59 -60 -76 -77 -92 -93 -107 -108 -120 -122 -158 -159 -168 -169 -177 -178 0
-41 -59 -60 -76 -77 -92 -93 -107 -108 -121 -122 -158 -160 -168 -169 -177 -178 0
-41 -59 -60 -76 -77 -92 -93 -107 -108 -121 -122 -159 -160 -168 -170 -177 -178 0
-41 -59 -60 -76 -77 -92 -93 -107 -108 -121 -122 -159 -160 -169 -170 -177 -179 0
-41 -59 -60 -76 -77 -92 -93 -107 -108 -121 -122 -159 -160 -169 -170 -178 -179 0
-41 -59 -60 -76 -77 -92 -93 -107 -108 -121 -122 -159 -160 -169 -170 -187 -188 0
-41 -59 -60 -76 -77 -92 -93 -107 -108 -121 -122 -159 -160 -179 -180 -187 -188 0
-41 -59 -60 -76 -77 -92 -93 -107 -108 -121 -122 -170 -171 -179 -180 -187 -188 0
-39 -57 -58 -74 -75 -90 -91 -105 -106 -133 -134 -145 -146 -156 -157 -166 -167 0
-40 -57 -59 -74 -75 -90 -91 -105 -106 -133 -134 -145 -146 -156 -157 -166 -167 0
-41 -57 -60 -74 -75 -90 -91 -105 -106 -133 -134 -145 -146 -156 -157 -166 -167 0
-40 -58 -59 -74 -76 -90 -91 -105 -106 -133 -134 -145 -146 -156 -157 -166 -167 0
-41 -58 -60 -74 -76 -90 -91 -105 -106 -133 -134 -145 -146 -156 -157 -166 -167 0
-41 -59 -60 -74 -77 -90 -91 -105 -106 -133 -134 -145 -146 -156 -157 -166 -167 0
-40 -58 -59 -75 -76 -90 -92 -105 -106 -133 -134 -145 -146 -156 -157 -166 -167 0
-41 -58 -60 -75 -76 -90 -92 -105 -106 -133 -134 -145 -146 -156 -157 -166 -167 0
-41 -59 -60 -75 -77 -90 -92 -105 -106 -133 -134 -145 -146 -156 -157 -166 -167 0
-41 -59 -60 -76 -77 -90 -93 -105 -106 -133 -134 -145 -146 -156 -157 -166 -167 0
-40 -58 -59 -75 -76 -91 -92 -105 -107 -133 -134 -145 -146 -156 -157 -166 -167 0
-41 -58 -60 -75 -76 -91 -92 -105 -107 -133 -134 -145 -146 -156 -157 -166 -167 0
-41 -59 -60 -75 -77 -91 -92 -105 -107 -133 -134 -145 -146 -156 -157 -166 -167 0
-41 -59 -60 -76 -77 -91 -93 -105 -107 -133 -134 -145 -146 -156 -157 -166 -167 0
-41 -59 -60 -76 -77 -92 -93 -105 -108 -133 -134 -145 -146 -156 -157 -166 -167 0
-40 -58 -59 -75 -76 -91 -92 -106 -107 -133 -135 -145 -146 -156 -157 -166 -167 0
-41 -58 -60 -75 -76 -91 -92 -106 -107 -133 -135 -145 -146 -156 -157 -166 -167 0
-41 -59 -60 -75 -77 -91 -92 -106 -107 -133 -135 -145 -146 -156 -157 -166 -167 0
-41 -59 -60 -76 -77 -91 -93 -106 -107 -133 -135 -145 -146 -156 -157 -166 -167 0
-41 -59 -60 -76 -77 -92 -93 -106 -108 -133 -135 -145 -146 -156 -157 -166 -167 0
-41 -59 -60 -76 -77 -92 -93 -107 -108 -133 -136 -145 -146 -156 -157 -166 -167 0
-40 -58 -59 -75 -76 -91 -92 -106 -107 -134 -135 -145 -147 -156 -157 -166 -167 0
-41 -58 -60 -75 -76 -91 -92 -106 -107 -134 -135 -145 -147 -156 -157 -166 -167 0
-41 -59 -60 -75 -77 -91 -92 -106 -107 -134 -135 -145 -147 -156 -157 -166 -167 0
-41 -59 -60 -76 -77 -91 -93 -106 -107 -134 -135 -145 -147 -156 -157 -166 -167 0
-41 -59 -60 -76 -77 -92 -93 -106 -108 -134 -135 -145 -147 -156 -157 -166 -167 0
-41 -59 -60 -76 -77 -92 -93 -107 -108 -134 -136 -145 -147 -156 -157 -166 -167 0
-41 -59 -60 -76 -77 -92 -93 -107 -108 -135 -136 -145 -148 -156 -157 -166 -167 0
-40 -58 -59 -75 -76 -91 -92 -106 -107 -134 -135 -146 -147 -156 -158 -166 -167 0
-41 -58 -60 -75 -76 -91 -92 -106 -107 -134 -135 -146 -147 -156 -158 -166 -167 0
-41 -59 -60 -75 -77 -91 -92 -106 -107 -134 -135 -146 -147 -156 -158 -166 -167 0
-41 -59 -60 -76 -77 -91 -93 -106 -107 -134 -135 -146 -147 -156 -158 -166 -167 0
-41 -59 -60 -76 -77 -92 -93 -106 -108 -134 -135 -146 -147 -156 -158 -166 -167 0
-41 -59 -60 -76 -77 -92 -93 -107 -108 -134 -136 -146 -147 -156 -158 -166 -167 0
-41 -59 -60 -76 -77 -92 -93 -107 -108 -135 -136 -146 -148 -156 -158 -166 -167 0
-41 -59 -60 -76 -77 -92 -93 -107 -108 -135 -136 -147 -148 -156 -159 -166 -167 0
-40 -58 -59 -75 -76 -91 -92 -106 -107 -134 -135 -146 -147 -157 -158 -166 -168 0
-41 -58 -60 -75 -76 -91 -92 -106 -107 -134 -135 -146 -147 -157 -158 -166 -168 0
-41 -59 -60 -75 -77 -91 -92 -106 -107 -134 -135 -146 -147 -157 -158 -166 -168 0
-41 -59 -60 -76 -77 -91 -93 -106 -107 -134 -135 -146 -147 -157 -158 -166 -168 0
-41 -59 -60 -76 -77 -92 -93 -106 -108 -134 -135 -146 -147 -157 -158 -166 -168 0
-41 -59 -60 -76 -77 -92 -93 -107 -108 -134 -136 -146 -147 -157 -158 -166 -168 0
-41 -59 -60 -76 -77 -92 -93 -107 -108 -135 -136 -146 -148 -157 -158 -166 -168 0
-41 -59 -60 -76 -77 -92 -93 -107 -108 -135 -136 -147 -148 -157 -159 -166 -168 0
-41 -59 -60 -76 -77 -92 -93 -107 -108 -135 -136 -147 -148 -158 -159 -166 -169 0
-40 -58 -59 -75 -76 -91 -92 -106 -107 -134 -135 -146 -147 -157 -158 -167 -168 0
-41 -58 -60 -75 -76 -91 -92 -106 -107 -134 -135 -146 -147 -157 -158 -167 -168 0
-41 -59 -60 -75 -77 -91 -92 -106 -107 -134 -135 -146 -147 -157 -158 -167 -168 0
-41 -59 -60 -76 -77 -91 -93 -106 -107 -134 -135 -146 -147 -157 -158 -167 -168 0
-41 -59 -60 -76 -77 -92 -93 -106 -108 -134 -135 -146 -147 -157 -158 -167 -168 0
-41 -59 -60 -76 -77 -92 -93 -107 -108 -134 -136 -146 -147 -157 -158 -167 -168 0
-41 -59 -60 -76 -77 -92 -93 -107 -108 -135 -136 -146 -148 -157 -158 -167 -168 0
-41 -59 -60 -76 -77 -92 -93 -107 -108 -135 -136 -147 -148 -157 -159 -167 -168 0
-41 -59 -60 -76 -77 -92 -93 -107 -108 -135 -136 -147 -148 -158 -159 -167 -169 0
-41 -59 -60 -76 -77 -92 -93 -107 -108 -135 -136 -147 -148 -158 -159 -168 -169 0
-40 -58 -59 -75 -76 -91 -92 -106 -107 -134 -135 -146 -147 -157 -158 -177 -178 0
-41 -58 -60 -75 -76 -91 -92 -106 -107 -134 -135 -146 -147 -157 -158 -177 -178 0
-41 -59 -60 -75 -77 -91 -92 -106 -107 -134 -135 -146 -147 -157 -158 -177 -178 0
-41 -59 -60 -76 -77 -91 -93 -106 -107 -134 -135 -146 -147 -157 -158 -177 -178 0
-41 -59 -60 -76 -77 -92 -93 -106 -108 -134 -135 -146 -147 -157 -158 -177 -178 0
-41 -59 -60 -76 -77 -92 -93 -107 -108 -134 -136 -146 -147 -157 -158 -177 -178 0
-41 -59 -60 -76 -77 -92 -93 -107 -108 -135 -136 -146 -148 -157 -158 -177 -178 0
-41 -59 -60 -76 -77 -92 -93 -107 -108 -135 -136 -147 -148 -157 -159 -177 -178 0
-41 -59 -60 -76 -77 -92 -93 -107 -108 -135 -136 -147 -148 -158 -159 -177 -179 0
-41 -59 -60 -76 -77 -92 -93 -107 -108 -135 -136 -147 -148 -158 -159 -178 -179 0
-41 -59 -60 -76 -77 -92 -93 -107 -108 -135 -136 -147 -148 -158 -159 -187 -188 0
-40 -58 -59 -75 -76 -91 -92 -106 -107 -134 -135 -146 -147 -168 -169 -177 -178 0
-41 -58 -60 -75 -76 -91 -92 -106 -107 -134 -135 -146 -147 -168 -169 -177 -178 0
-41 -59 -60 -75 -77 -91 -92 -106 -107 -134 -135 -146 -147 -168 -169 -177 -178 0
-41 -59 -60 -76 -77 -91 -93 -106 -107 -134 -135 -146 -147 -168 -169 -177 -178 0
-41 -59 -60 -76 -77 -92 -93 -106 -108 -134 -135 -146 -147 -168 -169 -177 -178 0
-41 -59 -60 -76 -77 -92 -93 -107 -108 -134 -136 -146 -147 -168 -169 -177 -178 0
-41 -59 -60 -76 -77 -92 -93 -107 -108 -135 -136 -146 -148 -168 -169 -177 -178 0
-41 -59 -60 -76 -77 -92 -93 -107 -108 -135 -136 -147 -148 -168 -170 -177 -178 0
-41 -59 -60 -76 -77 -92 -93 -107 -108 -135 -136 -147 -148 -169 -170 -177 -179 0
-41 -59 -60 -76 -77 -92 -93 -107 -108 -135 -136 -147 -148 -169 -170 -178 -179 0
-41 -59 -60 -76 -77 -92 -93 -107 -108 -135 -136 -147 -148 -169 -170 -187 -188 0
-41 -59 -60 -76 -77 -92 -93 -107 -108 -135 -136 -147 -148 -179 -180 -187 -188 0
-40 -58 -59 -75 -76 -91 -92 -106 -107 -134 -135 -158 -159 -168 -169 -177 -178 0
-41 -58 -60 -75 -76 -91 -92 -106 -107 -134 -135 -158 -159 -168 -169 -177 -178 0
-41 -59 -60 -75 -77 -91 -92 -106 -107 -134 -135 -158 -159 -168 -169 -177 -178 0
-41 -59 -60 -76 -77 -91 -93 -106 -107 -134 -135 -158 -159 -168 -169 -177 -178 0
-41 -59 -60 -76 -77 -92 -93 -106 -108 -134 -135 -158 -159 -168 -169 -177 -178 0
-41 -59 -60 -76 -77 -92 -93 -107 -108 -134 -136 -158 -159 -168 -169 -177 -178 0
-41 -59 -60 -76 -77 -92 -93 -107 -108 -135 -136 -158 -160 -168 -169 -177 -178 0
-41 -59 -60 -76 -77 -92 -93 -107 -108 -135 -136 -159 -160 -168 -170 -177 -178 0
-41 -59 -60 -76 -77 -92 -93 -107 -108 -135 -136 -159 -160 -169 -170 -177 -179 0
-41 -59 -60 -76 -77 -92 -93 -107 -108 -135 -136 -159 -160 -169 -170 -178 -179 0
-41 -59 -60 -76 -77 -92 -93 -107 -108 -135 -136 -159 -160 -169 -170 -187 -188 0
-41 -59 -60 -76 -77 -92 -93 -107 -108 -135 -136 -159 -160 -179 -180 -187 -188 0
-41 -59 -60 -76 -77 -92 -93 -107 -108 -135 -136 -170 -171 -179 -180 -187 -188 0
-40 -58 -59 -75 -76 -91 -92 -106 -107 -147 -148 -158 -159 -168 -169 -177 -178 0
-41 -58 -60 -75 -76 -91 -92 -106 -107 -147 -148 -158 -159 -168 -169 -177 -178 0
-41 -59 -60 -75 -77 -91 -92 -106 -107 -147 -148 -158 -159 -168 -169 -177 -178 0
-41 -59 -60 -76 -77 -91 -93 -106 -107 -147 -148 -158 -159 -168 -169 -177 -178 0
-41 -59 -60 -76 -77 -92 -93 -106 -108 -147 -148 -158 -159 -168 -169 -177 -178 0
-41 -59 -60 -76 -77 -92 -93 -107 -108 -147 -149 -158 -159 -168 -169 -177 -178 0
-41 -59 -60 -76 -77 -92 -93 -107 -108 -148 -149 -158 -160 -168 -169 -177 -178 0
-41 -59 -60 -76 -77 -92 -93 -107 -108 -148 -149 -159 -160 -168 -170 -177 -178 0
-41 -59 -60 -76 -77 -92 -93 -107 -108 -148 -149 -159 -160 -169 -170 -177 -179 0
-41 -59 -60 -76 -77 -92 -93 -107 -108 -148 -149 -159 -160 -169 -170 -178 -179 0
-41 -59 -60 -76 -77 -92 -93 -107 -108 -148 -149 -159 -160 -169 -170 -187 -188 0
-41 -59 -60 -76 -77 -92 -93 -107 -108 -148 -149 -159 -160 -179 -180 -187 -188 0
-41 -59 -60 -76 -77 -92 -93 -107 -108 -148 -149 -170 -171 -179 -180 -187 -188 0
-41 -59 -60 -76 -77 -92 -93 -107 -108 -160 -161 -170 -171 -179 -180 -187 -188 0
-39 -57 -58 -74 -75 -90 -91 -120 -121 -133 -134 -145 -146 -156 -157 -166 -167 0
-40 -57 -59 -74 -75 -90 -91 -120 -121 -133 -134 -145 -146 -156 -157 -166 -167 0
-41 -57 -60 -74 -75 -90 -91 -120 -121 -133 -134 -145 -146 -156 -157 -166 -167 0
-40 -58 -59 -74 -76 -90 -91 -120 -121 -133 -134 -145 -146 -156 -157 -166 -167 0
-41 -58 -60 -74 -76 -90 -91 -120 -121 -133 -134 -145 -146 -156 -157 -166 -167 0
-41 -59 -60 -74 -77 -90 -91 -120 -121 -133 -134 -145 -146 -156 -157 -166 -167 0
-40 -58 -59 -75 -76 -90 -92 -120 -121 -133 -134 -145 -146 -156 -157 -166 -167 0
-41 -58 -60 -75 -76 -90 -92 -120 -121 -133 -134 -145 -146 -156 -157 -166 -167 0
-41 -59 -60 -75 -77 -90 -92 -120 -121 -133 -134 -145 -146 -156 -157 -166 -167 0
-41 -59 -60 -76 -77 -90 -93 -120 -121 -133 -134 -145 -146 -156 -157 -166 -167 0
-40 -58 -59 -75 -76 -91 -92 -120 -122 -133 -134 -145 -146 -156 -157 -166 -167 0
-41 -58 -60 -75 -76 -91 -92 -120 -122 -133 -134 -145 -146 -156 -157 -166 -167 0
-41 -59 -60 -75 -77 -91 -92 -120 -122 -133 -134 -145 -146 -156 -157 -166 -167 0
-41 -59 -60 -76 -77 -91 -93 -120 -122 -133 -134 -145 -146 -156 -157 -166 -167 0
-41 -59 -60 -76 -77 -92 -93 -120 -123 -133 -134 -145 -146 -156 -157 -166 -167 0
-40 -58 -59 -75 -76 -91 -92 -121 -122 -133 -135 -145 -146 -156 -157 -166 -167 0
-41 -58 -60 -75 -76 -91 -92 -121 -122 -133 -135 -145 -146 -156 -157 -166 -167 0
-41 -59 -60 -75 -77 -91 -92 -121 -122 -133 -135 -145 -146 -156 -157 -166 -167 0
-41 -59 -60 -76 -77 -91 -93 -121 -122 -133 -135 -145 -146 -156 -157 -166 -167 0
-41 -59 -60 -76 -77 -92 -93 -121 -123 -133 -135 -145 -146 -156 -157 -166 -167 0
-41 -59 -60 -76 -77 -92 -93 -122 -123 -133 -136 -145 -146 -156 -157 -166 -167 0
-40 -58 -59 -75 -76 -91 -92 -121 -122 -134 -135 -145 -147 -156 -157 -166 -167 0
-41 -58 -60 -75 -76 -91 -92 -121 -122 -134 -135 -145 -147 -156 -157 -166 -167 0
-41 -59 -60 -75 -77 -91 -92 -121 -122 -134 -135 -145 -147 -156 -157 -166 -167 0
-41 -59 -60 -76 -77 -91 -93 -121 -122 -134 -135 -145 -147 -156 -157 -166 -167 0
-41 -59 -60 -76 -77 -92 -93 -121 -123 -134 -135 -145 -147 -156 -157 -166 -167 0
-41 -59 -60 -76 -77 -92 -93 -122 -123 -134 -136 -145 -147 -156 -157 -166 -167 0
-41 -59 -60 -76 -77 -92 -93 -122 -123 -135 -136 -145 -148 -156 -157 -166 -167 0
-40 -58 -59 -75 -76 -91 -92 -121 -122 -134 -135 -146 -147 -156 -158 -166 -167 0
-41 -58 -60 -75 -76 -91 -92 -121 -122 -134 -135 -146 -147 -156 -158 -166 -167 0
-41 -59 -60 -75 -77 -91 -92 -121 -122 -134 -135 -146 -147 -156 -158 -166 -167 0
-41 -59 -60 -76 -77 -91 -93 -121 -122 -134 -135 -146 -147 -156 -158 -166 -167 0
-41 -59 -60 -76 -77 -92 -93 -121 -123 -134 -135 -146 -147 -156 -158 -166 -167 0
-41 -59 -60 -76 -77 -92 -93 -122 -123 -134 -136 -146 -147 -156 -158 -166 -167 0
-41 -59 -60 -76 -77 -92 -93 -122 -123 -135 -136 -146 -148 -156 -158 -166 -167 0
-41 -59 -60 -76 -77 -92 -93 -122 -123 -135 -136 -147 -148 -156 -159 -166 -167 0
-40 -58 -59 -75 -76 -91 -92 -121 -122 -134 -135 -146 -147 -157 -158 -166 -168 0
-41 -58 -60 -75 -76 -91 -92 -121 -122 -134 -135 -146 -147 -157 -158 -166 -168 0
-41 -59 -60 -75 -77 -91 -92 -121 -122 -134 -135 -146 -147 -157 -158 -166 -168 0
-41 -59 -60 -76 -77 -91 -93 -121 -122 -134 -135 -146 -147 -157 -158 -166 -168 0
-41 -59 -60 -76 -77 -92 -93 -121 -123 -134 -135 -146 -147 -157 -158 -166 -168 0
-41 -59 -60 -76 -77 -92 -93 -122 -123 -134 -136 -146 -147 -157 -158 -166 -168 0
-41 -59 -60 -76 -77 -92 -93 -122 -123 -135 -136 -146 -148 -157 -158 -166 -168 0
-41 -59 -60 -76 -77 -92 -93 -122 -123 -135 -136 -147 -148 -157 -159 -166 -168 0
-41 -59 -60 -76 -77 -92 -93 -122 -123 -135 -136 -147 -148 -158 -159 -166 -169 0
-40 -58 -59 -75 -76 -91 -92 -121 -122 -134 -135 -146 -147 -157 -158 -167 -168 0
-41 -58 -60 -75 -76 -91 -92 -121 -122 -134 -135 -146 -147 -157 -158 -167 -168 0
-41 -59 -60 -75 -77 -91 -92 -121 -122 -134 -135 -146 -147 -157 -158 -167 -168 0
-41 -59 -60 -76 -77 -91 -93 -121 -122 -134 -135 -146 -147 -157 -158 -167 -168 0
-41 -59 -60 -76 -77 -92 -93 -121 -123 -134 -135 -146 -147 -157 -158 -167 -168 0
-41 -59 -60 -76 -77 -92 -93 -122 -123 -134 -136 -146 -147 -157 -158 -167 -168 0
-41 -59 -60 -76 -77 -92 -93 -122 -123 -135 -136 -146 -148 -157 -158 -167 -168 0
-41 -59 -60 -76 -77 -92 -93 -122 -123 -135 -136 -147 -148 -157 -159 -167 -168 0
-41 -59 -60 -76 -77 -92 -93 -122 -123 -135 -136 -147 -148 -158 -159 -167 -169 0
-41 -59 -60 -76 -77 -92 -93 -122 -123 -135 -136 -147 -148 -158 -159 -168 -169 0
-40 -58 -59 -75 -76 -91 -92 -121 -122 -134 -135 -146 -147 -157 -158 -177 -178 0
-41 -58 -60 -75 -76 -91 -92 -121 -122 -134 -135 -146 -147 -157 -158 -177 -178 0
-41 -59 -60 -75 -77 -91 -92 -121 -122 -134 -135 -146 -147 -157 -158 -177 -178 0
-41 -59 -60 -76 -77 -91 -93 -121 -122 -134 -135 -146 -147 -157 -158 -177 -178 0
-41 -59 -60 -76 -77 -92 -93 -121 -123 -134 -135 -146 -147 -157 -158 -177 -178 0
-41 -59 -60 -76 -77 -92 -93 -122 -123 -134 -136 -146 -147 -157 -158 -177 -178 0
-41 -59 -60 -76 -77 -92 -93 -122 -123 -135 -136 -146 -148 -157 -158 -177 -178 0
-41 -59 -60 -76 -77 -92 -93 -122 -123 -135 -136 -147 -148 -157 -159 -177 -178 0
-41 -59 -60 -76 -77 -92 -93 -122 -123 -135 -136 -147 -148 -158 -159 -177 -179 0
-41 -59 -60 -76 -77 -92 -93 -122 -123 -135 -136 -147 -148 -158 -159 -178 -179 0
-41 -59 -60 -76 -77 -92 -93 -122 -123 -135 -136 -147 -148 -158 -159 -187 -188 0
-40 -58 -59 -75 -76 -91 -92 -121 -122 -134 -135 -146 -147 -168 -169 -177 -178 0
-41 -58 -60 -75 -76 -91 -92 -121 -122 -134 -135 -146 -147 -168 -169 -177 -178 0
-41 -59 -60 -75 -77 -91 -92 -121 -122 -134 -135 -146 -147 -168 -169 -177 -178 0
-41 -59 -60 -76 -77 -91 -93 -121 -122 -134 -135 -146 -147 -168 -169 -177 -178 0
-41 -59 -60 -76 -77 -92 -93 -121 -123 -134 -135 -146 -147 -168 -169 -177 -178 0
-41 -59 -60 -76 -77 -92 -93 -122 -123 -134 -136 -146 -147 -168 -169 -177 -178 0
-41 -59 -60 -76 -77 -92 -93 -122 -123 -135 -136 -146 -148 -168 -169 -177 -178 0
-41 -59 -60 -76 -77 -92 -93 -122 -123 -135 -136 -147 -148 -168 -170 -177 -178 0
-41 -59 -60 -76 -77 -92 -93 -122 -123 -135 -136 -147 -148 -169 -170 -177 -179 0
-41 -59 -60 -76 -77 -92 -93 -122 -123 -135 -136 -147 -148 -169 -170 -178 -179 0
-41 -59 -60 -76 -77 -92 -93 -122 -123 -135 -136 -147 -148 -169 -170 -187 -188 0
-41 -59 -60 -76 -77 -92 -93 -122 -123 -135 -136 -147 -148 -179 -180 -187 -188 0
-40 -58 -59 -75 -76 -91 -92 -121 -122 -134 -135 -158 -159 -168 -169 -177 -178 0
-41 -58 -60 -75 -76 -91 -92 -121 -122 -134 -135 -158 -159 -168 -169 -177 -178 0
-41 -59 -60 -75 -77 -91 -92 -121 -122 -134 -135 -158 -159 -168 -169 -177 -178 0
-41 -59 -60 -76 -77 -91 -93 -121 -122 -134 -135 -158 -159 -168 -169 -177 -178 0
-41 -59 -60 -76 -77 -92 -93 -121 -123 -134 -135 -158 -159 -168 -169 -177 -178 0
-41 -59 -60 -76 -77 -92 -93 -122 -123 -134 -136 -158 -159 -168 -169 -177 -178 0
-41 -59 -60 -76 -77 -92 -93 -122 -123 -135 -136 -158 -160 -168 -169 -177 -178 0
-41 -59 -60 -76 -77 -92 -93 -122 -123 -135 -136 -159 -160 -168 -170 -177 -178 0
-41 -59 -60 -76 -77 -92 -93 -122 -123 -135 -136 -159 -160 -169 -170 -177 -179 0
-41 -59 -60 -76 -77 -92 -93 -122 -123 -135 -136 -159 -160 -169 -170 -178 -179 0
-41 -59 -60 -76 -77 -92 -93 -122 -123 -135 -136 -159 -160 -169 -170 -187 -188 0
-41 -59 -60 -76 -77 -92 -93 -122 -123 -135 -136 -159 -160 -179 -180 -187 -188 0
-41 -59 -60 -76 -77 -92 -93 -122 -123 -135 -136 -170 -171 -179 -180 -187 -188 0
-40 -58 -59 -75 -76 -91 -92 -121 -122 -147 -148 -158 -159 -168 -169 -177 -178 0
-41 -58 -60 -75 -76 -91 -92 -121 -122 -147 -148 -158 -159 -168 -169 -177 -178 0
-41 -59 -60 -75 -77 -91 -92 -121 -122 -147 -148 -158 -159 -168 -169 -177 -178 0
-41 -59 -60 -76 -77 -91 -93 -121 -122 -147 -148 -158 -159 -168 -169 -177 -178 0
-41 -59 -60 -76 -77 -92 -93 -121 -123 -147 -148 -158 -159 -168 -169 -177 -178 0
-41 -59 -60 -76 -77 -92 -93 -122 -123 -147 -149 -158 -159 -168 -169 -177 -178 0
-41 -59 -60 -76 -77 -92 -93 -122 -123 -148 -149 -158 -160 -168 -169 -177 -178 0
-41 -59 -60 -76 -77 -92 -93 -122 -123 -148 -149 -159 -160 -168 -170 -177 -178 0
-41 -59 -60 -76 -77 -92 -93 -122 -123 -148 -149 -159 -160 -169 -170 -177 -179 0
-41 -59 -60 -76 -77 -92 -93 -122 -123 -148 -149 -159 -160 -169 -170 -178 -179 0
-41 -59 -60 -76 -77 -92 -93 -122 -123 -148 -149 -159 -160 -169 -170 -187 -188 0
-41 -59 -60 -76 -77 -92 -93 -122 -123 -148 -149 -159 -160 -179 -180 -187 -188 0
-41 -59 -60 -76 -77 -92 -93 -122 -123 -148 -149 -170 -171 -179 -180 -187 -188 0
-41 -59 -60 -76 -77 -92 -93 -122 -123 -160 -161 -170 -171 -179 -180 -187 -188 0
-40 -58 -59 -75 -76 -91 -92 -135 -136 -147 -148 -158 -159 -168 -169 -177 -178 0
-41 -58 -60 -75 -76 -91 -92 -135 -136 -147 -148 -158 -159 -168 -169 -177 -178 0
-41 -59 -60 -75 -77 -91 -92 -135 -136 -147 -148 -158 -159 -168 -169 -177 -178 0
-41 -59 -60 -76 -77 -91 -93 -135 -136 -147 -148 -158 -159 -168 -169 -177 -178 0
-41 -59 -60 -76 -77 -92 -93 -135 -137 -147 -148 -158 -159 -168 -169 -177 -178 0
-41 -59 -60 -76 -77 -92 -93 -136 -137 -147 -149 -158 -159 -168 -169 -177 -178 0
-41 -59 -60 -76 -77 -92 -93 -136 -137 -148 -149 -158 -160 -168 -169 -177 -178 0
-41 -59 -60 -76 -77 -92 -93 -136 -137 -148 -149 -159 -160 -168 -170 -177 -178 0
-41 -59 -60 -76 -77 -92 -93 -136 -137 -148 -149 -159 -160 -169 -170 -177 -179 0
-41 -59 -60 -76 -77 -92 -93 -136 -137 -148 -149 -159 -160 -169 -170 -178 -179 0
-41 -59 -60 -76 -77 -92 -93 -136 -137 -148 -149 -159 -160 -169 -170 -187 -188 0
-41 -59 -60 -76 -77 -92 -93 -136 -137 -148 -149 -159 -160 -179 -180 -187 -188 0
-41 -59 -60 -76 -77 -92 -93 -136 -137 -148 -149 -170 -171 -179 -180 -187 -188 0
-41 -59 -60 -76 -77 -92 -93 -136 -137 -160 -161 -170 -171 -179 -180 -187 -188 0
-41 -59 -60 -76 -77 -92 -93 -149 -150 -160 -161 -170 -171 -179 -180 -187 -188 0
-39 -57 -58 -74 -75 -106 -107 -120 -121 -133 -134 -145 -146 -156 -157 -166 -167 0
-40 -57 -59 -74 -75 -106 -107 -120 -121 -133 -134 -145 -146 -156 -157 -166 -167 0
-41 -57 -60 -74 -75 -106 -107 -120 -121 -133 -134 -145 -146 -156 -157 -166 -167 0
-40 -58 -59 -74 -76 -106 -107 -120 -121 -133 -134 -145 -146 -156 -157 -166 -167 0
-41 -58 -60 -74 -76 -106 -107 -120 -121 -133 -134 -145 -146 -156 -157 -166 -167 0
-41 -59 -60 -74 -77 -106 -107 -120 -121 -133 -134 -145 -146 -156 -157 -166 -167 0
-40 -58 -59 -75 -76 -106 -108 -120 -121 -133 -134 -145 -146 -156 -157 -166 -167 0
-41 -58 -60 -75 -76 -106 -108 -120 -121 -133 -134 -145 -146 -156 -157 -166 -167 0
-41 -59 -60 -75 -77 -106 -108 -120 -121 -133 -134 -145 -146 -156 -157 -166 -167 0
-41 -59 -60 -76 -77 -106 -109 -120 -121 -133 -134 -145 -146 -156 -157 -166 -167 0
-40 -58 -59 -75 -76 -107 -108 -120 -122 -133 -134 -145 -146 -156 -157 -166 -167 0
-41 -58 -60 -75 -76 -107 -108 -120 -122 -133 -134 -145 -146 -156 -157 -166 -167 0
-41 -59 -60 -75 -77 -107 -108 -120 -122 -133 -134 -145 -146 -156 -157 -166 -167 0
-41 -59 -60 -76 -77 -107 -109 -120 -122 -133 -134 -145 -146 -156 -157 -166 -167 0
-41 -59 -60 -76 -77 -108 -109 -120 -123 -133 -134 -145 -146 -156 -157 -166 -167 0
-40 -58 -59 -75 -76 -107 -108 -121 -122 -133 -135 -145 -146 -156 -157 -166 -167 0
-41 -58 -60 -75 -76 -107 -108 -121 -122 -133 -135 -145 -146 -156 -157 -166 -167 0
-41 -59 -60 -75 -77 -107 -108 -121 -122 -133 -135 -145 -146 -156 -157 -166 -167 0
-41 -59 -60 -76 -77 -107 -109 -121 -122 -133 -135 -145 -146 -156 -157 -166 -167 0
-41 -59 -60 -76 -77 -108 -109 -121 -123 -133 -135 -145 -146 -156 -157 -166 -167 0
-41 -59 -60 -76 -77 -108 -109 -122 -123 -133 -136 -145 -146 -156 -157 -166 -167 0
-40 -58 -59 -75 -76 -107 -108 -121 -122 -134 -135 -145 -147 -156 -157 -166 -167 0
-41 -58 -60 -75 -76 -107 -108 -121 -122 -134 -135 -145 -147 -156 -157 -166 -167 0
-41 -59 -60 -75 -77 -107 -108 -121 -122 -134 -135 -145 -147 -156 -157 -166 -167 0
-41 -59 -60 -76 -77 -107 -109 -121 -122 -134 -135 -145 -147 -156 -157 -166 -167 0
-41 -59 -60 -76 -77 -108 -109 -121 -123 -134 -135 -145 -147 -156 -157 -166 -167 0
-41 -59 -60 -76 -77 -108 -109 -122 -123 -134 -136 -145 -147 -156 -157 -166 -167 0
-41 -59 -60 -76 -77 -108 -109 -122 -123 -135 -136 -145 -148 -156 -157 -166 -167 0
-40 -58 -59 -75 -76 -107 -108 -121 -122 -134 -135 -146 -147 -156 -158 -166 -167 0
-41 -58 -60 -75 -76 -107 -108 -121 -122 -134 -135 -146 -147 -156 -158 -166 -167 0
-41 -59 -60 -75 -77 -107 -108 -121 -122 -134 -135 -146 -147 -156 -158 -166 -167 0
-41 -59 -60 -76 -77 -107 -109 -121 -122 -134 -135 -146 -147 -156 -158 -166 -167 0
-41 -59 -60 -76 -77 -108 -109 -121 -123 -134 -135 -146 -147 -156 -158 -166 -167 0
-41 -59 -60 -76 -77 -108 -109 -122 -123 -134 -136 -146 -147 -156 -158 -166 -167 0
-41 -59 -60 -76 -77 -108 -109 -122 -123 -135 -136 -146 -148 -156 -158 -166 -167 0
-41 -59 -60 -76 -77 -108 -109 -122 -123 -135 -136 -147 -148 -156 -159 -166 -167 0
-40 -58 -59 -75 -76 -107 -108 -121 -122 -134 -135 -146 -147 -157 -158 -166 -168 0
-41 -58 -60 -75 -76 -107 -108 -121 -122 -134 -135 -146 -147 -157 -158 -166 -168 0
-41 -59 -60 -75 -77 -107 -108 -121 -122 -134 -135 -146 -147 -157 -158 -166 -168 0
-41 -59 -60 -76 -77 -107 -109 -121 -122 -134 -135 -146 -147 -157 -158 -166 -168 0
-41 -59 -60 -76 -77 -108 -109 -121 -123 -134 -135 -146 -147 -157 -158 -166 -168 0
-41 -59 -60 -76 -77 -108 -109 -122 -123 -134 -136 -146 -147 -157 -158 -166 -168 0
-41 -59 -60 -76 -77 -108 -109 -122 -123 -135 -136 -146 -148 -157 -158 -166 -168 0
-41 -59 -60 -76 -77 -108 -109 -122 -123 -135 -136 -147 -148 -157 -159 -166 -168 0
-41 -59 -60 -76 -77 -108 -109 -122 -123 -135 -136 -147 -148 -158 -159 -166 -169 0
-40 -58 -59 -75 -76 -107 -108 -121 -122 -134 -135 -146 -147 -157 -158 -167 -168 0
-41 -58 -60 -75 -76 -107 -108 -121 -122 -134 -135 -146 -147 -157 -158 -167 -168 0
-41 -59 -60 -75 -77 -107 -108 -121 -122 -134 -135 -146 -147 -157 -158 -167 -168 0
-41 -59 -60 -76 -77 -107 -109 -121 -122 -134 -135 -146 -147 -157 -158 -167 -168 0
-41 -59 -60 -76 -77 -108 -109 -121 -123 -134 -135 -146 -147 -157 -158 -167 -168 0
-41 -59 -60 -76 -77 -108 -109 -122 -123 -134 -136 -146 -147 -157 -158 -167 -168 0
-41 -59 -60 -76 -77 -108 -109 -122 -123 -135 -136 -146 -148 -157 -158 -167 -168 0
-41 -59 -60 -76 -77 -108 -109 -122 -123 -135 -136 -147 -148 -157 -159 -167 -168 0
-41 -59 -60 -76 -77 -108 -109 -122 -123 -135 -136 -147 -148 -158 -159 -167 -169 0
-41 -59 -60 -76 -77 -108 -109 -122 -123 -135 -136 -147 -148 -158 -159 -168 -169 0
-40 -58 -59 -75 -76 -107 -108 -121 -122 -134 -135 -146 -147 -157 -158 -177 -178 0
-41 -58 -60 -75 -76 -107 -108 -121 -122 -134 -135 -146 -147 -157 -158 -177 -178 0
-41 -59 -60 -75 -77 -107 -108 -121 -122 -134 -135 -146 -147 -157 -158 -177 -178 0
-41 -59 -60 -76 -77 -107 -109 -121 -122 -134 -135 -146 -147 -157 -158 -177 -178 0
-41 -59 -60 -76 -77 -108 -109 -121 -123 -134 -135 -146 -147 -157 -158 -177 -178 0
-41 -59 -60 -76 -77 -108 -109 -122 -123 -134 -136 -146 -147 -157 -158 -177 -178 0
-41 -59 -60 -76 -77 -108 -109 -122 -123 -135 -136 -146 -148 -157 -158 -177 -178 0
-41 -59 -60 -76 -77 -108 -109 -122 -123 -135 -136 -147 -148 -157 -159 -177 -178 0
-41 -59 -60 -76 -77 -108 -109 -122 -123 -135 -136 -147 -148 -158 -159 -177 -179 0
-41 -59 -60 -76 -77 -108 -109 -122 -123 -135 -136 -147 -148 -158 -159 -178 -179 0
-41 -59 -60 -76 -77 -108 -109 -122 -123 -135 -136 -147 -148 -158 -159 -187 -188 0
-40 -58 -59 -75 -76 -107 -108 -121 -122 -134 -135 -146 -147 -168 -169 -177 -178 0
-41 -58 -60 -75 -76 -107 -108 -121 -122 -134 -135 -146 -147 -168 -169 -177 -178 0
-41 -59 -60 -75 -77 -107 -108 -121 -122 -134 -135 -146 -147 -168 -169 -177 -178 0
-41 -59 -60 -76 -77 -107 -109 -121 -122 -134 -135 -146 -147 -168 -169 -177 -178 0
-41 -59 -60 -76 -77 -108 -109 -121 -123 -134 -135 -146 -147 -168 -169 -177 -178 0
-41 -59 -60 -76 -77 -108 -109 -122 -123 -134 -136 -146 -147 -168 -169 -177 -178 0
-41 -59 -60 -76 -77 -108 -109 -122 -123 -135 -136 -146 -148 -168 -169 -177 -178 0
-41 -59 -60 -76 -77 -108 -109 -122 -123 -135 -136 -147 -148 -168 -170 -177 -178 0
-41 -59 -60 -76 -77 -108 -109 -122 -123 -135 -136 -147 -148 -169 -170 -177 -179 0
-41 -59 -60 -76 -77 -108 -109 -122 -123 -135 -136 -147 -148 -169 -170 -178 -179 0
-41 -59 -60 -76 -77 -108 -109 -122 -123 -135 -136 -147 -148 -169 -170 -187 -188 0
-41 -59 -60 -76 -77 -108 -109 -122 -123 -135 -136 -147 -148 -179 -180 -187 -188 0
-40 -58 -59 -75 -76 -107 -108 -121 -122 -134 -135 -158 -159 -168 -169 -177 -178 0
-41 -58 -60 -75 -76 -107 -108 -121 -122 -134 -135 -158 -159 -168 -169 -177 -178 0
-41 -59 -60 -75 -77 -107 -108 -121 -122 -134 -135 -158 -159 -168 -169 -177 -178 0
-41 -59 -60 -76 -77 -107 -109 -121 -122 -134 -135 -158 -159 -168 -169 -177 -178 0
-41 -59 -60 -76 -77 -108 -109 -121 -123 -134 -135 -158 -159 -168 -169 -177 -178 0
-41 -59 -60 -76 -77 -108 -109 -122 -123 -134 -136 -158 -159 -168 -169 -177 -178 0
-41 -59 -60 -76 -77 -108 -109 -122 -123 -135 -136 -158 -160 -168 -169 -177 -178 0
-41 -59 -60 -76 -77 -108 -109 -122 -123 -135 -136 -159 -160 -168 -170 -177 -178 0
-41 -59 -60 -76 -77 -108 -109 -122 -123 -135 -136 -159 -160 -169 -170 -177 -179 0
-41 -59 -60 -76 -77 -108 -109 -122 -123 -135 -136 -159 -160 -169 -170 -178 -179 0
-41 -59 -60 -76 -77 -108 -109 -122 -123 -135 -136 -159 -160 -169 -170 -187 -188 0
-41 -59 -60 -76 -77 -108 -109 -122 -123 -135 -136 -159 -160 -179 -180 -187 -188 0
-41 -59 -60 -76 -77 -108 -109 -122 -123 -135 -136 -170 -171 -179 -180 -187 -188 0
-40 -58 -59 -75 -76 -107 -108 -121 -122 -147 -148 -158 -159 -168 -169 -177 -178 0
-41 -58 -60 -75 -76 -107 -108 -121 -122 -147 -148 -158 -159 -168 -169 -177 -178 0
-41 -59 -60 -75 -77 -107 -108 -121 -122 -147 -148 -158 -159 -168 -169 -177 -178 0
-41 -59 -60 -76 -77 -107 -109 -121 -122 -147 -148 -158 -159 -168 -169 -177 -178 0
-41 -59 -60 -76 -77 -108 -109 -121 -123 -147 -148 -158 -159 -168 -169 -177 -178 0
-41 -59 -60 -76 -77 -108 -109 -122 -123 -147 -149 -158 -159 -168 -169 -177 -178 0
-41 -59 -60 -76 -77 -108 -109 -122 -123 -148 -149 -158 -160 -168 -169 -177 -178 0
-41 -59 -60 -76 -77 -108 -109 -122 -123 -148 -149 -159 -160 -168 -170 -177 -178 0
-41 -59 -60 -76 -77 -108 -109 -122 -123 -148 -149 -159 -160 -169 -170 -177 -179 0
-41 -59 -60 -76 -77 -108 -109 -122 -123 -148 -149 -159 -160 -169 -170 -178 -179 0
-41 -59 -60 -76 -77 -108 -109 -122 -123 -148 -149 -159 -160 -169 -170 -187 -188 0
-41 -59 -60 -76 -77 -108 -109 -122 -123 -148 -149 -159 -160 -179 -180 -187 -188 0
-41 -59 -60 -76 -77 -108 -109 -122 -123 -148 -149 -170 -171 -179 -180 -187 -188 0
-41 -59 -60 -76 -77 -108 -109 -122 -123 -160 -161 -170 -171 -179 -180 -187 -188 0
-40 -58 -59 -75 -76 -107 -108 -135 -136 -147 -148 -158 -159 -168 -169 -177 -178 0
-41 -58 -60 -75 -76 -107 -108 -135 -136 -147 -148 -158 -159 -168 -169 -177 -178 0
-41 -59 -60 -75 -77 -107 -108 -135 -136 -147 -148 -158 -159 -168 -169 -177 -178 0
-41 -59 -60 -76 -77 -107 -109 -135 -136 -147 -148 -158 -159 -168 -169 -177 -178 0
-41 -59 -60 -76 -77 -108 -109 -135 -137 -147 -148 -158 -159 -168 -169 -177 -178 0
-41 -59 -60 -76 -77 -108 -109 -136 -137 -147 -149 -158 -159 -168 -169 -177 -178 0
-41 -59 -60 -76 -77 -108 -109 -136 -137 -148 -149 -158 -160 -168 -169 -177 -178 0
-41 -59 -60 -76 -77 -108 -109 -136 -137 -148 -149 -159 -160 -168 -170 -177 -178 0
-41 -59 -60 -76 -77 -108 -109 -136 -137 -148 -149 -159 -160 -169 -170 -177 -179 0
-41 -59 -60 -76 -77 -108 -109 -136 -137 -148 -149 -159 -160 -169 -170 -178 -179 0
-41 -59 -60 -76 -77 -108 -109 -136 -137 -148 -149 -159 -160 -169 -170 -187 -188 0
-41 -59 -60 -76 -77 -108 -109 -136 -137 -148 -149 -159 -160 -179 -180 -187 -188 0
-41 -59 -60 -76 -77 -108 -109 -136 -137 -148 -149 -170 -171 -179 -180 -187 -188 0
-41 -59 -60 -76 -77 -108 -109 -136 -137 -160 -161 -170 -171 -179 -180 -187 -188 0
-41 -59 -60 -76 -77 -108 -109 -149 -150 -160 -161 -170 -171 -179 -180 -187 -188 0
-40 -58 -59 -75 -76 -122 -123 -135 -136 -147 -148 -158 -159 -168 -169 -177 -178 0
-41 -58 -60 -75 -76 -122 -123 -135 -136 -147 -148 -158 -159 -168 -169 -177 -178 0
-41 -59 -60 -75 -77 -122 -123 -135 -136 -147 -148 -158 -159 -168 -169 -177 -178 0
-41 -59 -60 -76 -77 -122 -124 -135 -136 -147 -148 -158 -159 -168 -169 -177 -178 0
-41 -59 -60 -76 -77 -123 -124 -135 -137 -147 -148 -158 -159 -168 -169 -177 -178 0
-41 -59 -60 -76 -77 -123 -124 -136 -137 -147 -149 -158 -159 -168 -169 -177 -178 0
-41 -59 -60 -76 -77 -123 -124 -136 -137 -148 -149 -158 -160 -168 -169 -177 -178 0
-41 -59 -60 -76 -77 -123 -124 -136 -137 -148 -149 -159 -160 -168 -170 -177 -178 0
-41 -59 -60 -76 -77 -123 -124 -136 -137 -148 -149 -159 -160 -169 -170 -177 -179 0
-41 -59 -60 -76 -77 -123 -124 -136 -137 -148 -149 -159 -160 -169 -170 -178 -179 0
-41 -59 -60 -76 -77 -123 -124 -136 -137 -148 -149 -159 -160 -169 -170 -187 -188 0
-41 -59 -60 -76 -77 -123 -124 -136 -137 -148 -149 -159 -160 -179 -180 -187 -188 0
-41 -59 -60 -76 -77 -123 -124 -136 -137 -148 -149 -170 -171 -179 -180 -187 -188 0
-41 -59 -60 -76 -77 -123 -124 -136 -137 -160 -161 -170 -171 -179 -180 -187 -188 0
-41 -59 -60 -76 -77 -123 -124 -149 -150 -160 -161 -170 -171 -179 -180 -187 -188 0
-41 -59 -60 -76 -77 -137 -138 -149 -150 -160 -161 -170 -171 -179 -180 -187 -188 0
-39 -57 -58 -91 -92 -106 -107 -120 -121 -133 -134 -145 -146 -156 -157 -166 -167 0
-40 -57 -59 -91 -92 -106 -107 -120 -121 -133 -134 -145 -146 -156 -157 -166 -167 0
-41 -57 -60 -91 -92 -106 -107 -120 -121 -133 -134 -145 -146 -156 -157 -166 -167 0
-40 -58 -59 -91 -93 -106 -107 -120 -121 -133 -134 -145 -146 -156 -157 -166 -167 0
-41 -58 -60 -91 -93 -106 -107 -120 -121 -133 -134 -145 -146 -156 -157 -166 -167 0
-41 -59 -60 -91 -94 -106 -107 -120 -121 -133 -134 -145 -146 -156 -157 -166 -167 0
-40 -58 -59 -92 -93 -106 -108 -120 -121 -133 -134 -145 -146 -156 -157 -166 -167 0
-41 -58 -60 -92 -93 -106 -108 -120 -121 -133 -134 -145 -146 -156 -157 -166 -167 0
-41 -59 -60 -92 -94 -106 -108 -120 -121 -133 -134 -145 -146 -156 -157 -166 -167 0
-41 -59 -60 -93 -94 -106 -109 -120 -121 -133 -134 -145 -146 -156 -157 -166 -167 0
-40 -58 -59 -92 -93 -107 -108 -120 -122 -133 -134 -145 -146 -156 -157 -166 -167 0
-41 -58 -60 -92 -93 -107 -108 -120 -122 -133 -134 -145 -146 -156 -157 -166 -167 0
-41 -59 -60 -92 -94 -107 -108 -120 -122 -133 -134 -145 -146 -156 -157 -166 -167 0
-41 -59 -60 -93 -94 -107 -109 -120 -122 -133 -134 -145 -146 -156 -157 -166 -167 0
-41 -59 -60 -93 -94 -108 -109 -120 -123 -133 -134 -145 -146 -156 -157 -166 -167 0
-40 -58 -59 -92 -93 -107 -108 -121 -122 -133 -135 -145 -146 -156 -157 -166 -167 0
-41 -58 -60 -92 -93 -107 -108 -121 -122 -133 -135 -145 -146 -156 -157 -166 -167 0
-41 -59 -60 -92 -94 -107 -108 -121 -122 -133 -135 -145 -146 -156 -157 -166 -167 0
-41 -59 -60 -93 -94 -107 -109 -121 -122 -133 -135 -145 -146 -156 -157 -166 -167 0
-41 -59 -60 -93 -94 -108 -109 -121 -123 -133 -135 -145 -146 -156 -157 -166 -167 0
-41 -59 -60 -93 -94 -108 -109 -122 -123 -133 -136 -145 -146 -156 -157 -166 -167 0
-40 -58 -59 -92 -93 -107 -108 -121 -122 -134 -135 -145 -147 -156 -157 -166 -167 0
-41 -58 -60 -92 -93 -107 -108 -121 -122 -134 -135 -145 -147 -156 -157 -166 -167 0
-41 -59 -60 -92 -94 -107 -108 -121 -122 -134 -135 -145 -147 -156 -157 -166 -167 0
-41 -59 -60 -93 -94 -107 -109 -121 -122 -134 -135 -145 -147 -156 -157 -166 -167 0
-41 -59 -60 -93 -94 -108 -109 -121 -123 -134 -135 -145 -147 -156 -157 -166 -167 0
-41 -59 -60 -93 -94 -108 -109 -122 -123 -134 -136 -145 -147 -156 -157 -166 -167 0
-41 -59 -60 -93 -94 -108 -109 -122 -123 -135 -136 -145 -148 -156 -157 -166 -167 0
-40 -58 -59 -92 -93 -107 -108 -121 -122 -134 -135 -146 -147 -156 -158 -166 -167 0
-41 -58 -60 -92 -93 -107 -108 -121 -122 -134 -135 -146 -147 -156 -158 -166 -167 0
-41 -59 -60 -92 -94 -107 -108 -121 -122 -134 -135 -146 -147 -156 -158 -166 -167 0
-41 -59 -60 -93 -94 -107 -109 -121 -122 -134 -135 -146 -147 -156 -158 -166 -167 0
-41 -59 -60 -93 -94 -108 -109 -121 -123 -134 -135 -146 -147 -156 -158 -166 -167 0
-41 -59 -60 -93 -94 -108 -109 -122 -123 -134 -136 -146 -147 -156 -158 -166 -167 0
-41 -59 -60 -93 -94 -108 -109 -122 -123 -135 -136 -146 -148 -156 -158 -166 -167 0
-41 -59 -60 -93 -94 -108 -109 -122 -123 -135 -136 -147 -148 -156 -159 -166 -167 0
-40 -58 -59 -92 -93 -107 -108 -121 -122 -134 -135 -146 -147 -157 -158 -166 -168 0
-41 -58 -60 -92 -93 -107 -108 -121 -122 -134 -135 -146 -147 -157 -158 -166 -168 0
-41 -59 -60 -92 -94 -107 -108 -121 -122 -134 -135 -146 -147 -157 -158 -166 -168 0
-41 -59 -60 -93 -94 -107 -109 -121 -122 -134 -135 -146 -147 -157 -158 -166 -168 0
-41 -59 -60 -93 -94 -108 -109 -121 -123 -134 -135 -146 -147 -157 -158 -166 -168 0
-41 -59 -60 -93 -94 -108 -109 -122 -123 -134 -136 -146 -147 -157 -158 -166 -168 0
-41 -59 -60 -93 -94 -108 -109 -122 -123 -135 -136 -146 -148 -157 -158 -166 -168 0
-41 -59 -60 -93 -94 -108 -109 -122 -123 -135 -136 -147 -148 -157 -159 -166 -168 0
-41 -59 -60 -93 -94 -108 -109 -122 -123 -135 -136 -147 -148 -158 -159 -166 -169 0
-40 -58 -59 -92 -93 -107 -108 -121 -122 -134 -135 -146 -147 -157 -158 -167 -168 0
-41 -58 -60 -92 -93 -107 -108 -121 -122 -134 -135 -146 -147 -157 -158 -167 -168 0
-41 -59 -60 -92 -94 -107 -108 -121 -122 -134 -135 -146 -147 -157 -158 -167 -168 0
-41 -59 -60 -93 -94 -107 -109 -121 -122 -134 -135 -146 -147 -157 -158 -167 -168 0
-41 -59 -60 -93 -94 -108 -109 -121 -123 -134 -135 -146 -147 -157 -158 -167 -168 0
-41 -59 -60 -93 -94 -108 -109 -122 -123 -134 -136 -146 -147 -157 -158 -167 -168 0
-41 -59 -60 -93 -94 -108 -109 -122 -123 -135 -136 -146 -148 -157 -158 -167 -168 0
-41 -59 -60 -93 -94 -108 -109 -122 -123 -135 -136 -147 -148 -157 -159 -167 -168 0
-41 -59 -60 -93 -94 -108 -109 -122 -123 -135 -136 -147 -148 -158 -159 -167 -169 0
-41 -59 -60 -93 -94 -108 -109 -122 -123 -135 -136 -147 -148 -158 -159 -168 -169 0
-40 -58 -59 -92 -93 -107 -108 -121 -122 -134 -135 -146 -147 -157 -158 -177 -178 0
-41 -58 -60 -92 -93 -107 -108 -121 -122 -134 -135 -146 -147 -157 -158 -177 -178 0
-41 -59 -60 -92 -94 -107 -108 -121 -122 -134 -135 -146 -147 -157 -158 -177 -178 0
-41 -59 -60 -93 -94 -107 -109 -121 -122 -134 -135 -146 -147 -157 -158 -177 -178 0
-41 -59 -60 -93 -94 -108 -109 -121 -123 -134 -135 -146 -147 -157 -158 -177 -178 0
-41 -59 -60 -93 -94 -108 -109 -122 -123 -134 -136 -146 -147 -157 -158 -177 -178 0
-41 -59 -60 -93 -94 -108 -109 -122 -123 -135 -136 -146 -148 -157 -158 -177 -178 0
-41 -59 -60 -93 -94 -108 -109 -122 -123 -135 -136 -147 -148 -157 -159 -177 -178 0
-41 -59 -60 -93 -94 -108 -109 -122 -123 -135 -136 -147 -148 -158 -159 -177 -179 0
-41 -59 -60 -93 -94 -108 -109 -122 -123 -135 -136 -147 -148 -158 -159 -178 -179 0
-41 -59 -60 -93 -94 -108 -109 -122 -123 -135 -136 -147 -148 -158 -159 -187 -188 0
-40 -58 -59 -92 -93 -107 -108 -121 -122 -134 -135 -146 -147 -168 -169 -177 -178 0
-41 -58 -60 -92 -93 -107 -108 -121 -122 -134 -135 -146 -147 -168 -169 -177 -178 0
-41 -59 -60 -92 -94 -107 -108 -121 -122 -134 -135 -146 -147 -168 -169 -177 -178 0
-41 -59 -60 -93 -94 -107 -109 -121 -122 -134 -135 -146 -147 -168 -169 -177 -178 0
-41 -59 -60 -93 -94 -108 -109 -121 -123 -134 -135 -146 -147 -168 -169 -177 -178 0
-41 -59 -60 -93 -94 -108 -109 -122 -123 -134 -136 -146 -147 -168 -169 -177 -178 0
-41 -59 -60 -93 -94 -108 -109 -122 -123 -135 -136 -146 -148 -168 -169 -177 -178 0
-41 -59 -60 -93 -94 -108 -109 -122 -123 -135 -136 -147 -148 -168 -170 -177 -178 0
-41 -59 -60 -93 -94 -108 -109 -122 -123 -135 -136 -147 -148 -169 -170 -177 -179 0
-41 -59 -60 -93 -94 -108 -109 -122 -123 -135 -136 -147 -148 -169 -170 -178 -179 0
-41 -59 -60 -93 -94 -108 -109 -122 -123 -135 -136 -147 -148 -169 -170 -187 -188 0
-41 -59 -60 -93 -94 -108 -109 -122 -123 -135 -136 -147 -148 -179 -180 -187 -188 0
-40 -58 -59 -92 -93 -107 -108 -121 -122 -134 -135 -158 -159 -168 -169 -177 -178 0
-41 -58 -60 -92 -93 -107 -108 -121 -122 -134 -135 -158 -159 -168 -169 -177 -178 0
-41 -59 -60 -92 -94 -107 -108 -121 -122 -134 -135 -158 -159 -168 -169 -177 -178 0
-41 -59 -60 -93 -94 -107 -109 -121 -122 -134 -135 -158 -159 -168 -169 -177 -178 0
-41 -59 -60 -93 -94 -108 -109 -121 -123 -134 -135 -158 -159 -168 -169 -177 -178 0
-41 -59 -60 -93 -94 -108 -109 -122 -123 -134 -136 -158 -159 -168 -169 -177 -178 0
-41 -59 -60 -93 -94 -108 -109 -122 -123 -135 -136 -158 -160 -168 -169 -177 -178 0
-41 -59 -60 -93 -94 -108 -109 -122 -123 -135 -136 -159 -160 -168 -170 -177 -178 0
-41 -59 -60 -93 -94 -108 -109 -122 -123 -135 -136 -159 -160 -169 -170 -177 -179 0
-41 -59 -60 -93 -94 -108 -109 -122 -123 -135 -136 -159 -160 -169 -170 -178 -179 0
-41 -59 -60 -93 -94 -108 -109 -122 -123 -135 -136 -159 -160 -169 -170 -187 -188 0
-41 -59 -60 -93 -94 -108 -109 -122 -123 -135 -136 -159 -160 -179 -180 -187 -188 0
-41 -59 -60 -93 -94 -108 -109 -122 -123 -135 -136 -170 -171 -179 -180 -187 -188 0
-40 -58 -59 -92 -93 -107 -108 -121 -122 -147 -148 -158 -159 -168 -169 -177 -178 0
-41 -58 -60 -92 -93 -107 -108 -121 -122 -147 -148 -158 -159 -168 -169 -177 -178 0
-41 -59 -60 -92 -94 -107 -108 -121 -122 -147 -148 -158 -159 -168 -169 -177 -178 0
-41 -59 -60 -93 -94 -107 -109 -121 -122 -147 -148 -158 -159 -168 -169 -177 -178 0
-41 -59 -60 -93 -94 -108 -109 -121 -123 -147 -148 -158 -159 -168 -169 -177 -178 0
-41 -59 -60 -93 -94 -108 -109 -122 -123 -147 -149 -158 -159 -168 -169 -177 -178 0
-41 -59 -60 -93 -94 -108 -109 -122 -123 -148 -149 -158 -160 -168 -169 -177 -178 0
-41 -59 -60 -93 -94 -108 -109 -122 -123 -148 -149 -159 -160 -168 -170 -177 -178 0
-41 -59 -60 -93 -94 -108 -109 -122 -123 -148 -149 -159 -160 -169 -170 -177 -179 0
-41 -59 -60 -93 -94 -108 -109 -122 -123 -148 -149 -159 -160 -169 -170 -178 -179 0
-41 -59 -60 -93 -94 -108 -109 -122 -123 -148 -149 -159 -160 -169 -170 -187 -188 0
-41 -59 -60 -93 -94 -108 -109 -122 -123 -148 -149 -159 -160 -179 -180 -187 -188 0
-41 -59 -60 -93 -94 -108 -109 -122 -123 -148 -149 -170 -171 -179 -180 -187 -188 0
-41 -59 -60 -93 -94 -108 -109 -122 -123 -160 -161 -170 -171 -179 -180 -187 -188 0
-40 -58 -59 -92 -93 -107 -108 -135 -136 -147 -148 -158 -159 -168 -169 -177 -178 0
-41 -58 -60 -92 -93 -107 -108 -135 -136 -147 -148 -158 -159 -168 -169 -177 -178 0
-41 -59 -60 -92 -94 -107 -108 -135 -136 -147 -148 -158 -159 -168 -169 -177 -178 0
-41 -59 -60 -93 -94 -107 -109 -135 -136 -147 -148 -158 -159 -168 -169 -177 -178 0
-41 -59 -60 -93 -94 -108 -109 -135 -137 -147 -148 -158 -159 -168 -169 -177 -178 0
-41 -59 -60 -93 -94 -108 -109 -136 -137 -147 -149 -158 -159 -168 -169 -177 -178 0
-41 -59 -60 -93 -94 -108 -109 -136 -137 -148 -149 -158 -160 -168 -169 -177 -178 0
-41 -59 -60 -93 -94 -108 -109 -136 -137 -148 -149 -159 -160 -168 -170 -177 -178 0
-41 -59 -60 -93 -94 -108 -109 -136 -137 -148 -149 -159 -160 -169 -170 -177 -179 0
-41 -59 -60 -93 -94 -108 -109 -136 -137 -148 -149 -159 -160 -169 -170 -178 -179 0
-41 -59 -60 -93 -94 -108 -109 -136 -137 -148 -149 -159 -160 -169 -170 -187 -188 0
-41 -59 -60 -93 -94 -108 -109 -136 -137 -148 -149 -159 -160 -179 -180 -187 -188 0
-41 -59 -60 -93 -94 -108 -109 -136 -137 -148 -149 -170 -171 -179 -180 -187 -188 0
-41 -59 -60 -93 -94 -108 -109 -136 -137 -160 -161 -170 -171 -179 -180 -187 -188 0
-41 -59 -60 -93 -94 -108 -109 -149 -150 -160 -161 -170 -171 -179 -180 -187 -188 0
-40 -58 -59 -92 -93 -122 -123 -135 -136 -147 -148 -158 -159 -168 -169 -177 -178 0
-41 -58 -60 -92 -93 -122 -123 -135 -136 -147 -148 -158 -159 -168 -169 -177 -178 0
-41 -59 -60 -92 -94 -122 -123 -135 -136 -147 -148 -158 -159 -168 -169 -177 -178 0
-41 -59 -60 -93 -94 -122 -124 -135 -136 -147 -148 -158 -159 -168 -169 -177 -178 0
-41 -59 -60 -93 -94 -123 -124 -135 -137 -147 -148 -158 -159 -168 -169 -177 -178 0
-41 -59 -60 -93 -94 -123 -124 -136 -137 -147 -149 -158 -159 -168 -169 -177 -178 0
-41 -59 -60 -93 -94 -123 -124 -136 -137 -148 -149 -158 -160 -168 -169 -177 -178 0
-41 -59 -60 -93 -94 -123 -124 -136 -137 -148 -149 -159 -160 -168 -170 -177 -178 0
-41 -59 -60 -93 -94 -123 -124 -136 -137 -148 -149 -159 -160 -169 -170 -177 -179 0
-41 -59 -60 -93 -94 -123 -124 -136 -137 -148 -149 -159 -160 -169 -170 -178 -179 0
-41 -59 -60 -93 -94 -123 -124 -136 -137 -148 -149 -159 -160 -169 -170 -187 -188 0
-41 -59 -60 -93 -94 -123 -124 -136 -137 -148 -149 -159 -160 -179 -180 -187 -188 0
-41 -59 -60 -93 -94 -123 -124 -136 -137 -148 -149 -170 -171 -179 -180 -187 -188 0
-41 -59 -60 -93 -94 -123 -124 -136 -137 -160 -161 -170 -171 -179 -180 -187 -188 0
-41 -59 -60 -93 -94 -123 -124 -149 -150 -160 -161 -170 -171 -179 -180 -187 -188 0
-41 -59 -60 -93 -94 -137 -138 -149 -150 -160 -161 -170 -171 -179 -180 -187 -188 0
-40 -58 -59 -108 -109 -122 -123 -135 -136 -147 -148 -158 -159 -168 -169 -177 -178 0
-41 -58 -60 -108 -109 -122 -123 -135 -136 -147 -148 -158 -159 -168 -169 -177 -178 0
-41 -59 -60 -108 -110 -122 -123 -135 -136 -147 -148 -158 -159 -168 -169 -177 -178 0
-41 -59 -60 -109 -110 -122 -124 -135 -136 -147 -148 -158 -159 -168 -169 -177 -178 0
-41 -59 -60 -109 -110 -123 -124 -135 -137 -147 -148 -158 -159 -168 -169 -177 -178 0
-41 -59 -60 -109 -110 -123 -124 -136 -137 -147 -149 -158 -159 -168 -169 -177 -178 0
-41 -59 -60 -109 -110 -123 -124 -136 -137 -148 -149 -158 -160 -168 -169 -177 -178 0
-41 -59 -60 -109 -110 -123 -124 -136 -137 -148 -149 -159 -160 -168 -170 -177 -178 0
-41 -59 -60 -109 -110 -123 -124 -136 -137 -148 -149 -159 -160 -169 -170 -177 -179 0
-41 -59 -60 -109 -110 -123 -124 -136 -137 -148 -149 -159 -160 -169 -170 -178 -179 0
-41 -59 -60 -109 -110 -123 -124 -136 -137 -148 -149 -159 -160 -169 -170 -187 -188 0
-41 -59 -60 -109 -110 -123 -124 -136 -137 -148 -149 -159 -160 -179 -180 -187 -188 0
-41 -59 -60 -109 -110 -123 -124 -136 -137 -148 -149 -170 -171 -179 -180 -187 -188 0
-41 -59 -60 -109 -110 -123 -124 -136 -137 -160 -161 -170 -171 -179 -180 -187 -188 0
-41 -59 -60 -109 -110 -123 -124 -149 -150 -160 -161 -170 -171 -179 -180 -187 -188 0
-41 -59 -60 -109 -110 -137 -138 -149 -150 -160 -161 -170 -171 -179 -180 -187 -188 0
-41 -59 -60 -124 -125 -137 -138 -149 -150 -160 -161 -170 -171 -179 -180 -187 -188 0
-39 -75 -76 -91 -92 -106 -107 -120 -121 -133 -134 -145 -146 -156 -157 -166 -167 0
-40 -75 -77 -91 -92 -106 -107 -120 -121 -133 -134 -145 -146 -156 -157 -166 -167 0
-41 -75 -78 -91 -92 -106 -107 -120 -121 -133 -134 -145 -146 -156 -157 -166 -167 0
-40 -76 -77 -91 -93 -106 -107 -120 -121 -133 -134 -145 -146 -156 -157 -166 -167 0
-41 -76 -78 -91 -93 -106 -107 -120 -121 -133 -134 -145 -146 -156 -157 -166 -167 0
-41 -77 -78 -91 -94 -106 -107 -120 -121 -133 -134 -145 -146 -156 -157 -166 -167 0
-40 -76 -77 -92 -93 -106 -108 -120 -121 -133 -134 -145 -146 -156 -157 -166 -167 0
-41 -76 -78 -92 -93 -106 -108 -120 -121 -133 -134 -145 -146 -156 -157 -166 -167 0
-41 -77 -78 -92 -94 -106 -108 -120 -121 -133 -134 -145 -146 -156 -157 -166 -167 0
-41 -77 -78 -93 -94 -106 -109 -120 -121 -133 -134 -145 -146 -156 -157 -166 -167 0
-40 -76 -77 -92 -93 -107 -108 -120 -122 -133 -134 -145 -146 -156 -157 -166 -167 0
-41 -76 -78 -92 -93 -107 -108 -120 -122 -133 -134 -145 -146 -156 -157 -166 -167 0
-41 -77 -78 -92 -94 -107 -108 -120 -122 -133 -134 -145 -146 -156 -157 -166 -167 0
-41 -77 -78 -93 -94 -107 -109 -120 -122 -133 -134 -145 -146 -156 -157 -166 -167 0
-41 -77 -78 -93 -94 -108 -109 -120 -123 -133 -134 -145 -146 -156 -157 -166 -167 0
-40 -76 -77 -92 -93 -107 -108 -121 -122 -133 -135 -145 -146 -156 -157 -166 -167 0
-41 -76 -78 -92 -93 -107 -108 -121 -122 -133 -135 -145 -146 -156 -157 -166 -167 0
-41 -77 -78 -92 -94 -107 -108 -121 -122 -133 -135 -145 -146 -156 -157 -166 -167 0
-41 -77 -78 -93 -94 -107 -109 -121 -122 -133 -135 -145 -146 -156 -157 -166 -167 0
-41 -77 -78 -93 -94 -108 -109 -121 -123 -133 -135 -145 -146 -156 -157 -166 -167 0
-41 -77 -78 -93 -94 -108 -109 -122 -123 -133 -136 -145 -146 -156 -157 -166 -167 0
-40 -76 -77 -92 -93 -107 -108 -121 -122 -134 -135 -145 -147 -156 -157 -166 -167 0
-41 -76 -78 -92 -93 -107 -108 -121 -122 -134 -135 -145 -147 -156 -157 -166 -167 0
-41 -77 -78 -92 -94 -107 -108 -121 -122 -134 -135 -145 -147 -156 -157 -166 -167 0
-41 -77 -78 -93 -94 -107 -109 -121 -122 -134 -135 -145 -147 -156 -157 -166 -167 0
-41 -77 -78 -93 -94 -108 -109 -121 -123 -134 -135 -145 -147 -156 -157 -166 -167 0
-41 -77 -78 -93 -94 -108 -109 -122 -123 -134 -136 -145 -147 -156 -157 -166 -167 0
-41 -77 -78 -93 -94 -108 -109 -122 -123 -135 -136 -145 -148 -156 -157 -166 -167 0
-40 -76 -77 -92 -93 -107 -108 -121 -122 -134 -135 -146 -147 -156 -158 -166 -167 0
-41 -76 -78 -92 -93 -107 -108 -121 -122 -134 -135 -146 -147 -156 -158 -166 -167 0
-41 -77 -78 -92 -94 -107 -108 -121 -122 -134 -135 -146 -147 -156 -158 -166 -167 0
-41 -77 -78 -93 -94 -107 -109 -121 -122 -134 -135 -146 -147 -156 -158 -166 -167 0
-41 -77 -78 -93 -94 -108 -109 -121 -123 -134 -135 -146 -147 -156 -158 -166 -167 0
-41 -77 -78 -93 -94 -108 -109 -122 -123 -134 -136 -146 -147 -156 -158 -166 -167 0
-41 -77 -78 -93 -94 -108 -109 -122 -123 -135 -136 -146 -148 -156 -158 -166 -167 0
-41 -77 -78 -93 -94 -108 -109 -122 -123 -135 -136 -147 -148 -156 -159 -166 -167 0
-40 -76 -77 -92 -93 -107 -108 -121 -122 -134 -135 -146 -147 -157 -158 -166 -168 0
-41 -76 -78 -92 -93 -107 -108 -121 -122 -134 -135 -146 -147 -157 -158 -166 -168 0
-41 -77 -78 -92 -94 -107 -108 -121 -122 -134 -135 -146 -147 -157 -158 -166 -168 0
-41 -77 -78 -93 -94 -107 -109 -121 -122 -134 -135 -146 -147 -157 -158 -166 -168 0
-41 -77 -78 -93 -94 -108 -109 -121 -123 -134 -135 -146 -147 -157 -158 -166 -168 0
-41 -77 -78 -93 -94 -108 -109 -122 -123 -134 -136 -146 -147 -157 -158 -166 -168 0
-41 -77 -78 -93 -94 -108 -109 -122 -123 -135 -136 -146 -148 -157 -158 -166 -168 0
-41 -77 -78 -93 -94 -108 -109 -122 -123 -135 -136 -147 -148 -157 -159 -166 -168 0
-41 -77 -78 -93 -94 -108 -109 -122 -123 -135 -136 -147 -148 -158 -159 -166 -169 0
-40 -76 -77 -92 -93 -107 -108 -121 -122 -134 -135 -146 -147 -157 -158 -167 -168 0
-41 -76 -78 -92 -93 -107 -108 -121 -122 -134 -135 -146 -147 -157 -158 -167 -168 0
-41 -77 -78 -92 -94 -107 -108 -121 -122 -134 -135 -146 -147 -157 -158 -167 -168 0
-41 -77 -78 -93 -94 -107 -109 -121 -122 -134 -135 -146 -147 -157 -158 -167 -168 0
-41 -77 -78 -93 -94 -108 -109 -121 -123 -134 -135 -146 -147 -157 -158 -167 -168 0
-41 -77 -78 -93 -94 -108 -109 -122 -123 -134 -136 -146 -147 -157 -158 -167 -168 0
-41 -77 -78 -93 -94 -108 -109 -122 -123 -135 -136 -146 -148 -157 -158 -167 -168 0
-41 -77 -78 -93 -94 -108 -109 -122 -123 -135 -136 -147 -148 -157 -159 -167 -168 0
-41 -77 -78 -93 -94 -108 -109 -122 -123 -135 -136 -147 -148 -158 -159 -167 -169 0
-41 -77 -78 -93 -94 -108 -109 -122 -123 -135 -136 -147 -148 -158 -159 -168 -169 0
-40 -76 -77 -92 -93 -107 -108 -121 -122 -134 -135 -146 -147 -157 -158 -177 -178 0
-41 -76 -78 -92 -93 -107 -108 -121 -122 -134 -135 -146 -147 -157 -158 -177 -178 0
-41 -77 -78 -92 -94 -107 -108 -121 -122 -134 -135 -146 -147 -157 -158 -177 -178 0
-41 -77 -78 -93 -94 -107 -109 -121 -122 -134 -135 -146 -147 -157 -158 -177 -178 0
-41 -77 -78 -93 -94 -108 -109 -121 -123 -134 -135 -146 -147 -157 -158 -177 -178 0
-41 -77 -78 -93 -94 -108 -109 -122 -123 -134 -136 -146 -147 -157 -158 -177 -178 0
-41 -77 -78 -93 -94 -108 -109 -122 -123 -135 -136 -146 -148 -157 -158 -177 -178 0
-41 -77 -78 -93 -94 -108 -109 -122 -123 -135 -136 -147 -148 -157 -159 -177 -178 0
-41 -77 -78 -93 -94 -108 -109 -122 -123 -135 -136 -147 -148 -158 -159 -177 -179 0
-41 -77 -78 -93 -94 -108 -109 -122 -123 -135 -136 -147 -148 -158 -159 -178 -179 0
-41 -77 -78 -93 -94 -108 -109 -122 -123 -135 -136 -147 -148 -158 -159 -187 -188 0
-40 -76 -77 -92 -93 -107 -108 -121 -122 -134 -135 -146 -147 -168 -169 -177 -178 0
-41 -76 -78 -92 -93 -107 -108 -121 -122 -134 -135 -146 -147 -168 -169 -177 -178 0
-41 -77 -78 -92 -94 -107 -108 -121 -122 -134 -135 -146 -147 -168 -169 -177 -178 0
-41 -77 -78 -93 -94 -107 -109 -121 -122 -134 -135 -146 -147 -168 -169 -177 -178 0
-41 -77 -78 -93 -94 -108 -109 -121 -123 -134 -135 -146 -147 -168 -169 -177 -178 0
-41 -77 -78 -93 -94 -108 -109 -122 -123 -134 -136 -146 -147 -168 -169 -177 -178 0
-41 -77 -78 -93 -94 -108 -109 -122 -123 -135 -136 -146 -148 -168 -169 -177 -178 0
-41 -77 -78 -93 -94 -108 -109 -122 -123 -135 -136 -147 -148 -168 -170 -177 -178 0
-41 -77 -78 -93 -94 -108 -109 -122 -123 -135 -136 -147 -148 -169 -170 -177 -179 0
-41 -77 -78 -93 -94 -108 -109 -122 -123 -135 -136 -147 -148 -169 -170 -178 -179 0
-41 -77 -78 -93 -94 -108 -109 -122 -123 -135 -136 -147 -148 -169 -170 -187 -188 0
-41 -77 -78 -93 -94 -108 -109 -122 -123 -135 -136 -147 -148 -179 -180 -187 -188 0
-40 -76 -77 -92 -93 -107 -108 -121 -122 -134 -135 -158 -159 -168 -169 -177 -178 0
-41 -76 -78 -92 -93 -107 -108 -121 -122 -134 -135 -158 -159 -168 -169 -177 -178 0
-41 -77 -78 -92 -94 -107 -108 -121 -122 -134 -135 -158 -159 -168 -169 -177 -178 0
-41 -77 -78 -93 -94 -107 -109 -121 -122 -134 -135 -158 -159 -168 -169 -177 -178 0
-41 -77 -78 -93 -94 -108 -109 -121 -123 -134 -135 -158 -159 -168 -169 -177 -178 0
-41 -77 -78 -93 -94 -108 -109 -122 -123 -134 -136 -158 -159 -168 -169 -177 -178 0
-41 -77 -78 -93 -94 -108 -109 -122 -123 -135 -136 -158 -160 -168 -169 -177 -178 0
-41 -77 -78 -93 -94 -108 -109 -122 -123 -135 -136 -159 -160 -168 -170 -177 -178 0
-41 -77 -78 -93 -94 -108 -109 -122 -123 -135 -136 -159 -160 -169 -170 -177 -179 0
-41 -77 -78 -93 -94 -108 -109 -122 -123 -135 -136 -159 -160 -169 -170 -178 -179 0
-41 -77 -78 -93 -94 -108 -109 -122 -123 -135 -136 -159 -160 -169 -170 -187 -188 0
-41 -77 -78 -93 -94 -108 -109 -122 -123 -135 -136 -159 -160 -179 -180 -187 -188 0
-41 -77 -78 -93 -94 -108 -109 -122 -123 -135 -136 -170 -171 -179 -180 -187 -188 0
-40 -76 -77 -92 -93 -107 -108 -121 -122 -147 -148 -158 -159 -168 -169 -177 -178 0
-41 -76 -78 -92 -93 -107 -108 -121 -122 -147 -148 -158 -159 -168 -169 -177 -178 0
-41 -77 -78 -92 -94 -107 -108 -121 -122 -147 -148 -158 -159 -168 -169 -177 -178 0
-41 -77 -78 -93 -94 -107 -109 -121 -122 -147 -148 -158 -159 -168 -169 -177 -178 0
-41 -77 -78 -93 -94 -108 -109 -121 -123 -147 -148 -158 -159 -168 -169 -177 -178 0
-41 -77 -78 -93 -94 -108 -109 -122 -123 -147 -149 -158 -159 -168 -169 -177 -178 0
-41 -77 -78 -93 -94 -108 -109 -122 -123 -148 -149 -158 -160 -168 -169 -177 -178 0
-41 -77 -78 -93 -94 -108 -109 -122 -123 -148 -149 -159 -160 -168 -170 -177 -178 0
-41 -77 -78 -93 -94 -108 -109 -122 -123 -148 -149 -159 -160 -169 -170 -177 -179 0
-41 -77 -78 -93 -94 -108 -109 -122 -123 -148 -149 -159 -160 -169 -170 -178 -179 0
-41 -77 -78 -93 -94 -108 -109 -122 -123 -148 -149 -159 -160 -169 -170 -187 -188 0
-41 -77 -78 -93 -94 -108 -109 -122 -123 -148 -149 -159 -160 -179 -180 -187 -188 0
-41 -77 -78 -93 -94 -108 -109 -122 -123 -148 -149 -170 -171 -179 -180 -187 -188 0
-41 -77 -78 -93 -94 -108 -109 -122 -123 -160 -161 -170 -171 -179 -180 -187 -188 0
-40 -76 -77 -92 -93 -107 -108 -135 -136 -147 -148 -158 -159 -168 -169 -177 -178 0
-41 -76 -78 -92 -93 -107 -108 -135 -136 -147 -148 -158 -159 -168 -169 -177 -178 0
-41 -77 -78 -92 -94 -107 -108 -135 -136 -147 -148 -158 -159 -168 -169 -177 -178 0
-41 -77 -78 -93 -94 -107 -109 -135 -136 -147 -148 -158 -159 -168 -169 -177 -178 0
-41 -77 -78 -93 -94 -108 -109 -135 -137 -147 -148 -158 -159 -168 -169 -177 -178 0
-41 -77 -78 -93 -94 -108 -109 -136 -137 -147 -149 -158 -159 -168 -169 -177 -178 0
-41 -77 -78 -93 -94 -108 -109 -136 -137 -148 -149 -158 -160 -168 -169 -177 -178 0
-41 -77 -78 -93 -94 -108 -109 -136 -137 -148 -149 -159 -160 -168 -170 -177 -178 0
-41 -77 -78 -93 -94 -108 -109 -136 -137 -148 -149 -159 -160 -169 -170 -177 -179 0
-41 -77 -78 -93 -94 -108 -109 -136 -137 -148 -149 -159 -160 -169 -170 -178 -179 0
-41 -77 -78 -93 -94 -108 -109 -136 -137 -148 -149 -159 -160 -169 -170 -187 -188 0
-41 -77 -78 -93 -94 -108 -109 -136 -137 -148 -149 -159 -160 -179 -180 -187 -188 0
-41 -77 -78 -93 -94 -108 -109 -136 -137 -148 -149 -170 -171 -179 -180 -187 -188 0
-41 -77 -78 -93 -94 -108 -109 -136 -137 -160 -161 -170 -171 -179 -180 -187 -188 0
-41 -77 -78 -93 -94 -108 -109 -149 -150 -160 -161 -170 -171 -179 -180 -187 -188 0
-40 -76 -77 -92 -93 -122 -123 -135 -136 -147 -148 -158 -159 -168 -169 -177 -178 0
-41 -76 -78 -92 -93 -122 -123 -135 -136 -147 -148 -158 -159 -168 -169 -177 -178 0
-41 -77 -78 -92 -94 -122 -123 -135 -136 -147 -148 -158 -159 -168 -169 -177 -178 0
-41 -77 -78 -93 -94 -122 -124 -135 -136 -147 -148 -158 -159 -168 -169 -177 -178 0
-41 -77 -78 -93 -94 -123 -124 -135 -137 -147 -148 -158 -159 -168 -169 -177 -178 0
-41 -77 -78 -93 -94 -123 -124 -136 -137 -147 -149 -158 -159 -168 -169 -177 -178 0
-41 -77 -78 -93 -94 -123 -124 -136 -137 -148 -149 -158 -160 -168 -169 -177 -178 0
-41 -77 -78 -93 -94 -123 -124 -136 -137 -148 -149 -159 -160 -168 -170 -177 -178 0
-41 -77 -78 -93 -94 -123 -124 -136 -137 -148 -149 -159 -160 -169 -170 -177 -179 0
-41 -77 -78 -93 -94 -123 -124 -136 -137 -148 -149 -159 -160 -169 -170 -178 -179 0
-41 -77 -78 -93 -94 -123 -124 -136 -137 -148 -149 -159 -160 -169 -170 -187 -188 0
-41 -77 -78 -93 -94 -123 -124 -136 -137 -148 -149 -159 -160 -179 -180 -187 -188 0
-41 -77 -78 -93 -94 -123 -124 -136 -137 -148 -149 -170 -171 -179 -180 -187 -188 0
-41 -77 -78 -93 -94 -123 -124 -136 -137 -160 -161 -170 -171 -179 -180 -187 -188 0
-41 -77 -78 -93 -94 -123 -124 -149 -150 -160 -161 -170 -171 -179 -180 -187 -188 0
-41 -77 -78 -93 -94 -137 -138 -149 -150 -160 -161 -170 -171 -179 -180 -187 -188 0
-40 -76 -77 -108 -109 -122 -123 -135 -136 -147 -148 -158 -159 -168 -169 -177 -178 0
-41 -76 -78 -108 -109 -122 -123 -135 -136 -147 -148 -158 -159 -168 -169 -177 -178 0
-41 -77 -78 -108 -110 -122 -123 -135 -136 -147 -148 -158 -159 -168 -169 -177 -178 0
-41 -77 -78 -109 -110 -122 -124 -135 -136 -147 -148 -158 -159 -168 -169 -177 -178 0
-41 -77 -78 -109 -110 -123 -124 -135 -137 -147 -148 -158 -159 -168 -169 -177 -178 0
-41 -77 -78 -109 -110 -123 -124 -136 -137 -147 -149 -158 -159 -168 -169 -177 -178 0
-41 -77 -78 -109 -110 -123 -124 -136 -137 -148 -149 -158 -160 -168 -169 -177 -178 0
-41 -77 -78 -109 -110 -123 -124 -136 -137 -148 -149 -159 -160 -168 -170 -177 -178 0
-41 -77 -78 -109 -110 -123 -124 -136 -137 -148 -149 -159 -160 -169 -170 -177 -179 0
-41 -77 -78 -109 -110 -123 -124 -136 -137 -148 -149 -159 -160 -169 -170 -178 -179 0
-41 -77 -78 -109 -110 -123 -124 -136 -137 -148 -149 -159 -160 -169 -170 -187 -188 0
-41 -77 -78 -109 -110 -123 -124 -136 -137 -148 -149 -159 -160 -179 -180 -187 -188 0
-41 -77 -78 -109 -110 -123 -124 -136 -137 -148 -149 -170 -171 -179 -180 -187 -188 0
-41 -77 -78 -109 -110 -123 -124 -136 -137 -160 -161 -170 -171 -179 -180 -187 -188 0
-41 -77 -78 -109 -110 -123 -124 -149 -150 -160 -161 -170 -171 -179 -180 -187 -188 0
-41 -77 -78 -109 -110 -137 -138 -149 -150 -160 -161 -170 -171 -179 -180 -187 -188 0
-41 -77 -78 -124 -125 -137 -138 -149 -150 -160 -161 -170 -171 -179 -180 -187 -188 0
-40 -93 -94 -108 -109 -122 -123 -135 -136 -147 -148 -158 -159 -168 -169 -177 -178 0
-41 -93 -95 -108 -109 -122 -123 -135 -136 -147 -148 -158 -159 -168 -169 -177 -178 0
-41 -94 -95 -108 -110 -122 -123 -135 -136 -147 -148 -158 -159 -168 -169 -177 -178 0
-41 -94 -95 -109 -110 -122 -124 -135 -136 -147 -148 -158 -159 -168 -169 -177 -178 0
-41 -94 -95 -109 -110 -123 -124 -135 -137 -147 -148 -158 -159 -168 -169 -177 -178 0
-41 -94 -95 -109 -110 -123 -124 -136 -137 -147 -149 -158 -159 -168 -169 -177 -178 0
-41 -94 -95 -109 -110 -123 -124 -136 -137 -148 -149 -158 -160 -168 -169 -177 -178 0
-41 -94 -95 -109 -110 -123 -124 -136 -137 -148 -149 -159 -160 -168 -170 -177 -178 0
-41 -94 -95 -109 -110 -123 -124 -136 -137 -148 -149 -159 -160 -169 -170 -177 -179 0
-41 -94 -95 -109 -110 -123 -124 -136 -137 -148 -149 -159 -160 -169 -170 -178 -179 0
-41 -94 -95 -109 -110 -123 -124 -136 -137 -148 -149 -159 -160 -169 -170 -187 -188 0
-41 -94 -95 -109 -110 -123 -124 -136 -137 -148 -149 -159 -160 -179 -180 -187 -188 0
-41 -94 -95 -109 -110 -123 -124 -136 -137 -148 -149 -170 -171 -179 -180 -187 -188 0
-41 -94 -95 -109 -110 -123 -124 -136 -137 -160 -161 -170 -171 -179 -180 -187 -188 0
-41 -94 -95 -109 -110 -123 -124 -149 -150 -160 -161 -170 -171 -179 -180 -187 -188 0
-41 -94 -95 -109 -110 -137 -138 -149 -150 -160 -161 -170 -171 -179 -180 -187 -188 0
-41 -94 -95 -124 -125 -137 -138 -149 -150 -160 -161 -170 -171 -179 -180 -187 -188 0
-41 -110 -111 -124 -125 -137 -138 -149 -150 -160 -161 -170 -171 -179 -180 -187 -188 0
-58 -75 -76 -91 -92 -106 -107 -120 -121 -133 -134 -145 -146 -156 -157 -166 -167 0
-59 -75 -77 -91 -92 -106 -107 -120 -121 -133 -134 -145 -146 -156 -157 -166 -167 0
-60 -75 -78 -91 -92 -106 -107 -120 -121 -133 -134 -145 -146 -156 -157 -166 -167 0
-59 -76 -77 -91 -93 -106 -107 -120 -121 -133 -134 -145 -146 -156 -157 -166 -167 0
-60 -76 -78 -91 -93 -106 -107 -120 -121 -133 -134 -145 -146 -156 -157 -166 -167 0
-60 -77 -78 -91 -94 -106 -107 -120 -121 -133 -134 -145 -146 -156 -157 -166 -167 0
-59 -76 -77 -92 -93 -106 -108 -120 -121 -133 -134 -145 -146 -156 -157 -166 -167 0
-60 -76 -78 -92 -93 -106 -108 -120 -121 -133 -134 -145 -146 -156 -157 -166 -167 0
-60 -77 -78 -92 -94 -106 -108 -120 -121 -133 -134 -145 -146 -156 -157 -166 -167 0
-60 -77 -78 -93 -94 -106 -109 -120 -121 -133 -134 -145 -146 -156 -157 -166 -167 0
-59 -76 -77 -92 -93 -107 -108 -120 -122 -133 -134 -145 -146 -156 -157 -166 -167 0
-60 -76 -78 -92 -93 -107 -108 -120 -122 -133 -134 -145 -146 -156 -157 -166 -167 0
-60 -77 -78 -92 -94 -107 -108 -120 -122 -133 -134 -145 -146 -156 -157 -166 -167 0
-60 -77 -78 -93 -94 -107 -109 -120 -122 -133 -134 -145 -146 -156 -157 -166 -167 0
-60 -77 -78 -93 -94 -108 -109 -120 -123 -133 -134 -145 -146 -156 -157 -166 -167 0
-59 -76 -77 -92 -93 -107 -108 -121 -122 -133 -135 -145 -146 -156 -157 -166 -167 0
-60 -76 -78 -92 -93 -107 -108 -121 -122 -133 -135 -145 -146 -156 -157 -166 -167 0
-60 -77 -78 -92 -94 -107 -108 -121 -122 -133 -135 -145 -146 -156 -157 -166 -167 0
-60 -77 -78 -93 -94 -107 -109 -121 -122 -133 -135 -145 -146 -156 -157 -166 -167 0
-60 -77 -78 -93 -94 -108 -109 -121 -123 -133 -135 -145 -146 -156 -157 -166 -167 0
-60 -77 -78 -93 -94 -108 -109 -122 -123 -133 -136 -145 -146 -156 -157 -166 -167 0
-59 -76 -77 -92 -93 -107 -108 -121 -122 -134 -135 -145 -147 -156 -157 -166 -167 0
-60 -76 -78 -92 -93 -107 -108 -121 -122 -134 -135 -145 -147 -156 -157 -166 -167 0
-60 -77 -78 -92 -94 -107 -108 -121 -122 -134 -135 -145 -147 -156 -157 -166 -167 0
-60 -77 -78 -93 -94 -107 -109 -121 -122 -134 -135 -145 -147 -156 -157 -166 -167 0
-60 -77 -78 -93 -94 -108 -109 -121 -123 -134 -135 -145 -147 -156 -157 -166 -167 0
-60 -77 -78 -93 -94 -108 -109 -122 -123 -134 -136 -145 -147 -156 -157 -166 -167 0
-60 -77 -78 -93 -94 -108 -109 -122 -123 -135 -136 -145 -148 -156 -157 -166 -167 0
-59 -76 -77 -92 -93 -107 -108 -121 -122 -134 -135 -146 -147 -156 -158 -166 -167 0
-60 -76 -78 -92 -93 -107 -108 -121 -122 -134 -135 -146 -147 -156 -158 -166 -167 0
-60 -77 -78 -92 -94 -107 -108 -121 -122 -134 -135 -146 -147 -156 -158 -166 -167 0
-60 -77 -78 -93 -94 -107 -109 -121 -122 -134 -135 -146 -147 -156 -158 -166 -167 0
-60 -77 -78 -93 -94 -108 -109 -121 -123 -134 -135 -146 -147 -156 -158 -166 -167 0
-60 -77 -78 -93 -94 -108 -109 -122 -123 -134 -136 -146 -147 -156 -158 -166 -167 0
-60 -77 -78 -93 -94 -108 -109 -122 -123 -135 -136 -146 -148 -156 -158 -166 -167 0
-60 -77 -78 -93 -94 -108 -109 -122 -123 -135 -136 -147 -148 -156 -159 -166 -167 0
-59 -76 -77 -92 -93 -107 -108 -121 -122 -134 -135 -146 -147 -157 -158 -166 -168 0
-60 -76 -78 -92 -93 -107 -108 -121 -122 -134 -135 -146 -147 -157 -158 -166 -168 0
-60 -77 -78 -92 -94 -107 -108 -121 -122 -134 -135 -146 -147 -157 -158 -166 -168 0
-60 -77 -78 -93 -94 -107 -109 -121 -122 -134 -135 -146 -147 -157 -158 -166 -168 0
-60 -77 -78 -93 -94 -108 -109 -121 -123 -134 -135 -146 -147 -157 -158 -166 -168 0
-60 -77 -78 -93 -94 -108 -109 -122 -123 -134 -136 -146 -147 -157 -158 -166 -168 0
-60 -77 -78 -93 -94 -108 -109 -122 -123 -135 -136 -146 -148 -157 -158 -166 -168 0
-60 -77 -78 -93 -94 -108 -109 -122 -123 -135 -136 -147 -148 -157 -159 -166 -168 0
-60 -77 -78 -93 -94 -108 -109 -122 -123 -135 -136 -147 -148 -158 -159 -166 -169 0
-59 -76 -77 -92 -93 -107 -108 -121 -122 -134 -135 -146 -147 -157 -158 -167 -168 0
-60 -76 -78 -92 -93 -107 -108 -121 -122 -134 -135 -146 -147 -157 -158 -167 -168 0
-60 -77 -78 -92 -94 -107 -108 -121 -122 -134 -135 -146 -147 -157 -158 -167 -168 0
-60 -77 -78 -93 -94 -107 -109 -121 -122 -134 -135 -146 -147 -157 -158 -167 -168 0
-60 -77 -78 -93 -94 -108 -109 -121 -123 -134 -135 -146 -147 -157 -158 -167 -168 0
-60 -77 -78 -93 -94 -108 -109 -122 -123 -134 -136 -146 -147 -157 -158 -167 -168 0
-60 -77 -78 -93 -94 -108 -109 -122 -123 -135 -136 -146 -148 -157 -158 -167 -168 0
-60 -77 -78 -93 -94 -108 -109 -122 -123 -135 -136 -147 -148 -157 -159 -167 -168 0
-60 -77 -78 -93 -94 -108 -109 -122 -123 -135 -136 -147 -148 -158 -159 -167 -169 0
-60 -77 -78 -93 -94 -108 -109 -122 -123 -135 -136 -147 -148 -158 -159 -168 -169 0
-59 -76 -77 -92 -93 -107 -108 -121 -122 -134 -135 -146 -147 -157 -158 -177 -178 0
-60 -76 -78 -92 -93 -107 -108 -121 -122 -134 -135 -146 -147 -157 -158 -177 -178 0
-60 -77 -78 -92 -94 -107 -108 -121 -122 -134 -135 -146 -147 -157 -158 -177 -178 0
-60 -77 -78 -93 -94 -107 -109 -121 -122 -134 -135 -146 -147 -157 -158 -177 -178 0
-60 -77 -78 -93 -94 -108 -109 -121 -123 -134 -135 -146 -147 -157 -158 -177 -178 0
-60 -77 -78 -93 -94 -108 -109 -122 -123 -134 -136 -146 -147 -157 -158 -177 -178 0
-60 -77 -78 -93 -94 -108 -109 -122 -123 -135 -136 -146 -148 -157 -158 -177 -178 0
-60 -77 -78 -93 -94 -108 -109 -122 -123 -135 -136 -147 -148 -157 -159 -177 -178 0
-60 -77 -78 -93 -94 -108 -109 -122 -123 -135 -136 -147 -148 -158 -159 -177 -179 0
-60 -77 -78 -93 -94 -108 -109 -122 -123 -135 -136 -147 -148 -158 -159 -178 -179 0
-60 -77 -78 -93 -94 -108 -109 -122 -123 -135 -136 -147 -148 -158 -159 -187 -188 0
-59 -76 -77 -92 -93 -107 -108 -121 -122 -134 -135 -146 -147 -168 -169 -177 -178 0
-60 -76 -78 -92 -93 -107 -108 -121 -122 -134 -135 -146 -147 -168 -169 -177 -178 0
-60 -77 -78 -92 -94 -107 -108 -121 -122 -134 -135 -146 -147 -168 -169 -177 -178 0
-60 -77 -78 -93 -94 -107 -109 -121 -122 -134 -135 -146 -147 -168 -169 -177 -178 0
-60 -77 -78 -93 -94 -108 -109 -121 -123 -134 -135 -146 -147 -168 -169 -177 -178 0
-60 -77 -78 -93 -94 -108 -109 -122 -123 -134 -136 -146 -147 -168 -169 -177 -178 0
-60 -77 -78 -93 -94 -108 -109 -122 -123 -135 -136 -146 -148 -168 -169 -177 -178 0
-60 -77 -78 -93 -94 -108 -109 -122 -123 -135 -136 -147 -148 -168 -170 -177 -178 0
-60 -77 -78 -93 -94 -108 -109 -122 -123 -135 -136 -147 -148 -169 -170 -177 -179 0
-60 -77 -78 -93 -94 -108 -109 -122 -123 -135 -136 -147 -148 -169 -170 -178 -179 0
-60 -77 -78 -93 -94 -108 -109 -122 -123 -135 -136 -147 -148 -169 -170 -187 -188 0
-60 -77 -78 -93 -94 -108 -109 -122 -123 -135 -136 -147 -148 -179 -180 -187 -188 0
-59 -76 -77 -92 -93 -107 -108 -121 -122 -134 -135 -158 -159 -168 -169 -177 -178 0
-60 -76 -78 -92 -93 -107 -108 -121 -122 -134 -135 -158 -159 -168 -169 -177 -178 0
-60 -77 -78 -92 -94 -107 -108 -121 -122 -134 -135 -158 -159 -168 -169 -177 -178 0
-60 -77 -78 -93 -94 -107 -109 -121 -122 -134 -135 -158 -159 -168 -169 -177 -178 0
-60 -77 -78 -93 -94 -108 -109 -121 -123 -134 -135 -158 -159 -168 -169 -177 -178 0
-60 -77 -78 -93 -94 -108 -109 -122 -123 -134 -136 -158 -159 -168 -169 -177 -178 0
-60 -77 -78 -93 -94 -108 -109 -122 -123 -135 -136 -158 -160 -168 -169 -177 -178 0
-60 -77 -78 -93 -94 -108 -109 -122 -123 -135 -136 -159 -160 -168 -170 -177 -178 0
-60 -77 -78 -93 -94 -108 -109 -122 -123 -135 -136 -159 -160 -169 -170 -177 -179 0
-60 -77 -78 -93 -94 -108 -109 -122 -123 -135 -136 -159 -160 -169 -170 -178 -179 0
-60 -77 -78 -93 -94 -108 -109 -122 -123 -135 -136 -159 -160 -169 -170 -187 -188 0
-60 -77 -78 -93 -94 -108 -109 -122 -123 -135 -136 -159 -160 -179 -180 -187 -188 0
-60 -77 -78 -93 -94 -108 -109 -122 -123 -135 -136 -170 -171 -179 -180 -187 -188 0
-59 -76 -77 -92 -93 -107 -108 -121 -122 -147 -148 -158 -159 -168 -169 -177 -178 0
-60 -76 -78 -92 -93 -107 -108 -121 -122 -147 -148 -158 -159 -168 -169 -177 -178 0
-60 -77 -78 -92 -94 -107 -108 -121 -122 -147 -148 -158 -159 -168 -169 -177 -178 0
-60 -77 -78 -93 -94 -107 -109 -121 -122 -147 -148 -158 -159 -168 -169 -177 -178 0
-60 -77 -78 -93 -94 -108 -109 -121 -123 -147 -148 -158 -159 -168 -169 -177 -178 0
-60 -77 -78 -93 -94 -108 -109 -122 -123 -147 -149 -158 -159 -168 -169 -177 -178 0
-60 -77 -78 -93 -94 -108 -109 -122 -123 -148 -149 -158 -160 -168 -169 -177 -178 0
-60 -77 -78 -93 -94 -108 -109 -122 -123 -148 -149 -159 -160 -168 -170 -177 -178 0
-60 -77 -78 -93 -94 -108 -109 -122 -123 -148 -149 -159 -160 -169 -170 -177 -179 0
-60 -77 -78 -93 -94 -108 -109 -122 -123 -148 -149 -159 -160 -169 -170 -178 -179 0
-60 -77 -78 -93 -94 -108 -109 -122 -123 -148 -149 -159 -160 -169 -170 -187 -188 0
-60 -77 -78 -93 -94 -108 -109 -122 -123 -148 -149 -159 -160 -179 -180 -187 -188 0
-60 -77 -78 -93 -94 -108 -109 -122 -123 -148 -149 -170 -171 -179 -180 -187 -188 0
-60 -77 -78 -93 -94 -108 -109 -122 -123 -160 -161 -170 -171 -179 -180 -187 -188 0
-59 -76 -77 -92 -93 -107 -108 -135 -136 -147 -148 -158 -159 -168 -169 -177 -178 0
-60 -76 -78 -92 -93 -107 -108 -135 -136 -147 -148 -158 -159 -168 -169 -177 -178 0
-60 -77 -78 -92 -94 -107 -108 -135 -136 -147 -148 -158 -159 -168 -169 -177 -178 0
-60 -77 -78 -93 -94 -107 -109 -135 -136 -147 -148 -158 -159 -168 -169 -177 -178 0
-60 -77 -78 -93 -94 -108 -109 -135 -137 -147 -148 -158 -159 -168 -169 -177 -178 0
-60 -77 -78 -93 -94 -108 -109 -136 -137 -147 -149 -158 -159 -168 -169 -177 -178 0
-60 -77 -78 -93 -94 -108 -109 -136 -137 -148 -149 -158 -160 -168 -169 -177 -178 0
-60 -77 -78 -93 -94 -108 -109 -136 -137 -148 -149 -159 -160 -168 -170 -177 -178 0
-60 -77 -78 -93 -94 -108 -109 -136 -137 -148 -149 -159 -160 -169 -170 -177 -179 0
-60 -77 -78 -93 -94 -108 -109 -136 -137 -148 -149 -159 -160 -169 -170 -178 -179 0
-60 -77 -78 -93 -94 -108 -109 -136 -137 -148 -149 -159 -160 -169 -170 -187 -188 0
-60 -77 -78 -93 -94 -108 -109 -136 -137 -148 -149 -159 -160 -179 -180 -187 -188 0
-60 -77 -78 -93 -94 -108 -109 -136 -137 -148 -149 -170 -171 -179 -180 -187 -188 0
-60 -77 -78 -93 -94 -108 -109 -136 -137 -160 -161 -170 -171 -179 -180 -187 -188 0
-60 -77 -78 -93 -94 -108 -109 -149 -150 -160 -161 -170 -171 -179 -180 -187 -188 0
-59 -76 -77 -92 -93 -122 -123 -135 -136 -147 -148 -158 -159 -168 -169 -177 -178 0
-60 -76 -78 -92 -93 -122 -123 -135 -136 -147 -148 -158 -159 -168 -169 -177 -178 0
-60 -77 -78 -92 -94 -122 -123 -135 -136 -147 -148 -158 -159 -168 -169 -177 -178 0
-60 -77 -78 -93 -94 -122 -124 -135 -136 -147 -148 -158 -159 -168 -169 -177 -178 0
-60 -77 -78 -93 -94 -123 -124 -135 -137 -147 -148 -158 -159 -168 -169 -177 -178 0
-60 -77 -78 -93 -94 -123 -124 -136 -137 -147 -149 -158 -159 -168 -169 -177 -178 0
-60 -77 -78 -93 -94 -123 -124 -136 -137 -148 -149 -158 -160 -168 -169 -177 -178 0
-60 -77 -78 -93 -94 -123 -124 -136 -137 -148 -149 -159 -160 -168 -170 -177 -178 0
-60 -77 -78 -93 -94 -123 -124 -136 -137 -148 -149 -159 -160 -169 -170 -177 -179 0
-60 -77 -78 -93 -94 -123 -124 -136 -137 -148 -149 -159 -160 -169 -170 -178 -179 0
-60 -77 -78 -93 -94 -123 -124 -136 -137 -148 -149 -159 -160 -169 -170 -187 -188 0
-60 -77 -78 -93 -94 -123 -124 -136 -137 -148 -149 -159 -160 -179 -180 -187 -188 0
-60 -77 -78 -93 -94 -123 -124 -136 -137 -148 -149 -170 -171 -179 -180 -187 -188 0
-60 -77 -78 -93 -94 -123 -124 -136 -137 -160 -161 -170 -171 -179 -180 -187 -188 0
-60 -77 -78 -93 -94 -123 -124 -149 -150 -160 -161 -170 -171 -179 -180 -187 -188 0
-60 -77 -78 -93 -94 -137 -138 -149 -150 -160 -161 -170 -171 -179 -180 -187 -188 0
-59 -76 -77 -108 -109 -122 -123 -135 -136 -147 -148 -158 -159 -168 -169 -177 -178 0
-60 -76 -78 -108 -109 -122 -123 -135 -136 -147 -148 -158 -159 -168 -169 -177 -178 0
-60 -77 -78 -108 -110 -122 -123 -135 -136 -147 -148 -158 -159 -168 -169 -177 -178 0
-60 -77 -78 -109 -110 -122 -124 -135 -136 -147 -148 -158 -159 -168 -169 -177 -178 0
-60 -77 -78 -109 -110 -123 -124 -135 -137 -147 -148 -158 -159 -168 -169 -177 -178 0
-60 -77 -78 -109 -110 -123 -124 -136 -137 -147 -149 -158 -159 -168 -169 -177 -178 0
-60 -77 -78 -109 -110 -123 -124 -136 -137 -148 -149 -158 -160 -168 -169 -177 -178 0
-60 -77 -78 -109 -110 -123 -124 -136 -137 -148 -149 -159 -160 -168 -170 -177 -178 0
-60 -77 -78 -109 -110 -123 -124 -136 -137 -148 -149 -159 -160 -169 -170 -177 -179 0
-60 -77 -78 -109 -110 -123 -124 -136 -137 -148 -149 -159 -160 -169 -170 -178 -179 0
-60 -77 -78 -109 -110 -123 -124 -136 -137 -148 -149 -159 -160 -169 -170 -187 -188 0
-60 -77 -78 -109 -110 -123 -124 -136 -137 -148 -149 -159 -160 -179 -180 -187 -188 0
-60 -77 -78 -109 -110 -123 -124 -136 -137 -148 -149 -170 -171 -179 -180 -187 -188 0
-60 -77 -78 -109 -110 -123 -124 -136 -137 -160 -161 -170 -171 -179 -180 -187 -188 0
-60 -77 -78 -109 -110 -123 -124 -149 -150 -160 -161 -170 -171 -179 -180 -187 -188 0
-60 -77 -78 -109 -110 -137 -138 -149 -150 -160 -161 -170 -171 -179 -180 -187 -188 0
-60 -77 -78 -124 -125 -137 -138 -149 -150 -160 -161 -170 -171 -179 -180 -187 -188 0
-59 -93 -94 -108 -109 -122 -123 -135 -136 -147 -148 -158 -159 -168 -169 -177 -178 0
-60 -93 -95 -108 -109 -122 -123 -135 -136 -147 -148 -158 -159 -168 -169 -177 -178 0
-60 -94 -95 -108 -110 -122 -123 -135 -136 -147 -148 -158 -159 -168 -169 -177 -178 0
-60 -94 -95 -109 -110 -122 -124 -135 -136 -147 -148 -158 -159 -168 -169 -177 -178 0
-60 -94 -95 -109 -110 -123 -124 -135 -137 -147 -148 -158 -159 -168 -169 -177 -178 0
-60 -94 -95 -109 -110 -123 -124 -136 -137 -147 -149 -158 -159 -168 -169 -177 -178 0
-60 -94 -95 -109 -110 -123 -124 -136 -137 -148 -149 -158 -160 -168 -169 -177 -178 0
-60 -94 -95 -109 -110 -123 -124 -136 -137 -148 -149 -159 -160 -168 -170 -177 -178 0
-60 -94 -95 -109 -110 -123 -124 -136 -137 -148 -149 -159 -160 -169 -170 -177 -179 0
-60 -94 -95 -109 -110 -123 -124 -136 -137 -148 -149 -159 -160 -169 -170 -178 -179 0
-60 -94 -95 -109 -110 -123 -124 -136 -137 -148 -149 -159 -160 -169 -170 -187 -188 0
-60 -94 -95 -109 -110 -123 -124 -136 -137 -148 -149 -159 -160 -179 -180 -187 -188 0
-60 -94 -95 -109 -110 -123 -124 -136 -137 -148 -149 -170 -171 -179 -180 -187 -188 0
-60 -94 -95 -109 -110 -123 -124 -136 -137 -160 -161 -170 -171 -179 -180 -187 -188 0
-60 -94 -95 -109 -110 -123 -124 -149 -150 -160 -161 -170 -171 -179 -180 -187 -188 0
-60 -94 -95 -109 -110 -137 -138 -149 -150 -160 -161 -170 -171 -179 -180 -187 -188 0
-60 -94 -95 -124 -125 -137 -138 -149 -150 -160 -161 -170 -171 -179 -180 -187 -188 0
-60 -110 -111 -124 -125 -137 -138 -149 -150 -160 -161 -170 -171 -179 -180 -187 -188 0
-77 -93 -94 -108 -109 -122 -123 -135 -136 -147 -148 -158 -159 -168 -169 -177 -178 0
-78 -93 -95 -108 -109 -122 -123 -135 -136 -147 -148 -158 -159 -168 -169 -177 -178 0
-78 -94 -95 -108 -110 -122 -123 -135 -136 -147 -148 -158 -159 -168 -169 -177 -178 0
-78 -94 -95 -109 -110 -122 -124 -135 -136 -147 -148 -158 -159 -168 -169 -177 -178 0
-78 -94 -95 -109 -110 -123 -124 -135 -137 -147 -148 -158 -159 -168 -169 -177 -178 0
-78 -94 -95 -109 -110 -123 -124 -136 -137 -147 -149 -158 -159 -168 -169 -177 -178 0
-78 -94 -95 -109 -110 -123 -124 -136 -137 -148 -149 -158 -160 -168 -169 -177 -178 0
-78 -94 -95 -109 -110 -123 -124 -136 -137 -148 -149 -159 -160 -168 -170 -177 -178 0
-78 -94 -95 -109 -110 -123 -124 -136 -137 -148 -149 -159 -160 -169 -170 -177 -179 0
-78 -94 -95 -109 -110 -123 -124 -136 -137 -148 -149 -159 -160 -169 -170 -178 -179 0
-78 -94 -95 -109 -110 -123 -124 -136 -137 -148 -149 -159 -160 -169 -170 -187 -188 0
-78 -94 -95 -109 -110 -123 -124 -136 -137 -148 -149 -159 -160 -179 -180 -187 -188 0
-78 -94 -95 -109 -110 -123 -124 -136 -137 -148 -149 -170 -171 -179 -180 -187 -188 0
-78 -94 -95 -109 -110 -123 -124 -136 -137 -160 -161 -170 -171 -179 -180 -187 -188 0
-78 -94 -95 -109 -110 -123 -124 -149 -150 -160 -161 -170 -171 -179 -180 -187 -188 0
-78 -94 -95 -109 -110 -137 -138 -149 -150 -160 -161 -170 -171 -179 -180 -187 -188 0
-78 -94 -95 -124 -125 -137 -138 -149 -150 -160 -161 -170 -171 -179 -180 -187 -188 0
-78 -110 -111 -124 -125 -137 -138 -149 -150 -160 -161 -170 -171 -179 -180 -187 -188 0
-95 -110 -111 -124 -125 -137 -138 -149 -150 -160 -161 -170 -171 -179 -180 -187 -188 0
