c Ordered Ramsey CNF instance
c n = 19, N = 23
c Positive literal = blue edge
c Negative literal = red edge
p cnf 253 10626
1 2 0
1 3 0
1 4 0
1 5 0
1 6 0
1 7 0
1 8 0
1 9 0
1 10 0
1 11 0
1 12 0
1 13 0
1 14 0
1 15 0
1 16 0
1 17 0
1 18 0
1 19 0
1 20 0
1 21 0
1 22 0
2 3 0
2 4 0
2 5 0
2 6 0
2 7 0
2 8 0
2 9 0
2 10 0
2 11 0
2 12 0
2 13 0
2 14 0
2 15 0
2 16 0
2 17 0
2 18 0
2 19 0
2 20 0
2 21 0
2 22 0
3 4 0
3 5 0
3 6 0
3 7 0
3 8 0
3 9 0
3 10 0
3 11 0
3 12 0
3 13 0
3 14 0
3 15 0
3 16 0
3 17 0
3 18 0
3 19 0
3 20 0
3 21 0
3 22 0
4 5 0
4 6 0
4 7 0
4 8 0
4 9 0
4 10 0
4 11 0
4 12 0
4 13 0
4 14 0
4 15 0
4 16 0
4 17 0
4 18 0
4 19 0
4 20 0
4 21 0
4 22 0
5 6 0
5 7 0
5 8 0
5 9 0
5 10 0
5 11 0
5 12 0
5 13 0
5 14 0
5 15 0
5 16 0
5 17 0
5 18 0
5 19 0
5 20 0
5 21 0
5 22 0
6 7 0
6 8 0
6 9 0
6 10 0
6 11 0
6 12 0
6 13 0
6 14 0
6 15 0
6 16 0
6 17 0
6 18 0
6 19 0
6 20 0
6 21 0
6 22 0
7 8 0
7 9 0
7 10 0
7 11 0
7 12 0
7 13 0
7 14 0
7 15 0
7 16 0
7 17 0
7 18 0
7 19 0
7 20 0
7 21 0
7 22 0
8 9 0
8 10 0
8 11 0
8 12 0
8 13 0
8 14 0
8 15 0
8 16 0
8 17 0
8 18 0
8 19 0
8 20 0
8 21 0
8 22 0
9 10 0
9 11 0
9 12 0
9 13 0
9 14 0
9 15 0
9 16 0
9 17 0
9 18 0
9 19 0
9 20 0
9 21 0
9 22 0
10 11 0
10 12 0
10 13 0
10 14 0
10 15 0
10 16 0
10 17 0
10 18 0
10 19 0
10 20 0
10 21 0
10 22 0
11 12 0
11 13 0
11 14 0
11 15 0
11 16 0
11 17 0
11 18 0
11 19 0
11 20 0
11 21 0
11 22 0
12 13 0
12 14 0
12 15 0
12 16 0
12 17 0
12 18 0
12 19 0
12 20 0
12 21 0
12 22 0
13 14 0
13 15 0
13 16 0
13 17 0
13 18 0
13 19 0
13 20 0
13 21 0
13 22 0
14 15 0
14 16 0
14 17 0
14 18 0
14 19 0
14 20 0
14 21 0
14 22 0
15 16 0
15 17 0
15 18 0
15 19 0
15 20 0
15 21 0
15 22 0
16 17 0
16 18 0
16 19 0
16 20 0
16 21 0
16 22 0
17 18 0
17 19 0
17 20 0
17 21 0
17 22 0
18 19 0
18 20 0
18 21 0
18 22 0
19 20 0
19 21 0
19 22 0
20 21 0
20 22 0
21 22 0
23 24 0
23 25 0
23 26 0
23 27 0
23 28 0
23 29 0
23 30 0
23 31 0
23 32 0
23 33 0
23 34 0
23 35 0
23 36 0
23 37 0
23 38 0
23 39 0
23 40 0
23 41 0
23 42 0
23 43 0
24 25 0
24 26 0
24 27 0
24 28 0
24 29 0
24 30 0
24 31 0
24 32 0
24 33 0
24 34 0
24 35 0
24 36 0
24 37 0
24 38 0
24 39 0
24 40 0
24 41 0
24 42 0
24 43 0
25 26 0
25 27 0
25 28 0
25 29 0
25 30 0
25 31 0
25 32 0
25 33 0
25 34 0
25 35 0
25 36 0
25 37 0
25 38 0
25 39 0
25 40 0
25 41 0
25 42 0
25 43 0
26 27 0
26 28 0
26 29 0
26 30 0
26 31 0
26 32 0
26 33 0
26 34 0
26 35 0
26 36 0
26 37 0
26 38 0
26 39 0
26 40 0
26 41 0
26 42 0
26 43 0
27 28 0
27 29 0
27 30 0
27 31 0
27 32 0
27 33 0
27 34 0
27 35 0
27 36 0
27 37 0
27 38 0
27 39 0
27 40 0
27 41 0
27 42 0
27 43 0
28 29 0
28 30 0
28 31 0
28 32 0
28 33 0
28 34 0
28 35 0
28 36 0
28 37 0
28 38 0
28 39 0
28 40 0
28 41 0
28 42 0
28 43 0
29 30 0
29 31 0
29 32 0
29 33 0
29 34 0
29 35 0
29 36 0
29 37 0
29 38 0
29 39 0
29 40 0
29 41 0
29 42 0
29 43 0
30 31 0
30 32 0
30 33 0
30 34 0
30 35 0
30 36 0
30 37 0
30 38 0
30 39 0
30 40 0
30 41 0
30 42 0
30 43 0
31 32 0
31 33 0
31 34 0
31 35 0
31 36 0
31 37 0
31 38 0
31 39 0
31 40 0
31 41 0
31 42 0
31 43 0
32 33 0
32 34 0
32 35 0
32 36 0
32 37 0
32 38 0
32 39 0
32 40 0
32 41 0
32 42 0
32 43 0
33 34 0
33 35 0
33 36 0
33 37 0
33 38 0
33 39 0
33 40 0
33 41 0
33 42 0
33 43 0
34 35 0
34 36 0
34 37 0
34 38 0
34 39 0
34 40 0
34 41 0
34 42 0
34 43 0
35 36 0
35 37 0
35 38 0
35 39 0
35 40 0
35 41 0
35 42 0
35 43 0
36 37 0
36 38 0
36 39 0
36 40 0
36 41 0
36 42 0
36 43 0
37 38 0
37 39 0
37 40 0
37 41 0
37 42 0
37 43 0
38 39 0
38 40 0
38 41 0
38 42 0
38 43 0
39 40 0
39 41 0
39 42 0
39 43 0
40 41 0
40 42 0
40 43 0
41 42 0
41 43 0
42 43 0
44 45 0
44 46 0
44 47 0
44 48 0
44 49 0
44 50 0
44 51 0
44 52 0
44 53 0
44 54 0
44 55 0
44 56 0
44 57 0
44 58 0
44 59 0
44 60 0
44 61 0
44 62 0
44 63 0
45 46 0
45 47 0
45 48 0
45 49 0
45 50 0
45 51 0
45 52 0
45 53 0
45 54 0
45 55 0
45 56 0
45 57 0
45 58 0
45 59 0
45 60 0
45 61 0
45 62 0
45 63 0
46 47 0
46 48 0
46 49 0
46 50 0
46 51 0
46 52 0
46 53 0
46 54 0
46 55 0
46 56 0
46 57 0
46 58 0
46 59 0
46 60 0
46 61 0
46 62 0
46 63 0
47 48 0
47 49 0
47 50 0
47 51 0
47 52 0
47 53 0
47 54 0
47 55 0
47 56 0
47 57 0
47 58 0
47 59 0
47 60 0
47 61 0
47 62 0
47 63 0
48 49 0
48 50 0
48 51 0
48 52 0
48 53 0
48 54 0
48 55 0
48 56 0
48 57 0
48 58 0
48 59 0
48 60 0
48 61 0
48 62 0
48 63 0
49 50 0
49 51 0
49 52 0
49 53 0
49 54 0
49 55 0
49 56 0
49 57 0
49 58 0
49 59 0
49 60 0
49 61 0
49 62 0
49 63 0
50 51 0
50 52 0
50 53 0
50 54 0
50 55 0
50 56 0
50 57 0
50 58 0
50 59 0
50 60 0
50 61 0
50 62 0
50 63 0
51 52 0
51 53 0
51 54 0
51 55 0
51 56 0
51 57 0
51 58 0
51 59 0
51 60 0
51 61 0
51 62 0
51 63 0
52 53 0
52 54 0
52 55 0
52 56 0
52 57 0
52 58 0
52 59 0
52 60 0
52 61 0
52 62 0
52 63 0
53 54 0
53 55 0
53 56 0
53 57 0
53 58 0
53 59 0
53 60 0
53 61 0
53 62 0
53 63 0
54 55 0
54 56 0
54 57 0
54 58 0
54 59 0
54 60 0
54 61 0
54 62 0
54 63 0
55 56 0
55 57 0
55 58 0
55 59 0
55 60 0
55 61 0
55 62 0
55 63 0
56 57 0
56 58 0
56 59 0
56 60 0
56 61 0
56 62 0
56 63 0
57 58 0
57 59 0
57 60 0
57 61 0
57 62 0
57 63 0
58 59 0
58 60 0
58 61 0
58 62 0
58 63 0
59 60 0
59 61 0
59 62 0
59 63 0
60 61 0
60 62 0
60 63 0
61 62 0
61 63 0
62 63 0
64 65 0
64 66 0
64 67 0
64 68 0
64 69 0
64 70 0
64 71 0
64 72 0
64 73 0
64 74 0
64 75 0
64 76 0
64 77 0
64 78 0
64 79 0
64 80 0
64 81 0
64 82 0
65 66 0
65 67 0
65 68 0
65 69 0
65 70 0
65 71 0
65 72 0
65 73 0
65 74 0
65 75 0
65 76 0
65 77 0
65 78 0
65 79 0
65 80 0
65 81 0
65 82 0
66 67 0
66 68 0
66 69 0
66 70 0
66 71 0
66 72 0
66 73 0
66 74 0
66 75 0
66 76 0
66 77 0
66 78 0
66 79 0
66 80 0
66 81 0
66 82 0
67 68 0
67 69 0
67 70 0
67 71 0
67 72 0
67 73 0
67 74 0
67 75 0
67 76 0
67 77 0
67 78 0
67 79 0
67 80 0
67 81 0
67 82 0
68 69 0
68 70 0
68 71 0
68 72 0
68 73 0
68 74 0
68 75 0
68 76 0
68 77 0
68 78 0
68 79 0
68 80 0
68 81 0
68 82 0
69 70 0
69 71 0
69 72 0
69 73 0
69 74 0
69 75 0
69 76 0
69 77 0
69 78 0
69 79 0
69 80 0
69 81 0
69 82 0
70 71 0
70 72 0
70 73 0
70 74 0
70 75 0
70 76 0
70 77 0
70 78 0
70 79 0
70 80 0
70 81 0
70 82 0
71 72 0
71 73 0
71 74 0
71 75 0
71 76 0
71 77 0
71 78 0
71 79 0
71 80 0
71 81 0
71 82 0
72 73 0
72 74 0
72 75 0
72 76 0
72 77 0
72 78 0
72 79 0
72 80 0
72 81 0
72 82 0
73 74 0
73 75 0
73 76 0
73 77 0
73 78 0
73 79 0
73 80 0
73 81 0
73 82 0
74 75 0
74 76 0
74 77 0
74 78 0
74 79 0
74 80 0
74 81 0
74 82 0
75 76 0
75 77 0
75 78 0
75 79 0
75 80 0
75 81 0
75 82 0
76 77 0
76 78 0
76 79 0
76 80 0
76 81 0
76 82 0
77 78 0
77 79 0
77 80 0
77 81 0
77 82 0
78 79 0
78 80 0
78 81 0
78 82 0
79 80 0
79 81 0
79 82 0
80 81 0
80 82 0
81 82 0
83 84 0
83 85 0
83 86 0
83 87 0
83 88 0
83 89 0
83 90 0
83 91 0
83 92 0
83 93 0
83 94 0
83 95 0
83 96 0
83 97 0
83 98 0
83 99 0
83 100 0
84 85 0
84 86 0
84 87 0
84 88 0
84 89 0
84 90 0
84 91 0
84 92 0
84 93 0
84 94 0
84 95 0
84 96 0
84 97 0
84 98 0
84 99 0
84 100 0
85 86 0
85 87 0
85 88 0
85 89 0
85 90 0
85 91 0
85 92 0
85 93 0
85 94 0
85 95 0
85 96 0
85 97 0
85 98 0
85 99 0
85 100 0
86 87 0
86 88 0
86 89 0
86 90 0
86 91 0
86 92 0
86 93 0
86 94 0
86 95 0
86 96 0
86 97 0
86 98 0
86 99 0
86 100 0
87 88 0
87 89 0
87 90 0
87 91 0
87 92 0
87 93 0
87 94 0
87 95 0
87 96 0
87 97 0
87 98 0
87 99 0
87 100 0
88 89 0
88 90 0
88 91 0
88 92 0
88 93 0
88 94 0
88 95 0
88 96 0
88 97 0
88 98 0
88 99 0
88 100 0
89 90 0
89 91 0
89 92 0
89 93 0
89 94 0
89 95 0
89 96 0
89 97 0
89 98 0
89 99 0
89 100 0
90 91 0
90 92 0
90 93 0
90 94 0
90 95 0
90 96 0
90 97 0
90 98 0
90 99 0
90 100 0
91 92 0
91 93 0
91 94 0
91 95 0
91 96 0
91 97 0
91 98 0
91 99 0
91 100 0
92 93 0
92 94 0
92 95 0
92 96 0
92 97 0
92 98 0
92 99 0
92 100 0
93 94 0
93 95 0
93 96 0
93 97 0
93 98 0
93 99 0
93 100 0
94 95 0
94 96 0
94 97 0
94 98 0
94 99 0
94 100 0
95 96 0
95 97 0
95 98 0
95 99 0
95 100 0
96 97 0
96 98 0
96 99 0
96 100 0
97 98 0
97 99 0
97 100 0
98 99 0
98 100 0
99 100 0
101 102 0
101 103 0
101 104 0
101 105 0
101 106 0
101 107 0
101 108 0
101 109 0
101 110 0
101 111 0
101 112 0
101 113 0
101 114 0
101 115 0
101 116 0
101 117 0
102 103 0
102 104 0
102 105 0
102 106 0
102 107 0
102 108 0
102 109 0
102 110 0
102 111 0
102 112 0
102 113 0
102 114 0
102 115 0
102 116 0
102 117 0
103 104 0
103 105 0
103 106 0
103 107 0
103 108 0
103 109 0
103 110 0
103 111 0
103 112 0
103 113 0
103 114 0
103 115 0
103 116 0
103 117 0
104 105 0
104 106 0
104 107 0
104 108 0
104 109 0
104 110 0
104 111 0
104 112 0
104 113 0
104 114 0
104 115 0
104 116 0
104 117 0
105 106 0
105 107 0
105 108 0
105 109 0
105 110 0
105 111 0
105 112 0
105 113 0
105 114 0
105 115 0
105 116 0
105 117 0
106 107 0
106 108 0
106 109 0
106 110 0
106 111 0
106 112 0
106 113 0
106 114 0
106 115 0
106 116 0
106 117 0
107 108 0
107 109 0
107 110 0
107 111 0
107 112 0
107 113 0
107 114 0
107 115 0
107 116 0
107 117 0
108 109 0
108 110 0
108 111 0
108 112 0
108 113 0
108 114 0
108 115 0
108 116 0
108 117 0
109 110 0
109 111 0
109 112 0
109 113 0
109 114 0
109 115 0
109 116 0
109 117 0
110 111 0
110 112 0
110 113 0
110 114 0
110 115 0
110 116 0
110 117 0
111 112 0
111 113 0
111 114 0
111 115 0
111 116 0
111 117 0
112 113 0
112 114 0
112 115 0
112 116 0
112 117 0
113 114 0
113 115 0
113 116 0
113 117 0
114 115 0
114 116 0
114 117 0
115 116 0
115 117 0
116 117 0
118 119 0
118 120 0
118 121 0
118 122 0
118 123 0
118 124 0
118 125 0
118 126 0
118 127 0
118 128 0
118 129 0
118 130 0
118 131 0
118 132 0
118 133 0
119 120 0
119 121 0
119 122 0
119 123 0
119 124 0
119 125 0
119 126 0
119 127 0
119 128 0
119 129 0
119 130 0
119 131 0
119 132 0
119 133 0
120 121 0
120 122 0
120 123 0
120 124 0
120 125 0
120 126 0
120 127 0
120 128 0
120 129 0
120 130 0
120 131 0
120 132 0
120 133 0
121 122 0
121 123 0
121 124 0
121 125 0
121 126 0
121 127 0
121 128 0
121 129 0
121 130 0
121 131 0
121 132 0
121 133 0
122 123 0
122 124 0
122 125 0
122 126 0
122 127 0
122 128 0
122 129 0
122 130 0
122 131 0
122 132 0
122 133 0
123 124 0
123 125 0
123 126 0
123 127 0
123 128 0
123 129 0
123 130 0
123 131 0
123 132 0
123 133 0
124 125 0
124 126 0
124 127 0
124 128 0
124 129 0
124 130 0
124 131 0
124 132 0
124 133 0
125 126 0
125 127 0
125 128 0
125 129 0
125 130 0
125 131 0
125 132 0
125 133 0
126 127 0
126 128 0
126 129 0
126 130 0
126 131 0
126 132 0
126 133 0
127 128 0
127 129 0
127 130 0
127 131 0
127 132 0
127 133 0
128 129 0
128 130 0
128 131 0
128 132 0
128 133 0
129 130 0
129 131 0
129 132 0
129 133 0
130 131 0
130 132 0
130 133 0
131 132 0
131 133 0
132 133 0
134 135 0
134 136 0
134 137 0
134 138 0
134 139 0
134 140 0
134 141 0
134 142 0
134 143 0
134 144 0
134 145 0
134 146 0
134 147 0
134 148 0
135 136 0
135 137 0
135 138 0
135 139 0
135 140 0
135 141 0
135 142 0
135 143 0
135 144 0
135 145 0
135 146 0
135 147 0
135 148 0
136 137 0
136 138 0
136 139 0
136 140 0
136 141 0
136 142 0
136 143 0
136 144 0
136 145 0
136 146 0
136 147 0
136 148 0
137 138 0
137 139 0
137 140 0
137 141 0
137 142 0
137 143 0
137 144 0
137 145 0
137 146 0
137 147 0
137 148 0
138 139 0
138 140 0
138 141 0
138 142 0
138 143 0
138 144 0
138 145 0
138 146 0
138 147 0
138 148 0
139 140 0
139 141 0
139 142 0
139 143 0
139 144 0
139 145 0
139 146 0
139 147 0
139 148 0
140 141 0
140 142 0
140 143 0
140 144 0
140 145 0
140 146 0
140 147 0
140 148 0
141 142 0
141 143 0
141 144 0
141 145 0
141 146 0
141 147 0
141 148 0
142 143 0
142 144 0
142 145 0
142 146 0
142 147 0
142 148 0
143 144 0
143 145 0
143 146 0
143 147 0
143 148 0
144 145 0
144 146 0
144 147 0
144 148 0
145 146 0
145 147 0
145 148 0
146 147 0
146 148 0
147 148 0
149 150 0
149 151 0
149 152 0
149 153 0
149 154 0
149 155 0
149 156 0
149 157 0
149 158 0
149 159 0
149 160 0
149 161 0
149 162 0
150 151 0
150 152 0
150 153 0
150 154 0
150 155 0
150 156 0
150 157 0
150 158 0
150 159 0
150 160 0
150 161 0
150 162 0
151 152 0
151 153 0
151 154 0
151 155 0
151 156 0
151 157 0
151 158 0
151 159 0
151 160 0
151 161 0
151 162 0
152 153 0
152 154 0
152 155 0
152 156 0
152 157 0
152 158 0
152 159 0
152 160 0
152 161 0
152 162 0
153 154 0
153 155 0
153 156 0
153 157 0
153 158 0
153 159 0
153 160 0
153 161 0
153 162 0
154 155 0
154 156 0
154 157 0
154 158 0
154 159 0
154 160 0
154 161 0
154 162 0
155 156 0
155 157 0
155 158 0
155 159 0
155 160 0
155 161 0
155 162 0
156 157 0
156 158 0
156 159 0
156 160 0
156 161 0
156 162 0
157 158 0
157 159 0
157 160 0
157 161 0
157 162 0
158 159 0
158 160 0
158 161 0
158 162 0
159 160 0
159 161 0
159 162 0
160 161 0
160 162 0
161 162 0
163 164 0
163 165 0
163 166 0
163 167 0
163 168 0
163 169 0
163 170 0
163 171 0
163 172 0
163 173 0
163 174 0
163 175 0
164 165 0
164 166 0
164 167 0
164 168 0
164 169 0
164 170 0
164 171 0
164 172 0
164 173 0
164 174 0
164 175 0
165 166 0
165 167 0
165 168 0
165 169 0
165 170 0
165 171 0
165 172 0
165 173 0
165 174 0
165 175 0
166 167 0
166 168 0
166 169 0
166 170 0
166 171 0
166 172 0
166 173 0
166 174 0
166 175 0
167 168 0
167 169 0
167 170 0
167 171 0
167 172 0
167 173 0
167 174 0
167 175 0
168 169 0
168 170 0
168 171 0
168 172 0
168 173 0
168 174 0
168 175 0
169 170 0
169 171 0
169 172 0
169 173 0
169 174 0
169 175 0
170 171 0
170 172 0
170 173 0
170 174 0
170 175 0
171 172 0
171 173 0
171 174 0
171 175 0
172 173 0
172 174 0
172 175 0
173 174 0
173 175 0
174 175 0
176 177 0
176 178 0
176 179 0
176 180 0
176 181 0
176 182 0
176 183 0
176 184 0
176 185 0
176 186 0
176 187 0
177 178 0
177 179 0
177 180 0
177 181 0
177 182 0
177 183 0
177 184 0
177 185 0
177 186 0
177 187 0
178 179 0
178 180 0
178 181 0
178 182 0
178 183 0
178 184 0
178 185 0
178 186 0
178 187 0
179 180 0
179 181 0
179 182 0
179 183 0
179 184 0
179 185 0
179 186 0
179 187 0
180 181 0
180 182 0
180 183 0
180 184 0
180 185 0
180 186 0
180 187 0
181 182 0
181 183 0
181 184 0
181 185 0
181 186 0
181 187 0
182 183 0
182 184 0
182 185 0
182 186 0
182 187 0
183 184 0
183 185 0
183 186 0
183 187 0
184 185 0
184 186 0
184 187 0
185 186 0
185 187 0
186 187 0
188 189 0
188 190 0
188 191 0
188 192 0
188 193 0
188 194 0
188 195 0
188 196 0
188 197 0
188 198 0
189 190 0
189 191 0
189 192 0
189 193 0
189 194 0
189 195 0
189 196 0
189 197 0
189 198 0
190 191 0
190 192 0
190 193 0
190 194 0
190 195 0
190 196 0
190 197 0
190 198 0
191 192 0
191 193 0
191 194 0
191 195 0
191 196 0
191 197 0
191 198 0
192 193 0
192 194 0
192 195 0
192 196 0
192 197 0
192 198 0
193 194 0
193 195 0
193 196 0
193 197 0
193 198 0
194 195 0
194 196 0
194 197 0
194 198 0
195 196 0
195 197 0
195 198 0
196 197 0
196 198 0
197 198 0
199 200 0
199 201 0
199 202 0
199 203 0
199 204 0
199 205 0
199 206 0
199 207 0
199 208 0
200 201 0
200 202 0
200 203 0
200 204 0
200 205 0
200 206 0
200 207 0
200 208 0
201 202 0
201 203 0
201 204 0
201 205 0
201 206 0
201 207 0
201 208 0
202 203 0
202 204 0
202 205 0
202 206 0
202 207 0
202 208 0
203 204 0
203 205 0
203 206 0
203 207 0
203 208 0
204 205 0
204 206 0
204 207 0
204 208 0
205 206 0
205 207 0
205 208 0
206 207 0
206 208 0
207 208 0
209 210 0
209 211 0
209 212 0
209 213 0
209 214 0
209 215 0
209 216 0
209 217 0
210 211 0
210 212 0
210 213 0
210 214 0
210 215 0
210 216 0
210 217 0
211 212 0
211 213 0
211 214 0
211 215 0
211 216 0
211 217 0
212 213 0
212 214 0
212 215 0
212 216 0
212 217 0
213 214 0
213 215 0
213 216 0
213 217 0
214 215 0
214 216 0
214 217 0
215 216 0
215 217 0
216 217 0
218 219 0
218 220 0
218 221 0
218 222 0
218 223 0
218 224 0
218 225 0
219 220 0
219 221 0
219 222 0
219 223 0
219 224 0
219 225 0
220 221 0
220 222 0
220 223 0
220 224 0
220 225 0
221 222 0
221 223 0
221 224 0
221 225 0
222 223 0
222 224 0
222 225 0
223 224 0
223 225 0
224 225 0
226 227 0
226 228 0
226 229 0
226 230 0
226 231 0
226 232 0
227 228 0
227 229 0
227 230 0
227 231 0
227 232 0
228 229 0
228 230 0
228 231 0
228 232 0
229 230 0
229 231 0
229 232 0
230 231 0
230 232 0
231 232 0
233 234 0
233 235 0
233 236 0
233 237 0
233 238 0
234 235 0
234 236 0
234 237 0
234 238 0
235 236 0
235 237 0
235 238 0
236 237 0
236 238 0
237 238 0
239 240 0
239 241 0
239 242 0
239 243 0
240 241 0
240 242 0
240 243 0
241 242 0
241 243 0
242 243 0
244 245 0
244 246 0
244 247 0
245 246 0
245 247 0
246 247 0
248 249 0
248 250 0
249 250 0
251 252 0
-18 -38 -39 -57 -58 -75 -76 -92 -93 -108 -109 -123 -124 -137 -138 -150 -151 -163 0
-19 -38 -40 -57 -58 -75 -76 -92 -93 -108 -109 -123 -124 -137 -138 -150 -151 -163 0
-20 -38 -41 -57 -58 -75 -76 -92 -93 -108 -109 -123 -124 -137 -138 -150 -151 -163 0
-21 -38 -42 -57 -58 -75 -76 -92 -93 -108 -109 -123 -124 -137 -138 -150 -151 -163 0
-22 -38 -43 -57 -58 -75 -76 -92 -93 -108 -109 -123 -124 -137 -138 -150 -151 -163 0
-19 -39 -40 -57 -59 -75 -76 -92 -93 -108 -109 -123 -124 -137 -138 -150 -151 -163 0
-20 -39 -41 -57 -59 -75 -76 -92 -93 -108 -109 -123 -124 -137 -138 -150 -151 -163 0
-21 -39 -42 -57 -59 -75 -76 -92 -93 -108 -109 -123 -124 -137 -138 -150 -151 -163 0
-22 -39 -43 -57 -59 -75 -76 -92 -93 -108 -109 -123 -124 -137 -138 -150 -151 -163 0
-20 -40 -41 -57 -60 -75 -76 -92 -93 -108 -109 -123 -124 -137 -138 -150 -151 -163 0
-21 -40 -42 -57 -60 -75 -76 -92 -93 -108 -109 -123 -124 -137 -138 -150 -151 -163 0
-22 -40 -43 -57 -60 -75 -76 -92 -93 -108 -109 -123 -124 -137 -138 -150 -151 -163 0
-21 -41 -42 -57 -61 -75 -76 -92 -93 -108 -109 -123 -124 -137 -138 -150 -151 -163 0
-22 -41 -43 -57 -61 -75 -76 -92 -93 -108 -109 -123 -124 -137 -138 -150 -151 -163 0
-22 -42 -43 -57 -62 -75 -76 -92 -93 -108 -109 -123 -124 -137 -138 -150 -151 -163 0
-19 -39 -40 -58 -59 -75 -77 -92 -93 -108 -109 -123 -124 -137 -138 -150 -151 -163 0
-20 -39 -41 -58 -59 -75 -77 -92 -93 -108 -109 -123 -124 -137 -138 -150 -151 -163 0
-21 -39 -42 -58 -59 -75 -77 -92 -93 -108 -109 -123 -124 -137 -138 -150 -151 -163 0
-22 -39 -43 -58 -59 -75 -77 -92 -93 -108 -109 -123 -124 -137 -138 -150 -151 -163 0
-20 -40 -41 -58 -60 -75 -77 -92 -93 -108 -109 -123 -124 -137 -138 -150 -151 -163 0
-21 -40 -42 -58 -60 -75 -77 -92 -93 -108 -109 -123 -124 -137 -138 -150 -151 -163 0
-22 -40 -43 -58 -60 -75 -77 -92 -93 -108 -109 -123 -124 -137 -138 -150 -151 -163 0
-21 -41 -42 -58 -61 -75 -77 -92 -93 -108 -109 -123 -124 -137 -138 -150 -151 -163 0
-22 -41 -43 -58 -61 -75 -77 -92 -93 -108 -109 -123 -124 -137 -138 -150 -151 -163 0
-22 -42 -43 -58 -62 -75 -77 -92 -93 -108 -109 -123 -124 -137 -138 -150 -151 -163 0
-20 -40 -41 -59 -60 -75 -78 -92 -93 -108 -109 -123 -124 -137 -138 -150 -151 -163 0
-21 -40 -42 -59 -60 -75 -78 -92 -93 -108 -109 -123 -124 -137 -138 -150 -151 -163 0
-22 -40 -43 -59 -60 -75 -78 -92 -93 -108 -109 -123 -124 -137 -138 -150 -151 -163 0
-21 -41 -42 -59 -61 -75 -78 -92 -93 -108 -109 -123 -124 -137 -138 -150 -151 -163 0
-22 -41 -43 -59 -61 -75 -78 -92 -93 -108 -109 -123 -124 -137 -138 -150 -151 -163 0
-22 -42 -43 -59 -62 -75 -78 -92 -93 -108 -109 -123 -124 -137 -138 -150 -151 -163 0
-21 -41 -42 -60 -61 -75 -79 -92 -93 -108 -109 -123 -124 -137 -138 -150 -151 -163 0
-22 -41 -43 -60 -61 -75 -79 -92 -93 -108 -109 -123 -124 -137 -138 -150 -151 -163 0
-22 -42 -43 -60 -62 -75 -79 -92 -93 -108 -109 -123 -124 -137 -138 -150 -151 -163 0
-22 -42 -43 -61 -62 -75 -80 -92 -93 -108 -109 -123 -124 -137 -138 -150 -151 -163 0
-19 -39 -40 -58 -59 -76 -77 -92 -94 -108 -109 -123 -124 -137 -138 -150 -151 -163 0
-20 -39 -41 -58 -59 -76 -77 -92 -94 -108 -109 -123 -124 -137 -138 -150 -151 -163 0
-21 -39 -42 -58 -59 -76 -77 -92 -94 -108 -109 -123 -124 -137 -138 -150 -151 -163 0
-22 -39 -43 -58 -59 -76 -77 -92 -94 -108 -109 -123 -124 -137 -138 -150 -151 -163 0
-20 -40 -41 -58 -60 -76 -77 -92 -94 -108 -109 -123 -124 -137 -138 -150 -151 -163 0
-21 -40 -42 -58 -60 -76 -77 -92 -94 -108 -109 -123 -124 -137 -138 -150 -151 -163 0
-22 -40 -43 -58 -60 -76 -77 -92 -94 -108 -109 -123 -124 -137 -138 -150 -151 -163 0
-21 -41 -42 -58 -61 -76 -77 -92 -94 -108 -109 -123 -124 -137 -138 -150 -151 -163 0
-22 -41 -43 -58 -61 -76 -77 -92 -94 -108 -109 -123 -124 -137 -138 -150 -151 -163 0
-22 -42 -43 -58 -62 -76 -77 -92 -94 -108 -109 -123 -124 -137 -138 -150 -151 -163 0
-20 -40 -41 -59 -60 -76 -78 -92 -94 -108 -109 -123 -124 -137 -138 -150 -151 -163 0
-21 -40 -42 -59 -60 -76 -78 -92 -94 -108 -109 -123 -124 -137 -138 -150 -151 -163 0
-22 -40 -43 -59 -60 -76 -78 -92 -94 -108 -109 -123 -124 -137 -138 -150 -151 -163 0
-21 -41 -42 -59 -61 -76 -78 -92 -94 -108 -109 -123 -124 -137 -138 -150 -151 -163 0
-22 -41 -43 -59 -61 -76 -78 -92 -94 -108 -109 -123 -124 -137 -138 -150 -151 -163 0
-22 -42 -43 -59 -62 -76 -78 -92 -94 -108 -109 -123 -124 -137 -138 -150 -151 -163 0
-21 -41 -42 -60 -61 -76 -79 -92 -94 -108 -109 -123 -124 -137 -138 -150 -151 -163 0
-22 -41 -43 -60 -61 -76 -79 -92 -94 -108 -109 -123 -124 -137 -138 -150 -151 -163 0
-22 -42 -43 -60 -62 -76 -79 -92 -94 -108 -109 -123 -124 -137 -138 -150 -151 -163 0
-22 -42 -43 -61 -62 -76 -80 -92 -94 -108 -109 -123 -124 -137 -138 -150 -151 -163 0
-20 -40 -41 -59 -60 -77 -78 -92 -95 -108 -109 -123 -124 -137 -138 -150 -151 -163 0
-21 -40 -42 -59 -60 -77 -78 -92 -95 -108 -109 -123 -124 -137 -138 -150 -151 -163 0
-22 -40 -43 -59 -60 -77 -78 -92 -95 -108 -109 -123 -124 -137 -138 -150 -151 -163 0
-21 -41 -42 -59 -61 -77 -78 -92 -95 -108 -109 -123 -124 -137 -138 -150 -151 -163 0
-22 -41 -43 -59 -61 -77 -78 -92 -95 -108 -109 -123 -124 -137 -138 -150 -151 -163 0
-22 -42 -43 -59 -62 -77 -78 -92 -95 -108 -109 -123 -124 -137 -138 -150 -151 -163 0
-21 -41 -42 -60 -61 -77 -79 -92 -95 -108 -109 -123 -124 -137 -138 -150 -151 -163 0
-22 -41 -43 -60 -61 -77 -79 -92 -95 -108 -109 -123 -124 -137 -138 -150 -151 -163 0
-22 -42 -43 -60 -62 -77 -79 -92 -95 -108 -109 -123 -124 -137 -138 -150 -151 -163 0
-22 -42 -43 -61 -62 -77 -80 -92 -95 -108 -109 -123 -124 -137 -138 -150 -151 -163 0
-21 -41 -42 -60 -61 -78 -79 -92 -96 -108 -109 -123 -124 -137 -138 -150 -151 -163 0
-22 -41 -43 -60 -61 -78 -79 -92 -96 -108 -109 -123 -124 -137 -138 -150 -151 -163 0
-22 -42 -43 -60 -62 -78 -79 -92 -96 -108 -109 -123 -124 -137 -138 -150 -151 -163 0
-22 -42 -43 -61 -62 -78 -80 -92 -96 -108 -109 -123 -124 -137 -138 -150 -151 -163 0
-22 -42 -43 -61 -62 -79 -80 -92 -97 -108 -109 -123 -124 -137 -138 -150 -151 -163 0
-19 -39 -40 -58 -59 -76 -77 -93 -94 -108 -110 -123 -124 -137 -138 -150 -151 -163 0
-20 -39 -41 -58 -59 -76 -77 -93 -94 -108 -110 -123 -124 -137 -138 -150 -151 -163 0
-21 -39 -42 -58 -59 -76 -77 -93 -94 -108 -110 -123 -124 -137 -138 -150 -151 -163 0
-22 -39 -43 -58 -59 -76 -77 -93 -94 -108 -110 -123 -124 -137 -138 -150 -151 -163 0
-20 -40 -41 -58 -60 -76 -77 -93 -94 -108 -110 -123 -124 -137 -138 -150 -151 -163 0
-21 -40 -42 -58 -60 -76 -77 -93 -94 -108 -110 -123 -124 -137 -138 -150 -151 -163 0
-22 -40 -43 -58 -60 -76 -77 -93 -94 -108 -110 -123 -124 -137 -138 -150 -151 -163 0
-21 -41 -42 -58 -61 -76 -77 -93 -94 -108 -110 -123 -124 -137 -138 -150 -151 -163 0
-22 -41 -43 -58 -61 -76 -77 -93 -94 -108 -110 -123 -124 -137 -138 -150 -151 -163 0
-22 -42 -43 -58 -62 -76 -77 -93 -94 -108 -110 -123 -124 -137 -138 -150 -151 -163 0
-20 -40 -41 -59 -60 -76 -78 -93 -94 -108 -110 -123 -124 -137 -138 -150 -151 -163 0
-21 -40 -42 -59 -60 -76 -78 -93 -94 -108 -110 -123 -124 -137 -138 -150 -151 -163 0
-22 -40 -43 -59 -60 -76 -78 -93 -94 -108 -110 -123 -124 -137 -138 -150 -151 -163 0
-21 -41 -42 -59 -61 -76 -78 -93 -94 -108 -110 -123 -124 -137 -138 -150 -151 -163 0
-22 -41 -43 -59 -61 -76 -78 -93 -94 -108 -110 -123 -124 -137 -138 -150 -151 -163 0
-22 -42 -43 -59 -62 -76 -78 -93 -94 -108 -110 -123 -124 -137 -138 -150 -151 -163 0
-21 -41 -42 -60 -61 -76 -79 -93 -94 -108 -110 -123 -124 -137 -138 -150 -151 -163 0
-22 -41 -43 -60 -61 -76 -79 -93 -94 -108 -110 -123 -124 -137 -138 -150 -151 -163 0
-22 -42 -43 -60 -62 -76 -79 -93 -94 -108 -110 -123 -124 -137 -138 -150 -151 -163 0
-22 -42 -43 -61 -62 -76 -80 -93 -94 -108 -110 -123 -124 -137 -138 -150 -151 -163 0
-20 -40 -41 -59 -60 -77 -78 -93 -95 -108 -110 -123 -124 -137 -138 -150 -151 -163 0
-21 -40 -42 -59 -60 -77 -78 -93 -95 -108 -110 -123 -124 -137 -138 -150 -151 -163 0
-22 -40 -43 -59 -60 -77 -78 -93 -95 -108 -110 -123 -124 -137 -138 -150 -151 -163 0
-21 -41 -42 -59 -61 -77 -78 -93 -95 -108 -110 -123 -124 -137 -138 -150 -151 -163 0
-22 -41 -43 -59 -61 -77 -78 -93 -95 -108 -110 -123 -124 -137 -138 -150 -151 -163 0
-22 -42 -43 -59 -62 -77 -78 -93 -95 -108 -110 -123 -124 -137 -138 -150 -151 -163 0
-21 -41 -42 -60 -61 -77 -79 -93 -95 -108 -110 -123 -124 -137 -138 -150 -151 -163 0
-22 -41 -43 -60 -61 -77 -79 -93 -95 -108 -110 -123 -124 -137 -138 -150 -151 -163 0
-22 -42 -43 -60 -62 -77 -79 -93 -95 -108 -110 -123 -124 -137 -138 -150 -151 -163 0
-22 -42 -43 -61 -62 -77 -80 -93 -95 -108 -110 -123 -124 -137 -138 -150 -151 -163 0
-21 -41 -42 -60 -61 -78 -79 -93 -96 -108 -110 -123 -124 -137 -138 -150 -151 -163 0
-22 -41 -43 -60 -61 -78 -79 -93 -96 -108 -110 -123 -124 -137 -138 -150 -151 -163 0
-22 -42 -43 -60 -62 -78 -79 -93 -96 -108 -110 -123 -124 -137 -138 -150 -151 -163 0
-22 -42 -43 -61 -62 -78 -80 -93 -96 -108 -110 -123 -124 -137 -138 -150 -151 -163 0
-22 -42 -43 -61 -62 -79 -80 -93 -97 -108 -110 -123 -124 -137 -138 -150 -151 -163 0
-20 -40 -41 -59 -60 -77 -78 -94 -95 -108 -111 -123 -124 -137 -138 -150 -151 -163 0
-21 -40 -42 -59 -60 -77 -78 -94 -95 -108 -111 -123 -124 -137 -138 -150 -151 -163 0
-22 -40 -43 -59 -60 -77 -78 -94 -95 -108 -111 -123 -124 -137 -138 -150 -151 -163 0
-21 -41 -42 -59 -61 -77 -78 -94 -95 -108 -111 -123 -124 -137 -138 -150 -151 -163 0
-22 -41 -43 -59 -61 -77 -78 -94 -95 -108 -111 -123 -124 -137 -138 -150 -151 -163 0
-22 -42 -43 -59 -62 -77 -78 -94 -95 -108 -111 -123 -124 -137 -138 -150 -151 -163 0
-21 -41 -42 -60 -61 -77 -79 -94 -95 -108 -111 -123 -124 -137 -138 -150 -151 -163 0
-22 -41 -43 -60 -61 -77 -79 -94 -95 -108 -111 -123 -124 -137 -138 -150 -151 -163 0
-22 -42 -43 -60 -62 -77 -79 -94 -95 -108 -111 -123 -124 -137 -138 -150 -151 -163 0
-22 -42 -43 -61 -62 -77 -80 -94 -95 -108 -111 -123 -124 -137 -138 -150 -151 -163 0
-21 -41 -42 -60 -61 -78 -79 -94 -96 -108 -111 -123 -124 -137 -138 -150 -151 -163 0
-22 -41 -43 -60 -61 -78 -79 -94 -96 -108 -111 -123 -124 -137 -138 -150 -151 -163 0
-22 -42 -43 -60 -62 -78 -79 -94 -96 -108 -111 -123 -124 -137 -138 -150 -151 -163 0
-22 -42 -43 -61 -62 -78 -80 -94 -96 -108 -111 -123 -124 -137 -138 -150 -151 -163 0
-22 -42 -43 -61 -62 -79 -80 -94 -97 -108 -111 -123 -124 -137 -138 -150 -151 -163 0
-21 -41 -42 -60 -61 -78 -79 -95 -96 -108 -112 -123 -124 -137 -138 -150 -151 -163 0
-22 -41 -43 -60 -61 -78 -79 -95 -96 -108 -112 -123 -124 -137 -138 -150 -151 -163 0
-22 -42 -43 -60 -62 -78 -79 -95 -96 -108 -112 -123 -124 -137 -138 -150 -151 -163 0
-22 -42 -43 -61 -62 -78 -80 -95 -96 -108 -112 -123 -124 -137 -138 -150 -151 -163 0
-22 -42 -43 -61 -62 -79 -80 -95 -97 -108 -112 -123 -124 -137 -138 -150 -151 -163 0
-22 -42 -43 -61 -62 -79 -80 -96 -97 -108 -113 -123 -124 -137 -138 -150 -151 -163 0
-19 -39 -40 -58 -59 -76 -77 -93 -94 -109 -110 -123 -125 -137 -138 -150 -151 -163 0
-20 -39 -41 -58 -59 -76 -77 -93 -94 -109 -110 -123 -125 -137 -138 -150 -151 -163 0
-21 -39 -42 -58 -59 -76 -77 -93 -94 -109 -110 -123 -125 -137 -138 -150 -151 -163 0
-22 -39 -43 -58 -59 -76 -77 -93 -94 -109 -110 -123 -125 -137 -138 -150 -151 -163 0
-20 -40 -41 -58 -60 -76 -77 -93 -94 -109 -110 -123 -125 -137 -138 -150 -151 -163 0
-21 -40 -42 -58 -60 -76 -77 -93 -94 -109 -110 -123 -125 -137 -138 -150 -151 -163 0
-22 -40 -43 -58 -60 -76 -77 -93 -94 -109 -110 -123 -125 -137 -138 -150 -151 -163 0
-21 -41 -42 -58 -61 -76 -77 -93 -94 -109 -110 -123 -125 -137 -138 -150 -151 -163 0
-22 -41 -43 -58 -61 -76 -77 -93 -94 -109 -110 -123 -125 -137 -138 -150 -151 -163 0
-22 -42 -43 -58 -62 -76 -77 -93 -94 -109 -110 -123 -125 -137 -138 -150 -151 -163 0
-20 -40 -41 -59 -60 -76 -78 -93 -94 -109 -110 -123 -125 -137 -138 -150 -151 -163 0
-21 -40 -42 -59 -60 -76 -78 -93 -94 -109 -110 -123 -125 -137 -138 -150 -151 -163 0
-22 -40 -43 -59 -60 -76 -78 -93 -94 -109 -110 -123 -125 -137 -138 -150 -151 -163 0
-21 -41 -42 -59 -61 -76 -78 -93 -94 -109 -110 -123 -125 -137 -138 -150 -151 -163 0
-22 -41 -43 -59 -61 -76 -78 -93 -94 -109 -110 -123 -125 -137 -138 -150 -151 -163 0
-22 -42 -43 -59 -62 -76 -78 -93 -94 -109 -110 -123 -125 -137 -138 -150 -151 -163 0
-21 -41 -42 -60 -61 -76 -79 -93 -94 -109 -110 -123 -125 -137 -138 -150 -151 -163 0
-22 -41 -43 -60 -61 -76 -79 -93 -94 -109 -110 -123 -125 -137 -138 -150 -151 -163 0
-22 -42 -43 -60 -62 -76 -79 -93 -94 -109 -110 -123 -125 -137 -138 -150 -151 -163 0
-22 -42 -43 -61 -62 -76 -80 -93 -94 -109 -110 -123 -125 -137 -138 -150 -151 -163 0
-20 -40 -41 -59 -60 -77 -78 -93 -95 -109 -110 -123 -125 -137 -138 -150 -151 -163 0
-21 -40 -42 -59 -60 -77 -78 -93 -95 -109 -110 -123 -125 -137 -138 -150 -151 -163 0
-22 -40 -43 -59 -60 -77 -78 -93 -95 -109 -110 -123 -125 -137 -138 -150 -151 -163 0
-21 -41 -42 -59 -61 -77 -78 -93 -95 -109 -110 -123 -125 -137 -138 -150 -151 -163 0
-22 -41 -43 -59 -61 -77 -78 -93 -95 -109 -110 -123 -125 -137 -138 -150 -151 -163 0
-22 -42 -43 -59 -62 -77 -78 -93 -95 -109 -110 -123 -125 -137 -138 -150 -151 -163 0
-21 -41 -42 -60 -61 -77 -79 -93 -95 -109 -110 -123 -125 -137 -138 -150 -151 -163 0
-22 -41 -43 -60 -61 -77 -79 -93 -95 -109 -110 -123 -125 -137 -138 -150 -151 -163 0
-22 -42 -43 -60 -62 -77 -79 -93 -95 -109 -110 -123 -125 -137 -138 -150 -151 -163 0
-22 -42 -43 -61 -62 -77 -80 -93 -95 -109 -110 -123 -125 -137 -138 -150 -151 -163 0
-21 -41 -42 -60 -61 -78 -79 -93 -96 -109 -110 -123 -125 -137 -138 -150 -151 -163 0
-22 -41 -43 -60 -61 -78 -79 -93 -96 -109 -110 -123 -125 -137 -138 -150 -151 -163 0
-22 -42 -43 -60 -62 -78 -79 -93 -96 -109 -110 -123 -125 -137 -138 -150 -151 -163 0
-22 -42 -43 -61 -62 -78 -80 -93 -96 -109 -110 -123 -125 -137 -138 -150 -151 -163 0
-22 -42 -43 -61 -62 -79 -80 -93 -97 -109 -110 -123 -125 -137 -138 -150 -151 -163 0
-20 -40 -41 -59 -60 -77 -78 -94 -95 -109 -111 -123 -125 -137 -138 -150 -151 -163 0
-21 -40 -42 -59 -60 -77 -78 -94 -95 -109 -111 -123 -125 -137 -138 -150 -151 -163 0
-22 -40 -43 -59 -60 -77 -78 -94 -95 -109 -111 -123 -125 -137 -138 -150 -151 -163 0
-21 -41 -42 -59 -61 -77 -78 -94 -95 -109 -111 -123 -125 -137 -138 -150 -151 -163 0
-22 -41 -43 -59 -61 -77 -78 -94 -95 -109 -111 -123 -125 -137 -138 -150 -151 -163 0
-22 -42 -43 -59 -62 -77 -78 -94 -95 -109 -111 -123 -125 -137 -138 -150 -151 -163 0
-21 -41 -42 -60 -61 -77 -79 -94 -95 -109 -111 -123 -125 -137 -138 -150 -151 -163 0
-22 -41 -43 -60 -61 -77 -79 -94 -95 -109 -111 -123 -125 -137 -138 -150 -151 -163 0
-22 -42 -43 -60 -62 -77 -79 -94 -95 -109 -111 -123 -125 -137 -138 -150 -151 -163 0
-22 -42 -43 -61 -62 -77 -80 -94 -95 -109 -111 -123 -125 -137 -138 -150 -151 -163 0
-21 -41 -42 -60 -61 -78 -79 -94 -96 -109 -111 -123 -125 -137 -138 -150 -151 -163 0
-22 -41 -43 -60 -61 -78 -79 -94 -96 -109 -111 -123 -125 -137 -138 -150 -151 -163 0
-22 -42 -43 -60 -62 -78 -79 -94 -96 -109 -111 -123 -125 -137 -138 -150 -151 -163 0
-22 -42 -43 -61 -62 -78 -80 -94 -96 -109 -111 -123 -125 -137 -138 -150 -151 -163 0
-22 -42 -43 -61 -62 -79 -80 -94 -97 -109 -111 -123 -125 -137 -138 -150 -151 -163 0
-21 -41 -42 -60 -61 -78 -79 -95 -96 -109 -112 -123 -125 -137 -138 -150 -151 -163 0
-22 -41 -43 -60 -61 -78 -79 -95 -96 -109 -112 -123 -125 -137 -138 -150 -151 -163 0
-22 -42 -43 -60 -62 -78 -79 -95 -96 -109 -112 -123 -125 -137 -138 -150 -151 -163 0
-22 -42 -43 -61 -62 -78 -80 -95 -96 -109 -112 -123 -125 -137 -138 -150 -151 -163 0
-22 -42 -43 -61 -62 -79 -80 -95 -97 -109 -112 -123 -125 -137 -138 -150 -151 -163 0
-22 -42 -43 -61 -62 -79 -80 -96 -97 -109 -113 -123 -125 -137 -138 -150 -151 -163 0
-20 -40 -41 -59 -60 -77 -78 -94 -95 -110 -111 -123 -126 -137 -138 -150 -151 -163 0
-21 -40 -42 -59 -60 -77 -78 -94 -95 -110 -111 -123 -126 -137 -138 -150 -151 -163 0
-22 -40 -43 -59 -60 -77 -78 -94 -95 -110 -111 -123 -126 -137 -138 -150 -151 -163 0
-21 -41 -42 -59 -61 -77 -78 -94 -95 -110 -111 -123 -126 -137 -138 -150 -151 -163 0
-22 -41 -43 -59 -61 -77 -78 -94 -95 -110 -111 -123 -126 -137 -138 -150 -151 -163 0
-22 -42 -43 -59 -62 -77 -78 -94 -95 -110 -111 -123 -126 -137 -138 -150 -151 -163 0
-21 -41 -42 -60 -61 -77 -79 -94 -95 -110 -111 -123 -126 -137 -138 -150 -151 -163 0
-22 -41 -43 -60 -61 -77 -79 -94 -95 -110 -111 -123 -126 -137 -138 -150 -151 -163 0
-22 -42 -43 -60 -62 -77 -79 -94 -95 -110 -111 -123 -126 -137 -138 -150 -151 -163 0
-22 -42 -43 -61 -62 -77 -80 -94 -95 -110 -111 -123 -126 -137 -138 -150 -151 -163 0
-21 -41 -42 -60 -61 -78 -79 -94 -96 -110 -111 -123 -126 -137 -138 -150 -151 -163 0
-22 -41 -43 -60 -61 -78 -79 -94 -96 -110 -111 -123 -126 -137 -138 -150 -151 -163 0
-22 -42 -43 -60 -62 -78 -79 -94 -96 -110 -111 -123 -126 -137 -138 -150 -151 -163 0
-22 -42 -43 -61 -62 -78 -80 -94 -96 -110 -111 -123 -126 -137 -138 -150 -151 -163 0
-22 -42 -43 -61 -62 -79 -80 -94 -97 -110 -111 -123 -126 -137 -138 -150 -151 -163 0
-21 -41 -42 -60 -61 -78 -79 -95 -96 -110 -112 -123 -126 -137 -138 -150 -151 -163 0
-22 -41 -43 -60 -61 -78 -79 -95 -96 -110 -112 -123 -126 -137 -138 -150 -151 -163 0
-22 -42 -43 -60 -62 -78 -79 -95 -96 -110 -112 -123 -126 -137 -138 -150 -151 -163 0
-22 -42 -43 -61 -62 -78 -80 -95 -96 -110 -112 -123 -126 -137 -138 -150 -151 -163 0
-22 -42 -43 -61 -62 -79 -80 -95 -97 -110 -112 -123 -126 -137 -138 -150 -151 -163 0
-22 -42 -43 -61 -62 -79 -80 -96 -97 -110 -113 -123 -126 -137 -138 -150 -151 -163 0
-21 -41 -42 -60 -61 -78 -79 -95 -96 -111 -112 -123 -127 -137 -138 -150 -151 -163 0
-22 -41 -43 -60 -61 -78 -79 -95 -96 -111 -112 -123 -127 -137 -138 -150 -151 -163 0
-22 -42 -43 -60 -62 -78 -79 -95 -96 -111 -112 -123 -127 -137 -138 -150 -151 -163 0
-22 -42 -43 -61 -62 -78 -80 -95 -96 -111 -112 -123 -127 -137 -138 -150 -151 -163 0
-22 -42 -43 -61 -62 -79 -80 -95 -97 -111 -112 -123 -127 -137 -138 -150 -151 -163 0
-22 -42 -43 -61 -62 -79 -80 -96 -97 -111 -113 -123 -127 -137 -138 -150 -151 -163 0
-22 -42 -43 -61 -62 -79 -80 -96 -97 -112 -113 -123 -128 -137 -138 -150 -151 -163 0
-19 -39 -40 -58 -59 -76 -77 -93 -94 -109 -110 -124 -125 -137 -139 -150 -151 -163 0
-20 -39 -41 -58 -59 -76 -77 -93 -94 -109 -110 -124 -125 -137 -139 -150 -151 -163 0
-21 -39 -42 -58 -59 -76 -77 -93 -94 -109 -110 -124 -125 -137 -139 -150 -151 -163 0
-22 -39 -43 -58 -59 -76 -77 -93 -94 -109 -110 -124 -125 -137 -139 -150 -151 -163 0
-20 -40 -41 -58 -60 -76 -77 -93 -94 -109 -110 -124 -125 -137 -139 -150 -151 -163 0
-21 -40 -42 -58 -60 -76 -77 -93 -94 -109 -110 -124 -125 -137 -139 -150 -151 -163 0
-22 -40 -43 -58 -60 -76 -77 -93 -94 -109 -110 -124 -125 -137 -139 -150 -151 -163 0
-21 -41 -42 -58 -61 -76 -77 -93 -94 -109 -110 -124 -125 -137 -139 -150 -151 -163 0
-22 -41 -43 -58 -61 -76 -77 -93 -94 -109 -110 -124 -125 -137 -139 -150 -151 -163 0
-22 -42 -43 -58 -62 -76 -77 -93 -94 -109 -110 -124 -125 -137 -139 -150 -151 -163 0
-20 -40 -41 -59 -60 -76 -78 -93 -94 -109 -110 -124 -125 -137 -139 -150 -151 -163 0
-21 -40 -42 -59 -60 -76 -78 -93 -94 -109 -110 -124 -125 -137 -139 -150 -151 -163 0
-22 -40 -43 -59 -60 -76 -78 -93 -94 -109 -110 -124 -125 -137 -139 -150 -151 -163 0
-21 -41 -42 -59 -61 -76 -78 -93 -94 -109 -110 -124 -125 -137 -139 -150 -151 -163 0
-22 -41 -43 -59 -61 -76 -78 -93 -94 -109 -110 -124 -125 -137 -139 -150 -151 -163 0
-22 -42 -43 -59 -62 -76 -78 -93 -94 -109 -110 -124 -125 -137 -139 -150 -151 -163 0
-21 -41 -42 -60 -61 -76 -79 -93 -94 -109 -110 -124 -125 -137 -139 -150 -151 -163 0
-22 -41 -43 -60 -61 -76 -79 -93 -94 -109 -110 -124 -125 -137 -139 -150 -151 -163 0
-22 -42 -43 -60 -62 -76 -79 -93 -94 -109 -110 -124 -125 -137 -139 -150 -151 -163 0
-22 -42 -43 -61 -62 -76 -80 -93 -94 -109 -110 -124 -125 -137 -139 -150 -151 -163 0
-20 -40 -41 -59 -60 -77 -78 -93 -95 -109 -110 -124 -125 -137 -139 -150 -151 -163 0
-21 -40 -42 -59 -60 -77 -78 -93 -95 -109 -110 -124 -125 -137 -139 -150 -151 -163 0
-22 -40 -43 -59 -60 -77 -78 -93 -95 -109 -110 -124 -125 -137 -139 -150 -151 -163 0
-21 -41 -42 -59 -61 -77 -78 -93 -95 -109 -110 -124 -125 -137 -139 -150 -151 -163 0
-22 -41 -43 -59 -61 -77 -78 -93 -95 -109 -110 -124 -125 -137 -139 -150 -151 -163 0
-22 -42 -43 -59 -62 -77 -78 -93 -95 -109 -110 -124 -125 -137 -139 -150 -151 -163 0
-21 -41 -42 -60 -61 -77 -79 -93 -95 -109 -110 -124 -125 -137 -139 -150 -151 -163 0
-22 -41 -43 -60 -61 -77 -79 -93 -95 -109 -110 -124 -125 -137 -139 -150 -151 -163 0
-22 -42 -43 -60 -62 -77 -79 -93 -95 -109 -110 -124 -125 -137 -139 -150 -151 -163 0
-22 -42 -43 -61 -62 -77 -80 -93 -95 -109 -110 -124 -125 -137 -139 -150 -151 -163 0
-21 -41 -42 -60 -61 -78 -79 -93 -96 -109 -110 -124 -125 -137 -139 -150 -151 -163 0
-22 -41 -43 -60 -61 -78 -79 -93 -96 -109 -110 -124 -125 -137 -139 -150 -151 -163 0
-22 -42 -43 -60 -62 -78 -79 -93 -96 -109 -110 -124 -125 -137 -139 -150 -151 -163 0
-22 -42 -43 -61 -62 -78 -80 -93 -96 -109 -110 -124 -125 -137 -139 -150 -151 -163 0
-22 -42 -43 -61 -62 -79 -80 -93 -97 -109 -110 -124 -125 -137 -139 -150 -151 -163 0
-20 -40 -41 -59 -60 -77 -78 -94 -95 -109 -111 -124 -125 -137 -139 -150 -151 -163 0
-21 -40 -42 -59 -60 -77 -78 -94 -95 -109 -111 -124 -125 -137 -139 -150 -151 -163 0
-22 -40 -43 -59 -60 -77 -78 -94 -95 -109 -111 -124 -125 -137 -139 -150 -151 -163 0
-21 -41 -42 -59 -61 -77 -78 -94 -95 -109 -111 -124 -125 -137 -139 -150 -151 -163 0
-22 -41 -43 -59 -61 -77 -78 -94 -95 -109 -111 -124 -125 -137 -139 -150 -151 -163 0
-22 -42 -43 -59 -62 -77 -78 -94 -95 -109 -111 -124 -125 -137 -139 -150 -151 -163 0
-21 -41 -42 -60 -61 -77 -79 -94 -95 -109 -111 -124 -125 -137 -139 -150 -151 -163 0
-22 -41 -43 -60 -61 -77 -79 -94 -95 -109 -111 -124 -125 -137 -139 -150 -151 -163 0
-22 -42 -43 -60 -62 -77 -79 -94 -95 -109 -111 -124 -125 -137 -139 -150 -151 -163 0
-22 -42 -43 -61 -62 -77 -80 -94 -95 -109 -111 -124 -125 -137 -139 -150 -151 -163 0
-21 -41 -42 -60 -61 -78 -79 -94 -96 -109 -111 -124 -125 -137 -139 -150 -151 -163 0
-22 -41 -43 -60 -61 -78 -79 -94 -96 -109 -111 -124 -125 -137 -139 -150 -151 -163 0
-22 -42 -43 -60 -62 -78 -79 -94 -96 -109 -111 -124 -125 -137 -139 -150 -151 -163 0
-22 -42 -43 -61 -62 -78 -80 -94 -96 -109 -111 -124 -125 -137 -139 -150 -151 -163 0
-22 -42 -43 -61 -62 -79 -80 -94 -97 -109 -111 -124 -125 -137 -139 -150 -151 -163 0
-21 -41 -42 -60 -61 -78 -79 -95 -96 -109 -112 -124 -125 -137 -139 -150 -151 -163 0
-22 -41 -43 -60 -61 -78 -79 -95 -96 -109 -112 -124 -125 -137 -139 -150 -151 -163 0
-22 -42 -43 -60 -62 -78 -79 -95 -96 -109 -112 -124 -125 -137 -139 -150 -151 -163 0
-22 -42 -43 -61 -62 -78 -80 -95 -96 -109 -112 -124 -125 -137 -139 -150 -151 -163 0
-22 -42 -43 -61 -62 -79 -80 -95 -97 -109 -112 -124 -125 -137 -139 -150 -151 -163 0
-22 -42 -43 -61 -62 -79 -80 -96 -97 -109 -113 -124 -125 -137 -139 -150 -151 -163 0
-20 -40 -41 -59 -60 -77 -78 -94 -95 -110 -111 -124 -126 -137 -139 -150 -151 -163 0
-21 -40 -42 -59 -60 -77 -78 -94 -95 -110 -111 -124 -126 -137 -139 -150 -151 -163 0
-22 -40 -43 -59 -60 -77 -78 -94 -95 -110 -111 -124 -126 -137 -139 -150 -151 -163 0
-21 -41 -42 -59 -61 -77 -78 -94 -95 -110 -111 -124 -126 -137 -139 -150 -151 -163 0
-22 -41 -43 -59 -61 -77 -78 -94 -95 -110 -111 -124 -126 -137 -139 -150 -151 -163 0
-22 -42 -43 -59 -62 -77 -78 -94 -95 -110 -111 -124 -126 -137 -139 -150 -151 -163 0
-21 -41 -42 -60 -61 -77 -79 -94 -95 -110 -111 -124 -126 -137 -139 -150 -151 -163 0
-22 -41 -43 -60 -61 -77 -79 -94 -95 -110 -111 -124 -126 -137 -139 -150 -151 -163 0
-22 -42 -43 -60 -62 -77 -79 -94 -95 -110 -111 -124 -126 -137 -139 -150 -151 -163 0
-22 -42 -43 -61 -62 -77 -80 -94 -95 -110 -111 -124 -126 -137 -139 -150 -151 -163 0
-21 -41 -42 -60 -61 -78 -79 -94 -96 -110 -111 -124 -126 -137 -139 -150 -151 -163 0
-22 -41 -43 -60 -61 -78 -79 -94 -96 -110 -111 -124 -126 -137 -139 -150 -151 -163 0
-22 -42 -43 -60 -62 -78 -79 -94 -96 -110 -111 -124 -126 -137 -139 -150 -151 -163 0
-22 -42 -43 -61 -62 -78 -80 -94 -96 -110 -111 -124 -126 -137 -139 -150 -151 -163 0
-22 -42 -43 -61 -62 -79 -80 -94 -97 -110 -111 -124 -126 -137 -139 -150 -151 -163 0
-21 -41 -42 -60 -61 -78 -79 -95 -96 -110 -112 -124 -126 -137 -139 -150 -151 -163 0
-22 -41 -43 -60 -61 -78 -79 -95 -96 -110 -112 -124 -126 -137 -139 -150 -151 -163 0
-22 -42 -43 -60 -62 -78 -79 -95 -96 -110 -112 -124 -126 -137 -139 -150 -151 -163 0
-22 -42 -43 -61 -62 -78 -80 -95 -96 -110 -112 -124 -126 -137 -139 -150 -151 -163 0
-22 -42 -43 -61 -62 -79 -80 -95 -97 -110 -112 -124 -126 -137 -139 -150 -151 -163 0
-22 -42 -43 -61 -62 -79 -80 -96 -97 -110 -113 -124 -126 -137 -139 -150 -151 -163 0
-21 -41 -42 -60 -61 -78 -79 -95 -96 -111 -112 -124 -127 -137 -139 -150 -151 -163 0
-22 -41 -43 -60 -61 -78 -79 -95 -96 -111 -112 -124 -127 -137 -139 -150 -151 -163 0
-22 -42 -43 -60 -62 -78 -79 -95 -96 -111 -112 -124 -127 -137 -139 -150 -151 -163 0
-22 -42 -43 -61 -62 -78 -80 -95 -96 -111 -112 -124 -127 -137 -139 -150 -151 -163 0
-22 -42 -43 -61 -62 -79 -80 -95 -97 -111 -112 -124 -127 -137 -139 -150 -151 -163 0
-22 -42 -43 -61 -62 -79 -80 -96 -97 -111 -113 -124 -127 -137 -139 -150 -151 -163 0
-22 -42 -43 -61 -62 -79 -80 -96 -97 -112 -113 -124 -128 -137 -139 -150 -151 -163 0
-20 -40 -41 -59 -60 -77 -78 -94 -95 -110 -111 -125 -126 -137 -140 -150 -151 -163 0
-21 -40 -42 -59 -60 -77 -78 -94 -95 -110 -111 -125 -126 -137 -140 -150 -151 -163 0
-22 -40 -43 -59 -60 -77 -78 -94 -95 -110 -111 -125 -126 -137 -140 -150 -151 -163 0
-21 -41 -42 -59 -61 -77 -78 -94 -95 -110 -111 -125 -126 -137 -140 -150 -151 -163 0
-22 -41 -43 -59 -61 -77 -78 -94 -95 -110 -111 -125 -126 -137 -140 -150 -151 -163 0
-22 -42 -43 -59 -62 -77 -78 -94 -95 -110 -111 -125 -126 -137 -140 -150 -151 -163 0
-21 -41 -42 -60 -61 -77 -79 -94 -95 -110 -111 -125 -126 -137 -140 -150 -151 -163 0
-22 -41 -43 -60 -61 -77 -79 -94 -95 -110 -111 -125 -126 -137 -140 -150 -151 -163 0
-22 -42 -43 -60 -62 -77 -79 -94 -95 -110 -111 -125 -126 -137 -140 -150 -151 -163 0
-22 -42 -43 -61 -62 -77 -80 -94 -95 -110 -111 -125 -126 -137 -140 -150 -151 -163 0
-21 -41 -42 -60 -61 -78 -79 -94 -96 -110 -111 -125 -126 -137 -140 -150 -151 -163 0
-22 -41 -43 -60 -61 -78 -79 -94 -96 -110 -111 -125 -126 -137 -140 -150 -151 -163 0
-22 -42 -43 -60 -62 -78 -79 -94 -96 -110 -111 -125 -126 -137 -140 -150 -151 -163 0
-22 -42 -43 -61 -62 -78 -80 -94 -96 -110 -111 -125 -126 -137 -140 -150 -151 -163 0
-22 -42 -43 -61 -62 -79 -80 -94 -97 -110 -111 -125 -126 -137 -140 -150 -151 -163 0
-21 -41 -42 -60 -61 -78 -79 -95 -96 -110 -112 -125 -126 -137 -140 -150 -151 -163 0
-22 -41 -43 -60 -61 -78 -79 -95 -96 -110 -112 -125 -126 -137 -140 -150 -151 -163 0
-22 -42 -43 -60 -62 -78 -79 -95 -96 -110 -112 -125 -126 -137 -140 -150 -151 -163 0
-22 -42 -43 -61 -62 -78 -80 -95 -96 -110 -112 -125 -126 -137 -140 -150 -151 -163 0
-22 -42 -43 -61 -62 -79 -80 -95 -97 -110 -112 -125 -126 -137 -140 -150 -151 -163 0
-22 -42 -43 -61 -62 -79 -80 -96 -97 -110 -113 -125 -126 -137 -140 -150 -151 -163 0
-21 -41 -42 -60 -61 -78 -79 -95 -96 -111 -112 -125 -127 -137 -140 -150 -151 -163 0
-22 -41 -43 -60 -61 -78 -79 -95 -96 -111 -112 -125 -127 -137 -140 -150 -151 -163 0
-22 -42 -43 -60 -62 -78 -79 -95 -96 -111 -112 -125 -127 -137 -140 -150 -151 -163 0
-22 -42 -43 -61 -62 -78 -80 -95 -96 -111 -112 -125 -127 -137 -140 -150 -151 -163 0
-22 -42 -43 -61 -62 -79 -80 -95 -97 -111 -112 -125 -127 -137 -140 -150 -151 -163 0
-22 -42 -43 -61 -62 -79 -80 -96 -97 -111 -113 -125 -127 -137 -140 -150 -151 -163 0
-22 -42 -43 -61 -62 -79 -80 -96 -97 -112 -113 -125 -128 -137 -140 -150 -151 -163 0
-21 -41 -42 -60 -61 -78 -79 -95 -96 -111 -112 -126 -127 -137 -141 -150 -151 -163 0
-22 -41 -43 -60 -61 -78 -79 -95 -96 -111 -112 -126 -127 -137 -141 -150 -151 -163 0
-22 -42 -43 -60 -62 -78 -79 -95 -96 -111 -112 -126 -127 -137 -141 -150 -151 -163 0
-22 -42 -43 -61 -62 -78 -80 -95 -96 -111 -112 -126 -127 -137 -141 -150 -151 -163 0
-22 -42 -43 -61 -62 -79 -80 -95 -97 -111 -112 -126 -127 -137 -141 -150 -151 -163 0
-22 -42 -43 -61 -62 -79 -80 -96 -97 -111 -113 -126 -127 -137 -141 -150 -151 -163 0
-22 -42 -43 -61 -62 -79 -80 -96 -97 -112 -113 -126 -128 -137 -141 -150 -151 -163 0
-22 -42 -43 -61 -62 -79 -80 -96 -97 -112 -113 -127 -128 -137 -142 -150 -151 -163 0
-19 -39 -40 -58 -59 -76 -77 -93 -94 -109 -110 -124 -125 -138 -139 -150 -152 -163 0
-20 -39 -41 -58 -59 -76 -77 -93 -94 -109 -110 -124 -125 -138 -139 -150 -152 -163 0
-21 -39 -42 -58 -59 -76 -77 -93 -94 -109 -110 -124 -125 -138 -139 -150 -152 -163 0
-22 -39 -43 -58 -59 -76 -77 -93 -94 -109 -110 -124 -125 -138 -139 -150 -152 -163 0
-20 -40 -41 -58 -60 -76 -77 -93 -94 -109 -110 -124 -125 -138 -139 -150 -152 -163 0
-21 -40 -42 -58 -60 -76 -77 -93 -94 -109 -110 -124 -125 -138 -139 -150 -152 -163 0
-22 -40 -43 -58 -60 -76 -77 -93 -94 -109 -110 -124 -125 -138 -139 -150 -152 -163 0
-21 -41 -42 -58 -61 -76 -77 -93 -94 -109 -110 -124 -125 -138 -139 -150 -152 -163 0
-22 -41 -43 -58 -61 -76 -77 -93 -94 -109 -110 -124 -125 -138 -139 -150 -152 -163 0
-22 -42 -43 -58 -62 -76 -77 -93 -94 -109 -110 -124 -125 -138 -139 -150 -152 -163 0
-20 -40 -41 -59 -60 -76 -78 -93 -94 -109 -110 -124 -125 -138 -139 -150 -152 -163 0
-21 -40 -42 -59 -60 -76 -78 -93 -94 -109 -110 -124 -125 -138 -139 -150 -152 -163 0
-22 -40 -43 -59 -60 -76 -78 -93 -94 -109 -110 -124 -125 -138 -139 -150 -152 -163 0
-21 -41 -42 -59 -61 -76 -78 -93 -94 -109 -110 -124 -125 -138 -139 -150 -152 -163 0
-22 -41 -43 -59 -61 -76 -78 -93 -94 -109 -110 -124 -125 -138 -139 -150 -152 -163 0
-22 -42 -43 -59 -62 -76 -78 -93 -94 -109 -110 -124 -125 -138 -139 -150 -152 -163 0
-21 -41 -42 -60 -61 -76 -79 -93 -94 -109 -110 -124 -125 -138 -139 -150 -152 -163 0
-22 -41 -43 -60 -61 -76 -79 -93 -94 -109 -110 -124 -125 -138 -139 -150 -152 -163 0
-22 -42 -43 -60 -62 -76 -79 -93 -94 -109 -110 -124 -125 -138 -139 -150 -152 -163 0
-22 -42 -43 -61 -62 -76 -80 -93 -94 -109 -110 -124 -125 -138 -139 -150 -152 -163 0
-20 -40 -41 -59 -60 -77 -78 -93 -95 -109 -110 -124 -125 -138 -139 -150 -152 -163 0
-21 -40 -42 -59 -60 -77 -78 -93 -95 -109 -110 -124 -125 -138 -139 -150 -152 -163 0
-22 -40 -43 -59 -60 -77 -78 -93 -95 -109 -110 -124 -125 -138 -139 -150 -152 -163 0
-21 -41 -42 -59 -61 -77 -78 -93 -95 -109 -110 -124 -125 -138 -139 -150 -152 -163 0
-22 -41 -43 -59 -61 -77 -78 -93 -95 -109 -110 -124 -125 -138 -139 -150 -152 -163 0
-22 -42 -43 -59 -62 -77 -78 -93 -95 -109 -110 -124 -125 -138 -139 -150 -152 -163 0
-21 -41 -42 -60 -61 -77 -79 -93 -95 -109 -110 -124 -125 -138 -139 -150 -152 -163 0
-22 -41 -43 -60 -61 -77 -79 -93 -95 -109 -110 -124 -125 -138 -139 -150 -152 -163 0
-22 -42 -43 -60 -62 -77 -79 -93 -95 -109 -110 -124 -125 -138 -139 -150 -152 -163 0
-22 -42 -43 -61 -62 -77 -80 -93 -95 -109 -110 -124 -125 -138 -139 -150 -152 -163 0
-21 -41 -42 -60 -61 -78 -79 -93 -96 -109 -110 -124 -125 -138 -139 -150 -152 -163 0
-22 -41 -43 -60 -61 -78 -79 -93 -96 -109 -110 -124 -125 -138 -139 -150 -152 -163 0
-22 -42 -43 -60 -62 -78 -79 -93 -96 -109 -110 -124 -125 -138 -139 -150 -152 -163 0
-22 -42 -43 -61 -62 -78 -80 -93 -96 -109 -110 -124 -125 -138 -139 -150 -152 -163 0
-22 -42 -43 -61 -62 -79 -80 -93 -97 -109 -110 -124 -125 -138 -139 -150 -152 -163 0
-20 -40 -41 -59 -60 -77 -78 -94 -95 -109 -111 -124 -125 -138 -139 -150 -152 -163 0
-21 -40 -42 -59 -60 -77 -78 -94 -95 -109 -111 -124 -125 -138 -139 -150 -152 -163 0
-22 -40 -43 -59 -60 -77 -78 -94 -95 -109 -111 -124 -125 -138 -139 -150 -152 -163 0
-21 -41 -42 -59 -61 -77 -78 -94 -95 -109 -111 -124 -125 -138 -139 -150 -152 -163 0
-22 -41 -43 -59 -61 -77 -78 -94 -95 -109 -111 -124 -125 -138 -139 -150 -152 -163 0
-22 -42 -43 -59 -62 -77 -78 -94 -95 -109 -111 -124 -125 -138 -139 -150 -152 -163 0
-21 -41 -42 -60 -61 -77 -79 -94 -95 -109 -111 -124 -125 -138 -139 -150 -152 -163 0
-22 -41 -43 -60 -61 -77 -79 -94 -95 -109 -111 -124 -125 -138 -139 -150 -152 -163 0
-22 -42 -43 -60 -62 -77 -79 -94 -95 -109 -111 -124 -125 -138 -139 -150 -152 -163 0
-22 -42 -43 -61 -62 -77 -80 -94 -95 -109 -111 -124 -125 -138 -139 -150 -152 -163 0
-21 -41 -42 -60 -61 -78 -79 -94 -96 -109 -111 -124 -125 -138 -139 -150 -152 -163 0
-22 -41 -43 -60 -61 -78 -79 -94 -96 -109 -111 -124 -125 -138 -139 -150 -152 -163 0
-22 -42 -43 -60 -62 -78 -79 -94 -96 -109 -111 -124 -125 -138 -139 -150 -152 -163 0
-22 -42 -43 -61 -62 -78 -80 -94 -96 -109 -111 -124 -125 -138 -139 -150 -152 -163 0
-22 -42 -43 -61 -62 -79 -80 -94 -97 -109 -111 -124 -125 -138 -139 -150 -152 -163 0
-21 -41 -42 -60 -61 -78 -79 -95 -96 -109 -112 -124 -125 -138 -139 -150 -152 -163 0
-22 -41 -43 -60 -61 -78 -79 -95 -96 -109 -112 -124 -125 -138 -139 -150 -152 -163 0
-22 -42 -43 -60 -62 -78 -79 -95 -96 -109 -112 -124 -125 -138 -139 -150 -152 -163 0
-22 -42 -43 -61 -62 -78 -80 -95 -96 -109 -112 -124 -125 -138 -139 -150 -152 -163 0
-22 -42 -43 -61 -62 -79 -80 -95 -97 -109 -112 -124 -125 -138 -139 -150 -152 -163 0
-22 -42 -43 -61 -62 -79 -80 -96 -97 -109 -113 -124 -125 -138 -139 -150 -152 -163 0
-20 -40 -41 -59 -60 -77 -78 -94 -95 -110 -111 -124 -126 -138 -139 -150 -152 -163 0
-21 -40 -42 -59 -60 -77 -78 -94 -95 -110 -111 -124 -126 -138 -139 -150 -152 -163 0
-22 -40 -43 -59 -60 -77 -78 -94 -95 -110 -111 -124 -126 -138 -139 -150 -152 -163 0
-21 -41 -42 -59 -61 -77 -78 -94 -95 -110 -111 -124 -126 -138 -139 -150 -152 -163 0
-22 -41 -43 -59 -61 -77 -78 -94 -95 -110 -111 -124 -126 -138 -139 -150 -152 -163 0
-22 -42 -43 -59 -62 -77 -78 -94 -95 -110 -111 -124 -126 -138 -139 -150 -152 -163 0
-21 -41 -42 -60 -61 -77 -79 -94 -95 -110 -111 -124 -126 -138 -139 -150 -152 -163 0
-22 -41 -43 -60 -61 -77 -79 -94 -95 -110 -111 -124 -126 -138 -139 -150 -152 -163 0
-22 -42 -43 -60 -62 -77 -79 -94 -95 -110 -111 -124 -126 -138 -139 -150 -152 -163 0
-22 -42 -43 -61 -62 -77 -80 -94 -95 -110 -111 -124 -126 -138 -139 -150 -152 -163 0
-21 -41 -42 -60 -61 -78 -79 -94 -96 -110 -111 -124 -126 -138 -139 -150 -152 -163 0
-22 -41 -43 -60 -61 -78 -79 -94 -96 -110 -111 -124 -126 -138 -139 -150 -152 -163 0
-22 -42 -43 -60 -62 -78 -79 -94 -96 -110 -111 -124 -126 -138 -139 -150 -152 -163 0
-22 -42 -43 -61 -62 -78 -80 -94 -96 -110 -111 -124 -126 -138 -139 -150 -152 -163 0
-22 -42 -43 -61 -62 -79 -80 -94 -97 -110 -111 -124 -126 -138 -139 -150 -152 -163 0
-21 -41 -42 -60 -61 -78 -79 -95 -96 -110 -112 -124 -126 -138 -139 -150 -152 -163 0
-22 -41 -43 -60 -61 -78 -79 -95 -96 -110 -112 -124 -126 -138 -139 -150 -152 -163 0
-22 -42 -43 -60 -62 -78 -79 -95 -96 -110 -112 -124 -126 -138 -139 -150 -152 -163 0
-22 -42 -43 -61 -62 -78 -80 -95 -96 -110 -112 -124 -126 -138 -139 -150 -152 -163 0
-22 -42 -43 -61 -62 -79 -80 -95 -97 -110 -112 -124 -126 -138 -139 -150 -152 -163 0
-22 -42 -43 -61 -62 -79 -80 -96 -97 -110 -113 -124 -126 -138 -139 -150 -152 -163 0
-21 -41 -42 -60 -61 -78 -79 -95 -96 -111 -112 -124 -127 -138 -139 -150 -152 -163 0
-22 -41 -43 -60 -61 -78 -79 -95 -96 -111 -112 -124 -127 -138 -139 -150 -152 -163 0
-22 -42 -43 -60 -62 -78 -79 -95 -96 -111 -112 -124 -127 -138 -139 -150 -152 -163 0
-22 -42 -43 -61 -62 -78 -80 -95 -96 -111 -112 -124 -127 -138 -139 -150 -152 -163 0
-22 -42 -43 -61 -62 -79 -80 -95 -97 -111 -112 -124 -127 -138 -139 -150 -152 -163 0
-22 -42 -43 -61 -62 -79 -80 -96 -97 -111 -113 -124 -127 -138 -139 -150 -152 -163 0
-22 -42 -43 -61 -62 -79 -80 -96 -97 -112 -113 -124 -128 -138 -139 -150 -152 -163 0
-20 -40 -41 -59 -60 -77 -78 -94 -95 -110 -111 -125 -126 -138 -140 -150 -152 -163 0
-21 -40 -42 -59 -60 -77 -78 -94 -95 -110 -111 -125 -126 -138 -140 -150 -152 -163 0
-22 -40 -43 -59 -60 -77 -78 -94 -95 -110 -111 -125 -126 -138 -140 -150 -152 -163 0
-21 -41 -42 -59 -61 -77 -78 -94 -95 -110 -111 -125 -126 -138 -140 -150 -152 -163 0
-22 -41 -43 -59 -61 -77 -78 -94 -95 -110 -111 -125 -126 -138 -140 -150 -152 -163 0
-22 -42 -43 -59 -62 -77 -78 -94 -95 -110 -111 -125 -126 -138 -140 -150 -152 -163 0
-21 -41 -42 -60 -61 -77 -79 -94 -95 -110 -111 -125 -126 -138 -140 -150 -152 -163 0
-22 -41 -43 -60 -61 -77 -79 -94 -95 -110 -111 -125 -126 -138 -140 -150 -152 -163 0
-22 -42 -43 -60 -62 -77 -79 -94 -95 -110 -111 -125 -126 -138 -140 -150 -152 -163 0
-22 -42 -43 -61 -62 -77 -80 -94 -95 -110 -111 -125 -126 -138 -140 -150 -152 -163 0
-21 -41 -42 -60 -61 -78 -79 -94 -96 -110 -111 -125 -126 -138 -140 -150 -152 -163 0
-22 -41 -43 -60 -61 -78 -79 -94 -96 -110 -111 -125 -126 -138 -140 -150 -152 -163 0
-22 -42 -43 -60 -62 -78 -79 -94 -96 -110 -111 -125 -126 -138 -140 -150 -152 -163 0
-22 -42 -43 -61 -62 -78 -80 -94 -96 -110 -111 -125 -126 -138 -140 -150 -152 -163 0
-22 -42 -43 -61 -62 -79 -80 -94 -97 -110 -111 -125 -126 -138 -140 -150 -152 -163 0
-21 -41 -42 -60 -61 -78 -79 -95 -96 -110 -112 -125 -126 -138 -140 -150 -152 -163 0
-22 -41 -43 -60 -61 -78 -79 -95 -96 -110 -112 -125 -126 -138 -140 -150 -152 -163 0
-22 -42 -43 -60 -62 -78 -79 -95 -96 -110 -112 -125 -126 -138 -140 -150 -152 -163 0
-22 -42 -43 -61 -62 -78 -80 -95 -96 -110 -112 -125 -126 -138 -140 -150 -152 -163 0
-22 -42 -43 -61 -62 -79 -80 -95 -97 -110 -112 -125 -126 -138 -140 -150 -152 -163 0
-22 -42 -43 -61 -62 -79 -80 -96 -97 -110 -113 -125 -126 -138 -140 -150 -152 -163 0
-21 -41 -42 -60 -61 -78 -79 -95 -96 -111 -112 -125 -127 -138 -140 -150 -152 -163 0
-22 -41 -43 -60 -61 -78 -79 -95 -96 -111 -112 -125 -127 -138 -140 -150 -152 -163 0
-22 -42 -43 -60 -62 -78 -79 -95 -96 -111 -112 -125 -127 -138 -140 -150 -152 -163 0
-22 -42 -43 -61 -62 -78 -80 -95 -96 -111 -112 -125 -127 -138 -140 -150 -152 -163 0
-22 -42 -43 -61 -62 -79 -80 -95 -97 -111 -112 -125 -127 -138 -140 -150 -152 -163 0
-22 -42 -43 -61 -62 -79 -80 -96 -97 -111 -113 -125 -127 -138 -140 -150 -152 -163 0
-22 -42 -43 -61 -62 -79 -80 -96 -97 -112 -113 -125 -128 -138 -140 -150 -152 -163 0
-21 -41 -42 -60 -61 -78 -79 -95 -96 -111 -112 -126 -127 -138 -141 -150 -152 -163 0
-22 -41 -43 -60 -61 -78 -79 -95 -96 -111 -112 -126 -127 -138 -141 -150 -152 -163 0
-22 -42 -43 -60 -62 -78 -79 -95 -96 -111 -112 -126 -127 -138 -141 -150 -152 -163 0
-22 -42 -43 -61 -62 -78 -80 -95 -96 -111 -112 -126 -127 -138 -141 -150 -152 -163 0
-22 -42 -43 -61 -62 -79 -80 -95 -97 -111 -112 -126 -127 -138 -141 -150 -152 -163 0
-22 -42 -43 -61 -62 -79 -80 -96 -97 -111 -113 -126 -127 -138 -141 -150 -152 -163 0
-22 -42 -43 -61 -62 -79 -80 -96 -97 -112 -113 -126 -128 -138 -141 -150 -152 -163 0
-22 -42 -43 -61 -62 -79 -80 -96 -97 -112 -113 -127 -128 -138 -142 -150 -152 -163 0
-20 -40 -41 -59 -60 -77 -78 -94 -95 -110 -111 -125 -126 -139 -140 -150 -153 -163 0
-21 -40 -42 -59 -60 -77 -78 -94 -95 -110 -111 -125 -126 -139 -140 -150 -153 -163 0
-22 -40 -43 -59 -60 -77 -78 -94 -95 -110 -111 -125 -126 -139 -140 -150 -153 -163 0
-21 -41 -42 -59 -61 -77 -78 -94 -95 -110 -111 -125 -126 -139 -140 -150 -153 -163 0
-22 -41 -43 -59 -61 -77 -78 -94 -95 -110 -111 -125 -126 -139 -140 -150 -153 -163 0
-22 -42 -43 -59 -62 -77 -78 -94 -95 -110 -111 -125 -126 -139 -140 -150 -153 -163 0
-21 -41 -42 -60 -61 -77 -79 -94 -95 -110 -111 -125 -126 -139 -140 -150 -153 -163 0
-22 -41 -43 -60 -61 -77 -79 -94 -95 -110 -111 -125 -126 -139 -140 -150 -153 -163 0
-22 -42 -43 -60 -62 -77 -79 -94 -95 -110 -111 -125 -126 -139 -140 -150 -153 -163 0
-22 -42 -43 -61 -62 -77 -80 -94 -95 -110 -111 -125 -126 -139 -140 -150 -153 -163 0
-21 -41 -42 -60 -61 -78 -79 -94 -96 -110 -111 -125 -126 -139 -140 -150 -153 -163 0
-22 -41 -43 -60 -61 -78 -79 -94 -96 -110 -111 -125 -126 -139 -140 -150 -153 -163 0
-22 -42 -43 -60 -62 -78 -79 -94 -96 -110 -111 -125 -126 -139 -140 -150 -153 -163 0
-22 -42 -43 -61 -62 -78 -80 -94 -96 -110 -111 -125 -126 -139 -140 -150 -153 -163 0
-22 -42 -43 -61 -62 -79 -80 -94 -97 -110 -111 -125 -126 -139 -140 -150 -153 -163 0
-21 -41 -42 -60 -61 -78 -79 -95 -96 -110 -112 -125 -126 -139 -140 -150 -153 -163 0
-22 -41 -43 -60 -61 -78 -79 -95 -96 -110 -112 -125 -126 -139 -140 -150 -153 -163 0
-22 -42 -43 -60 -62 -78 -79 -95 -96 -110 -112 -125 -126 -139 -140 -150 -153 -163 0
-22 -42 -43 -61 -62 -78 -80 -95 -96 -110 -112 -125 -126 -139 -140 -150 -153 -163 0
-22 -42 -43 -61 -62 -79 -80 -95 -97 -110 -112 -125 -126 -139 -140 -150 -153 -163 0
-22 -42 -43 -61 -62 -79 -80 -96 -97 -110 -113 -125 -126 -139 -140 -150 -153 -163 0
-21 -41 -42 -60 -61 -78 -79 -95 -96 -111 -112 -125 -127 -139 -140 -150 -153 -163 0
-22 -41 -43 -60 -61 -78 -79 -95 -96 -111 -112 -125 -127 -139 -140 -150 -153 -163 0
-22 -42 -43 -60 -62 -78 -79 -95 -96 -111 -112 -125 -127 -139 -140 -150 -153 -163 0
-22 -42 -43 -61 -62 -78 -80 -95 -96 -111 -112 -125 -127 -139 -140 -150 -153 -163 0
-22 -42 -43 -61 -62 -79 -80 -95 -97 -111 -112 -125 -127 -139 -140 -150 -153 -163 0
-22 -42 -43 -61 -62 -79 -80 -96 -97 -111 -113 -125 -127 -139 -140 -150 -153 -163 0
-22 -42 -43 -61 -62 -79 -80 -96 -97 -112 -113 -125 -128 -139 -140 -150 -153 -163 0
-21 -41 -42 -60 -61 -78 -79 -95 -96 -111 -112 -126 -127 -139 -141 -150 -153 -163 0
-22 -41 -43 -60 -61 -78 -79 -95 -96 -111 -112 -126 -127 -139 -141 -150 -153 -163 0
-22 -42 -43 -60 -62 -78 -79 -95 -96 -111 -112 -126 -127 -139 -141 -150 -153 -163 0
-22 -42 -43 -61 -62 -78 -80 -95 -96 -111 -112 -126 -127 -139 -141 -150 -153 -163 0
-22 -42 -43 -61 -62 -79 -80 -95 -97 -111 -112 -126 -127 -139 -141 -150 -153 -163 0
-22 -42 -43 -61 -62 -79 -80 -96 -97 -111 -113 -126 -127 -139 -141 -150 -153 -163 0
-22 -42 -43 -61 -62 -79 -80 -96 -97 -112 -113 -126 -128 -139 -141 -150 -153 -163 0
-22 -42 -43 -61 -62 -79 -80 -96 -97 -112 -113 -127 -128 -139 -142 -150 -153 -163 0
-21 -41 -42 -60 -61 -78 -79 -95 -96 -111 -112 -126 -127 -140 -141 -150 -154 -163 0
-22 -41 -43 -60 -61 -78 -79 -95 -96 -111 -112 -126 -127 -140 -141 -150 -154 -163 0
-22 -42 -43 -60 -62 -78 -79 -95 -96 -111 -112 -126 -127 -140 -141 -150 -154 -163 0
-22 -42 -43 -61 -62 -78 -80 -95 -96 -111 -112 -126 -127 -140 -141 -150 -154 -163 0
-22 -42 -43 -61 -62 -79 -80 -95 -97 -111 -112 -126 -127 -140 -141 -150 -154 -163 0
-22 -42 -43 -61 -62 -79 -80 -96 -97 -111 -113 -126 -127 -140 -141 -150 -154 -163 0
-22 -42 -43 -61 -62 -79 -80 -96 -97 -112 -113 -126 -128 -140 -141 -150 -154 -163 0
-22 -42 -43 -61 -62 -79 -80 -96 -97 -112 -113 -127 -128 -140 -142 -150 -154 -163 0
-22 -42 -43 -61 -62 -79 -80 -96 -97 -112 -113 -127 -128 -141 -142 -150 -155 -163 0
-19 -39 -40 -58 -59 -76 -77 -93 -94 -109 -110 -124 -125 -138 -139 -151 -152 -164 0
-20 -39 -41 -58 -59 -76 -77 -93 -94 -109 -110 -124 -125 -138 -139 -151 -152 -164 0
-21 -39 -42 -58 -59 -76 -77 -93 -94 -109 -110 -124 -125 -138 -139 -151 -152 -164 0
-22 -39 -43 -58 -59 -76 -77 -93 -94 -109 -110 -124 -125 -138 -139 -151 -152 -164 0
-20 -40 -41 -58 -60 -76 -77 -93 -94 -109 -110 -124 -125 -138 -139 -151 -152 -164 0
-21 -40 -42 -58 -60 -76 -77 -93 -94 -109 -110 -124 -125 -138 -139 -151 -152 -164 0
-22 -40 -43 -58 -60 -76 -77 -93 -94 -109 -110 -124 -125 -138 -139 -151 -152 -164 0
-21 -41 -42 -58 -61 -76 -77 -93 -94 -109 -110 -124 -125 -138 -139 -151 -152 -164 0
-22 -41 -43 -58 -61 -76 -77 -93 -94 -109 -110 -124 -125 -138 -139 -151 -152 -164 0
-22 -42 -43 -58 -62 -76 -77 -93 -94 -109 -110 -124 -125 -138 -139 -151 -152 -164 0
-20 -40 -41 -59 -60 -76 -78 -93 -94 -109 -110 -124 -125 -138 -139 -151 -152 -164 0
-21 -40 -42 -59 -60 -76 -78 -93 -94 -109 -110 -124 -125 -138 -139 -151 -152 -164 0
-22 -40 -43 -59 -60 -76 -78 -93 -94 -109 -110 -124 -125 -138 -139 -151 -152 -164 0
-21 -41 -42 -59 -61 -76 -78 -93 -94 -109 -110 -124 -125 -138 -139 -151 -152 -164 0
-22 -41 -43 -59 -61 -76 -78 -93 -94 -109 -110 -124 -125 -138 -139 -151 -152 -164 0
-22 -42 -43 -59 -62 -76 -78 -93 -94 -109 -110 -124 -125 -138 -139 -151 -152 -164 0
-21 -41 -42 -60 -61 -76 -79 -93 -94 -109 -110 -124 -125 -138 -139 -151 -152 -164 0
-22 -41 -43 -60 -61 -76 -79 -93 -94 -109 -110 -124 -125 -138 -139 -151 -152 -164 0
-22 -42 -43 -60 -62 -76 -79 -93 -94 -109 -110 -124 -125 -138 -139 -151 -152 -164 0
-22 -42 -43 -61 -62 -76 -80 -93 -94 -109 -110 -124 -125 -138 -139 -151 -152 -164 0
-20 -40 -41 -59 -60 -77 -78 -93 -95 -109 -110 -124 -125 -138 -139 -151 -152 -164 0
-21 -40 -42 -59 -60 -77 -78 -93 -95 -109 -110 -124 -125 -138 -139 -151 -152 -164 0
-22 -40 -43 -59 -60 -77 -78 -93 -95 -109 -110 -124 -125 -138 -139 -151 -152 -164 0
-21 -41 -42 -59 -61 -77 -78 -93 -95 -109 -110 -124 -125 -138 -139 -151 -152 -164 0
-22 -41 -43 -59 -61 -77 -78 -93 -95 -109 -110 -124 -125 -138 -139 -151 -152 -164 0
-22 -42 -43 -59 -62 -77 -78 -93 -95 -109 -110 -124 -125 -138 -139 -151 -152 -164 0
-21 -41 -42 -60 -61 -77 -79 -93 -95 -109 -110 -124 -125 -138 -139 -151 -152 -164 0
-22 -41 -43 -60 -61 -77 -79 -93 -95 -109 -110 -124 -125 -138 -139 -151 -152 -164 0
-22 -42 -43 -60 -62 -77 -79 -93 -95 -109 -110 -124 -125 -138 -139 -151 -152 -164 0
-22 -42 -43 -61 -62 -77 -80 -93 -95 -109 -110 -124 -125 -138 -139 -151 -152 -164 0
-21 -41 -42 -60 -61 -78 -79 -93 -96 -109 -110 -124 -125 -138 -139 -151 -152 -164 0
-22 -41 -43 -60 -61 -78 -79 -93 -96 -109 -110 -124 -125 -138 -139 -151 -152 -164 0
-22 -42 -43 -60 -62 -78 -79 -93 -96 -109 -110 -124 -125 -138 -139 -151 -152 -164 0
-22 -42 -43 -61 -62 -78 -80 -93 -96 -109 -110 -124 -125 -138 -139 -151 -152 -164 0
-22 -42 -43 -61 -62 -79 -80 -93 -97 -109 -110 -124 -125 -138 -139 -151 -152 -164 0
-20 -40 -41 -59 -60 -77 -78 -94 -95 -109 -111 -124 -125 -138 -139 -151 -152 -164 0
-21 -40 -42 -59 -60 -77 -78 -94 -95 -109 -111 -124 -125 -138 -139 -151 -152 -164 0
-22 -40 -43 -59 -60 -77 -78 -94 -95 -109 -111 -124 -125 -138 -139 -151 -152 -164 0
-21 -41 -42 -59 -61 -77 -78 -94 -95 -109 -111 -124 -125 -138 -139 -151 -152 -164 0
-22 -41 -43 -59 -61 -77 -78 -94 -95 -109 -111 -124 -125 -138 -139 -151 -152 -164 0
-22 -42 -43 -59 -62 -77 -78 -94 -95 -109 -111 -124 -125 -138 -139 -151 -152 -164 0
-21 -41 -42 -60 -61 -77 -79 -94 -95 -109 -111 -124 -125 -138 -139 -151 -152 -164 0
-22 -41 -43 -60 -61 -77 -79 -94 -95 -109 -111 -124 -125 -138 -139 -151 -152 -164 0
-22 -42 -43 -60 -62 -77 -79 -94 -95 -109 -111 -124 -125 -138 -139 -151 -152 -164 0
-22 -42 -43 -61 -62 -77 -80 -94 -95 -109 -111 -124 -125 -138 -139 -151 -152 -164 0
-21 -41 -42 -60 -61 -78 -79 -94 -96 -109 -111 -124 -125 -138 -139 -151 -152 -164 0
-22 -41 -43 -60 -61 -78 -79 -94 -96 -109 -111 -124 -125 -138 -139 -151 -152 -164 0
-22 -42 -43 -60 -62 -78 -79 -94 -96 -109 -111 -124 -125 -138 -139 -151 -152 -164 0
-22 -42 -43 -61 -62 -78 -80 -94 -96 -109 -111 -124 -125 -138 -139 -151 -152 -164 0
-22 -42 -43 -61 -62 -79 -80 -94 -97 -109 -111 -124 -125 -138 -139 -151 -152 -164 0
-21 -41 -42 -60 -61 -78 -79 -95 -96 -109 -112 -124 -125 -138 -139 -151 -152 -164 0
-22 -41 -43 -60 -61 -78 -79 -95 -96 -109 -112 -124 -125 -138 -139 -151 -152 -164 0
-22 -42 -43 -60 -62 -78 -79 -95 -96 -109 -112 -124 -125 -138 -139 -151 -152 -164 0
-22 -42 -43 -61 -62 -78 -80 -95 -96 -109 -112 -124 -125 -138 -139 -151 -152 -164 0
-22 -42 -43 -61 -62 -79 -80 -95 -97 -109 -112 -124 -125 -138 -139 -151 -152 -164 0
-22 -42 -43 -61 -62 -79 -80 -96 -97 -109 -113 -124 -125 -138 -139 -151 -152 -164 0
-20 -40 -41 -59 -60 -77 -78 -94 -95 -110 -111 -124 -126 -138 -139 -151 -152 -164 0
-21 -40 -42 -59 -60 -77 -78 -94 -95 -110 -111 -124 -126 -138 -139 -151 -152 -164 0
-22 -40 -43 -59 -60 -77 -78 -94 -95 -110 -111 -124 -126 -138 -139 -151 -152 -164 0
-21 -41 -42 -59 -61 -77 -78 -94 -95 -110 -111 -124 -126 -138 -139 -151 -152 -164 0
-22 -41 -43 -59 -61 -77 -78 -94 -95 -110 -111 -124 -126 -138 -139 -151 -152 -164 0
-22 -42 -43 -59 -62 -77 -78 -94 -95 -110 -111 -124 -126 -138 -139 -151 -152 -164 0
-21 -41 -42 -60 -61 -77 -79 -94 -95 -110 -111 -124 -126 -138 -139 -151 -152 -164 0
-22 -41 -43 -60 -61 -77 -79 -94 -95 -110 -111 -124 -126 -138 -139 -151 -152 -164 0
-22 -42 -43 -60 -62 -77 -79 -94 -95 -110 -111 -124 -126 -138 -139 -151 -152 -164 0
-22 -42 -43 -61 -62 -77 -80 -94 -95 -110 -111 -124 -126 -138 -139 -151 -152 -164 0
-21 -41 -42 -60 -61 -78 -79 -94 -96 -110 -111 -124 -126 -138 -139 -151 -152 -164 0
-22 -41 -43 -60 -61 -78 -79 -94 -96 -110 -111 -124 -126 -138 -139 -151 -152 -164 0
-22 -42 -43 -60 -62 -78 -79 -94 -96 -110 -111 -124 -126 -138 -139 -151 -152 -164 0
-22 -42 -43 -61 -62 -78 -80 -94 -96 -110 -111 -124 -126 -138 -139 -151 -152 -164 0
-22 -42 -43 -61 -62 -79 -80 -94 -97 -110 -111 -124 -126 -138 -139 -151 -152 -164 0
-21 -41 -42 -60 -61 -78 -79 -95 -96 -110 -112 -124 -126 -138 -139 -151 -152 -164 0
-22 -41 -43 -60 -61 -78 -79 -95 -96 -110 -112 -124 -126 -138 -139 -151 -152 -164 0
-22 -42 -43 -60 -62 -78 -79 -95 -96 -110 -112 -124 -126 -138 -139 -151 -152 -164 0
-22 -42 -43 -61 -62 -78 -80 -95 -96 -110 -112 -124 -126 -138 -139 -151 -152 -164 0
-22 -42 -43 -61 -62 -79 -80 -95 -97 -110 -112 -124 -126 -138 -139 -151 -152 -164 0
-22 -42 -43 -61 -62 -79 -80 -96 -97 -110 -113 -124 -126 -138 -139 -151 -152 -164 0
-21 -41 -42 -60 -61 -78 -79 -95 -96 -111 -112 -124 -127 -138 -139 -151 -152 -164 0
-22 -41 -43 -60 -61 -78 -79 -95 -96 -111 -112 -124 -127 -138 -139 -151 -152 -164 0
-22 -42 -43 -60 -62 -78 -79 -95 -96 -111 -112 -124 -127 -138 -139 -151 -152 -164 0
-22 -42 -43 -61 -62 -78 -80 -95 -96 -111 -112 -124 -127 -138 -139 -151 -152 -164 0
-22 -42 -43 -61 -62 -79 -80 -95 -97 -111 -112 -124 -127 -138 -139 -151 -152 -164 0
-22 -42 -43 -61 -62 -79 -80 -96 -97 -111 -113 -124 -127 -138 -139 -151 -152 -164 0
-22 -42 -43 -61 -62 -79 -80 -96 -97 -112 -113 -124 -128 -138 -139 -151 -152 -164 0
-20 -40 -41 -59 -60 -77 -78 -94 -95 -110 -111 -125 -126 -138 -140 -151 -152 -164 0
-21 -40 -42 -59 -60 -77 -78 -94 -95 -110 -111 -125 -126 -138 -140 -151 -152 -164 0
-22 -40 -43 -59 -60 -77 -78 -94 -95 -110 -111 -125 -126 -138 -140 -151 -152 -164 0
-21 -41 -42 -59 -61 -77 -78 -94 -95 -110 -111 -125 -126 -138 -140 -151 -152 -164 0
-22 -41 -43 -59 -61 -77 -78 -94 -95 -110 -111 -125 -126 -138 -140 -151 -152 -164 0
-22 -42 -43 -59 -62 -77 -78 -94 -95 -110 -111 -125 -126 -138 -140 -151 -152 -164 0
-21 -41 -42 -60 -61 -77 -79 -94 -95 -110 -111 -125 -126 -138 -140 -151 -152 -164 0
-22 -41 -43 -60 -61 -77 -79 -94 -95 -110 -111 -125 -126 -138 -140 -151 -152 -164 0
-22 -42 -43 -60 -62 -77 -79 -94 -95 -110 -111 -125 -126 -138 -140 -151 -152 -164 0
-22 -42 -43 -61 -62 -77 -80 -94 -95 -110 -111 -125 -126 -138 -140 -151 -152 -164 0
-21 -41 -42 -60 -61 -78 -79 -94 -96 -110 -111 -125 -126 -138 -140 -151 -152 -164 0
-22 -41 -43 -60 -61 -78 -79 -94 -96 -110 -111 -125 -126 -138 -140 -151 -152 -164 0
-22 -42 -43 -60 -62 -78 -79 -94 -96 -110 -111 -125 -126 -138 -140 -151 -152 -164 0
-22 -42 -43 -61 -62 -78 -80 -94 -96 -110 -111 -125 -126 -138 -140 -151 -152 -164 0
-22 -42 -43 -61 -62 -79 -80 -94 -97 -110 -111 -125 -126 -138 -140 -151 -152 -164 0
-21 -41 -42 -60 -61 -78 -79 -95 -96 -110 -112 -125 -126 -138 -140 -151 -152 -164 0
-22 -41 -43 -60 -61 -78 -79 -95 -96 -110 -112 -125 -126 -138 -140 -151 -152 -164 0
-22 -42 -43 -60 -62 -78 -79 -95 -96 -110 -112 -125 -126 -138 -140 -151 -152 -164 0
-22 -42 -43 -61 -62 -78 -80 -95 -96 -110 -112 -125 -126 -138 -140 -151 -152 -164 0
-22 -42 -43 -61 -62 -79 -80 -95 -97 -110 -112 -125 -126 -138 -140 -151 -152 -164 0
-22 -42 -43 -61 -62 -79 -80 -96 -97 -110 -113 -125 -126 -138 -140 -151 -152 -164 0
-21 -41 -42 -60 -61 -78 -79 -95 -96 -111 -112 -125 -127 -138 -140 -151 -152 -164 0
-22 -41 -43 -60 -61 -78 -79 -95 -96 -111 -112 -125 -127 -138 -140 -151 -152 -164 0
-22 -42 -43 -60 -62 -78 -79 -95 -96 -111 -112 -125 -127 -138 -140 -151 -152 -164 0
-22 -42 -43 -61 -62 -78 -80 -95 -96 -111 -112 -125 -127 -138 -140 -151 -152 -164 0
-22 -42 -43 -61 -62 -79 -80 -95 -97 -111 -112 -125 -127 -138 -140 -151 -152 -164 0
-22 -42 -43 -61 -62 -79 -80 -96 -97 -111 -113 -125 -127 -138 -140 -151 -152 -164 0
-22 -42 -43 -61 -62 -79 -80 -96 -97 -112 -113 -125 -128 -138 -140 -151 -152 -164 0
-21 -41 -42 -60 -61 -78 -79 -95 -96 -111 -112 -126 -127 -138 -141 -151 -152 -164 0
-22 -41 -43 -60 -61 -78 -79 -95 -96 -111 -112 -126 -127 -138 -141 -151 -152 -164 0
-22 -42 -43 -60 -62 -78 -79 -95 -96 -111 -112 -126 -127 -138 -141 -151 -152 -164 0
-22 -42 -43 -61 -62 -78 -80 -95 -96 -111 -112 -126 -127 -138 -141 -151 -152 -164 0
-22 -42 -43 -61 -62 -79 -80 -95 -97 -111 -112 -126 -127 -138 -141 -151 -152 -164 0
-22 -42 -43 -61 -62 -79 -80 -96 -97 -111 -113 -126 -127 -138 -141 -151 -152 -164 0
-22 -42 -43 -61 -62 -79 -80 -96 -97 -112 -113 -126 -128 -138 -141 -151 -152 -164 0
-22 -42 -43 -61 -62 -79 -80 -96 -97 -112 -113 -127 -128 -138 -142 -151 -152 -164 0
-20 -40 -41 -59 -60 -77 -78 -94 -95 -110 -111 -125 -126 -139 -140 -151 -153 -164 0
-21 -40 -42 -59 -60 -77 -78 -94 -95 -110 -111 -125 -126 -139 -140 -151 -153 -164 0
-22 -40 -43 -59 -60 -77 -78 -94 -95 -110 -111 -125 -126 -139 -140 -151 -153 -164 0
-21 -41 -42 -59 -61 -77 -78 -94 -95 -110 -111 -125 -126 -139 -140 -151 -153 -164 0
-22 -41 -43 -59 -61 -77 -78 -94 -95 -110 -111 -125 -126 -139 -140 -151 -153 -164 0
-22 -42 -43 -59 -62 -77 -78 -94 -95 -110 -111 -125 -126 -139 -140 -151 -153 -164 0
-21 -41 -42 -60 -61 -77 -79 -94 -95 -110 -111 -125 -126 -139 -140 -151 -153 -164 0
-22 -41 -43 -60 -61 -77 -79 -94 -95 -110 -111 -125 -126 -139 -140 -151 -153 -164 0
-22 -42 -43 -60 -62 -77 -79 -94 -95 -110 -111 -125 -126 -139 -140 -151 -153 -164 0
-22 -42 -43 -61 -62 -77 -80 -94 -95 -110 -111 -125 -126 -139 -140 -151 -153 -164 0
-21 -41 -42 -60 -61 -78 -79 -94 -96 -110 -111 -125 -126 -139 -140 -151 -153 -164 0
-22 -41 -43 -60 -61 -78 -79 -94 -96 -110 -111 -125 -126 -139 -140 -151 -153 -164 0
-22 -42 -43 -60 -62 -78 -79 -94 -96 -110 -111 -125 -126 -139 -140 -151 -153 -164 0
-22 -42 -43 -61 -62 -78 -80 -94 -96 -110 -111 -125 -126 -139 -140 -151 -153 -164 0
-22 -42 -43 -61 -62 -79 -80 -94 -97 -110 -111 -125 -126 -139 -140 -151 -153 -164 0
-21 -41 -42 -60 -61 -78 -79 -95 -96 -110 -112 -125 -126 -139 -140 -151 -153 -164 0
-22 -41 -43 -60 -61 -78 -79 -95 -96 -110 -112 -125 -126 -139 -140 -151 -153 -164 0
-22 -42 -43 -60 -62 -78 -79 -95 -96 -110 -112 -125 -126 -139 -140 -151 -153 -164 0
-22 -42 -43 -61 -62 -78 -80 -95 -96 -110 -112 -125 -126 -139 -140 -151 -153 -164 0
-22 -42 -43 -61 -62 -79 -80 -95 -97 -110 -112 -125 -126 -139 -140 -151 -153 -164 0
-22 -42 -43 -61 -62 -79 -80 -96 -97 -110 -113 -125 -126 -139 -140 -151 -153 -164 0
-21 -41 -42 -60 -61 -78 -79 -95 -96 -111 -112 -125 -127 -139 -140 -151 -153 -164 0
-22 -41 -43 -60 -61 -78 -79 -95 -96 -111 -112 -125 -127 -139 -140 -151 -153 -164 0
-22 -42 -43 -60 -62 -78 -79 -95 -96 -111 -112 -125 -127 -139 -140 -151 -153 -164 0
-22 -42 -43 -61 -62 -78 -80 -95 -96 -111 -112 -125 -127 -139 -140 -151 -153 -164 0
-22 -42 -43 -61 -62 -79 -80 -95 -97 -111 -112 -125 -127 -139 -140 -151 -153 -164 0
-22 -42 -43 -61 -62 -79 -80 -96 -97 -111 -113 -125 -127 -139 -140 -151 -153 -164 0
-22 -42 -43 -61 -62 -79 -80 -96 -97 -112 -113 -125 -128 -139 -140 -151 -153 -164 0
-21 -41 -42 -60 -61 -78 -79 -95 -96 -111 -112 -126 -127 -139 -141 -151 -153 -164 0
-22 -41 -43 -60 -61 -78 -79 -95 -96 -111 -112 -126 -127 -139 -141 -151 -153 -164 0
-22 -42 -43 -60 -62 -78 -79 -95 -96 -111 -112 -126 -127 -139 -141 -151 -153 -164 0
-22 -42 -43 -61 -62 -78 -80 -95 -96 -111 -112 -126 -127 -139 -141 -151 -153 -164 0
-22 -42 -43 -61 -62 -79 -80 -95 -97 -111 -112 -126 -127 -139 -141 -151 -153 -164 0
-22 -42 -43 -61 -62 -79 -80 -96 -97 -111 -113 -126 -127 -139 -141 -151 -153 -164 0
-22 -42 -43 -61 -62 -79 -80 -96 -97 -112 -113 -126 -128 -139 -141 -151 -153 -164 0
-22 -42 -43 -61 -62 -79 -80 -96 -97 -112 -113 -127 -128 -139 -142 -151 -153 -164 0
-21 -41 -42 -60 -61 -78 -79 -95 -96 -111 -112 -126 -127 -140 -141 -151 -154 -164 0
-22 -41 -43 -60 -61 -78 -79 -95 -96 -111 -112 -126 -127 -140 -141 -151 -154 -164 0
-22 -42 -43 -60 -62 -78 -79 -95 -96 -111 -112 -126 -127 -140 -141 -151 -154 -164 0
-22 -42 -43 -61 -62 -78 -80 -95 -96 -111 -112 -126 -127 -140 -141 -151 -154 -164 0
-22 -42 -43 -61 -62 -79 -80 -95 -97 -111 -112 -126 -127 -140 -141 -151 -154 -164 0
-22 -42 -43 -61 -62 -79 -80 -96 -97 -111 -113 -126 -127 -140 -141 -151 -154 -164 0
-22 -42 -43 -61 -62 -79 -80 -96 -97 -112 -113 -126 -128 -140 -141 -151 -154 -164 0
-22 -42 -43 -61 -62 -79 -80 -96 -97 -112 -113 -127 -128 -140 -142 -151 -154 -164 0
-22 -42 -43 -61 -62 -79 -80 -96 -97 -112 -113 -127 -128 -141 -142 -151 -155 -164 0
-20 -40 -41 -59 -60 -77 -78 -94 -95 -110 -111 -125 -126 -139 -140 -152 -153 -165 0
-21 -40 -42 -59 -60 -77 -78 -94 -95 -110 -111 -125 -126 -139 -140 -152 -153 -165 0
-22 -40 -43 -59 -60 -77 -78 -94 -95 -110 -111 -125 -126 -139 -140 -152 -153 -165 0
-21 -41 -42 -59 -61 -77 -78 -94 -95 -110 -111 -125 -126 -139 -140 -152 -153 -165 0
-22 -41 -43 -59 -61 -77 -78 -94 -95 -110 -111 -125 -126 -139 -140 -152 -153 -165 0
-22 -42 -43 -59 -62 -77 -78 -94 -95 -110 -111 -125 -126 -139 -140 -152 -153 -165 0
-21 -41 -42 -60 -61 -77 -79 -94 -95 -110 -111 -125 -126 -139 -140 -152 -153 -165 0
-22 -41 -43 -60 -61 -77 -79 -94 -95 -110 -111 -125 -126 -139 -140 -152 -153 -165 0
-22 -42 -43 -60 -62 -77 -79 -94 -95 -110 -111 -125 -126 -139 -140 -152 -153 -165 0
-22 -42 -43 -61 -62 -77 -80 -94 -95 -110 -111 -125 -126 -139 -140 -152 -153 -165 0
-21 -41 -42 -60 -61 -78 -79 -94 -96 -110 -111 -125 -126 -139 -140 -152 -153 -165 0
-22 -41 -43 -60 -61 -78 -79 -94 -96 -110 -111 -125 -126 -139 -140 -152 -153 -165 0
-22 -42 -43 -60 -62 -78 -79 -94 -96 -110 -111 -125 -126 -139 -140 -152 -153 -165 0
-22 -42 -43 -61 -62 -78 -80 -94 -96 -110 -111 -125 -126 -139 -140 -152 -153 -165 0
-22 -42 -43 -61 -62 -79 -80 -94 -97 -110 -111 -125 -126 -139 -140 -152 -153 -165 0
-21 -41 -42 -60 -61 -78 -79 -95 -96 -110 -112 -125 -126 -139 -140 -152 -153 -165 0
-22 -41 -43 -60 -61 -78 -79 -95 -96 -110 -112 -125 -126 -139 -140 -152 -153 -165 0
-22 -42 -43 -60 -62 -78 -79 -95 -96 -110 -112 -125 -126 -139 -140 -152 -153 -165 0
-22 -42 -43 -61 -62 -78 -80 -95 -96 -110 -112 -125 -126 -139 -140 -152 -153 -165 0
-22 -42 -43 -61 -62 -79 -80 -95 -97 -110 -112 -125 -126 -139 -140 -152 -153 -165 0
-22 -42 -43 -61 -62 -79 -80 -96 -97 -110 -113 -125 -126 -139 -140 -152 -153 -165 0
-21 -41 -42 -60 -61 -78 -79 -95 -96 -111 -112 -125 -127 -139 -140 -152 -153 -165 0
-22 -41 -43 -60 -61 -78 -79 -95 -96 -111 -112 -125 -127 -139 -140 -152 -153 -165 0
-22 -42 -43 -60 -62 -78 -79 -95 -96 -111 -112 -125 -127 -139 -140 -152 -153 -165 0
-22 -42 -43 -61 -62 -78 -80 -95 -96 -111 -112 -125 -127 -139 -140 -152 -153 -165 0
-22 -42 -43 -61 -62 -79 -80 -95 -97 -111 -112 -125 -127 -139 -140 -152 -153 -165 0
-22 -42 -43 -61 -62 -79 -80 -96 -97 -111 -113 -125 -127 -139 -140 -152 -153 -165 0
-22 -42 -43 -61 -62 -79 -80 -96 -97 -112 -113 -125 -128 -139 -140 -152 -153 -165 0
-21 -41 -42 -60 -61 -78 -79 -95 -96 -111 -112 -126 -127 -139 -141 -152 -153 -165 0
-22 -41 -43 -60 -61 -78 -79 -95 -96 -111 -112 -126 -127 -139 -141 -152 -153 -165 0
-22 -42 -43 -60 -62 -78 -79 -95 -96 -111 -112 -126 -127 -139 -141 -152 -153 -165 0
-22 -42 -43 -61 -62 -78 -80 -95 -96 -111 -112 -126 -127 -139 -141 -152 -153 -165 0
-22 -42 -43 -61 -62 -79 -80 -95 -97 -111 -112 -126 -127 -139 -141 -152 -153 -165 0
-22 -42 -43 -61 -62 -79 -80 -96 -97 -111 -113 -126 -127 -139 -141 -152 -153 -165 0
-22 -42 -43 -61 -62 -79 -80 -96 -97 -112 -113 -126 -128 -139 -141 -152 -153 -165 0
-22 -42 -43 -61 -62 -79 -80 -96 -97 -112 -113 -127 -128 -139 -142 -152 -153 -165 0
-21 -41 -42 -60 -61 -78 -79 -95 -96 -111 -112 -126 -127 -140 -141 -152 -154 -165 0
-22 -41 -43 -60 -61 -78 -79 -95 -96 -111 -112 -126 -127 -140 -141 -152 -154 -165 0
-22 -42 -43 -60 -62 -78 -79 -95 -96 -111 -112 -126 -127 -140 -141 -152 -154 -165 0
-22 -42 -43 -61 -62 -78 -80 -95 -96 -111 -112 -126 -127 -140 -141 -152 -154 -165 0
-22 -42 -43 -61 -62 -79 -80 -95 -97 -111 -112 -126 -127 -140 -141 -152 -154 -165 0
-22 -42 -43 -61 -62 -79 -80 -96 -97 -111 -113 -126 -127 -140 -141 -152 -154 -165 0
-22 -42 -43 -61 -62 -79 -80 -96 -97 -112 -113 -126 -128 -140 -141 -152 -154 -165 0
-22 -42 -43 -61 -62 -79 -80 -96 -97 -112 -113 -127 -128 -140 -142 -152 -154 -165 0
-22 -42 -43 -61 -62 -79 -80 -96 -97 -112 -113 -127 -128 -141 -142 -152 -155 -165 0
-21 -41 -42 -60 -61 -78 -79 -95 -96 -111 -112 -126 -127 -140 -141 -153 -154 -166 0
-22 -41 -43 -60 -61 -78 -79 -95 -96 -111 -112 -126 -127 -140 -141 -153 -154 -166 0
-22 -42 -43 -60 -62 -78 -79 -95 -96 -111 -112 -126 -127 -140 -141 -153 -154 -166 0
-22 -42 -43 -61 -62 -78 -80 -95 -96 -111 -112 -126 -127 -140 -141 -153 -154 -166 0
-22 -42 -43 -61 -62 -79 -80 -95 -97 -111 -112 -126 -127 -140 -141 -153 -154 -166 0
-22 -42 -43 -61 -62 -79 -80 -96 -97 -111 -113 -126 -127 -140 -141 -153 -154 -166 0
-22 -42 -43 -61 -62 -79 -80 -96 -97 -112 -113 -126 -128 -140 -141 -153 -154 -166 0
-22 -42 -43 -61 -62 -79 -80 -96 -97 -112 -113 -127 -128 -140 -142 -153 -154 -166 0
-22 -42 -43 -61 -62 -79 -80 -96 -97 -112 -113 -127 -128 -141 -142 -153 -155 -166 0
-22 -42 -43 -61 -62 -79 -80 -96 -97 -112 -113 -127 -128 -141 -142 -154 -155 -167 0
-19 -39 -40 -58 -59 -76 -77 -93 -94 -109 -110 -124 -125 -138 -139 -151 -152 -176 0
-20 -39 -41 -58 -59 -76 -77 -93 -94 -109 -110 -124 -125 -138 -139 -151 -152 -176 0
-21 -39 -42 -58 -59 -76 -77 -93 -94 -109 -110 -124 -125 -138 -139 -151 -152 -176 0
-22 -39 -43 -58 -59 -76 -77 -93 -94 -109 -110 -124 -125 -138 -139 -151 -152 -176 0
-20 -40 -41 -58 -60 -76 -77 -93 -94 -109 -110 -124 -125 -138 -139 -151 -152 -176 0
-21 -40 -42 -58 -60 -76 -77 -93 -94 -109 -110 -124 -125 -138 -139 -151 -152 -176 0
-22 -40 -43 -58 -60 -76 -77 -93 -94 -109 -110 -124 -125 -138 -139 -151 -152 -176 0
-21 -41 -42 -58 -61 -76 -77 -93 -94 -109 -110 -124 -125 -138 -139 -151 -152 -176 0
-22 -41 -43 -58 -61 -76 -77 -93 -94 -109 -110 -124 -125 -138 -139 -151 -152 -176 0
-22 -42 -43 -58 -62 -76 -77 -93 -94 -109 -110 -124 -125 -138 -139 -151 -152 -176 0
-20 -40 -41 -59 -60 -76 -78 -93 -94 -109 -110 -124 -125 -138 -139 -151 -152 -176 0
-21 -40 -42 -59 -60 -76 -78 -93 -94 -109 -110 -124 -125 -138 -139 -151 -152 -176 0
-22 -40 -43 -59 -60 -76 -78 -93 -94 -109 -110 -124 -125 -138 -139 -151 -152 -176 0
-21 -41 -42 -59 -61 -76 -78 -93 -94 -109 -110 -124 -125 -138 -139 -151 -152 -176 0
-22 -41 -43 -59 -61 -76 -78 -93 -94 -109 -110 -124 -125 -138 -139 -151 -152 -176 0
-22 -42 -43 -59 -62 -76 -78 -93 -94 -109 -110 -124 -125 -138 -139 -151 -152 -176 0
-21 -41 -42 -60 -61 -76 -79 -93 -94 -109 -110 -124 -125 -138 -139 -151 -152 -176 0
-22 -41 -43 -60 -61 -76 -79 -93 -94 -109 -110 -124 -125 -138 -139 -151 -152 -176 0
-22 -42 -43 -60 -62 -76 -79 -93 -94 -109 -110 -124 -125 -138 -139 -151 -152 -176 0
-22 -42 -43 -61 -62 -76 -80 -93 -94 -109 -110 -124 -125 -138 -139 -151 -152 -176 0
-20 -40 -41 -59 -60 -77 -78 -93 -95 -109 -110 -124 -125 -138 -139 -151 -152 -176 0
-21 -40 -42 -59 -60 -77 -78 -93 -95 -109 -110 -124 -125 -138 -139 -151 -152 -176 0
-22 -40 -43 -59 -60 -77 -78 -93 -95 -109 -110 -124 -125 -138 -139 -151 -152 -176 0
-21 -41 -42 -59 -61 -77 -78 -93 -95 -109 -110 -124 -125 -138 -139 -151 -152 -176 0
-22 -41 -43 -59 -61 -77 -78 -93 -95 -109 -110 -124 -125 -138 -139 -151 -152 -176 0
-22 -42 -43 -59 -62 -77 -78 -93 -95 -109 -110 -124 -125 -138 -139 -151 -152 -176 0
-21 -41 -42 -60 -61 -77 -79 -93 -95 -109 -110 -124 -125 -138 -139 -151 -152 -176 0
-22 -41 -43 -60 -61 -77 -79 -93 -95 -109 -110 -124 -125 -138 -139 -151 -152 -176 0
-22 -42 -43 -60 -62 -77 -79 -93 -95 -109 -110 -124 -125 -138 -139 -151 -152 -176 0
-22 -42 -43 -61 -62 -77 -80 -93 -95 -109 -110 -124 -125 -138 -139 -151 -152 -176 0
-21 -41 -42 -60 -61 -78 -79 -93 -96 -109 -110 -124 -125 -138 -139 -151 -152 -176 0
-22 -41 -43 -60 -61 -78 -79 -93 -96 -109 -110 -124 -125 -138 -139 -151 -152 -176 0
-22 -42 -43 -60 -62 -78 -79 -93 -96 -109 -110 -124 -125 -138 -139 -151 -152 -176 0
-22 -42 -43 -61 -62 -78 -80 -93 -96 -109 -110 -124 -125 -138 -139 -151 -152 -176 0
-22 -42 -43 -61 -62 -79 -80 -93 -97 -109 -110 -124 -125 -138 -139 -151 -152 -176 0
-20 -40 -41 -59 -60 -77 -78 -94 -95 -109 -111 -124 -125 -138 -139 -151 -152 -176 0
-21 -40 -42 -59 -60 -77 -78 -94 -95 -109 -111 -124 -125 -138 -139 -151 -152 -176 0
-22 -40 -43 -59 -60 -77 -78 -94 -95 -109 -111 -124 -125 -138 -139 -151 -152 -176 0
-21 -41 -42 -59 -61 -77 -78 -94 -95 -109 -111 -124 -125 -138 -139 -151 -152 -176 0
-22 -41 -43 -59 -61 -77 -78 -94 -95 -109 -111 -124 -125 -138 -139 -151 -152 -176 0
-22 -42 -43 -59 -62 -77 -78 -94 -95 -109 -111 -124 -125 -138 -139 -151 -152 -176 0
-21 -41 -42 -60 -61 -77 -79 -94 -95 -109 -111 -124 -125 -138 -139 -151 -152 -176 0
-22 -41 -43 -60 -61 -77 -79 -94 -95 -109 -111 -124 -125 -138 -139 -151 -152 -176 0
-22 -42 -43 -60 -62 -77 -79 -94 -95 -109 -111 -124 -125 -138 -139 -151 -152 -176 0
-22 -42 -43 -61 -62 -77 -80 -94 -95 -109 -111 -124 -125 -138 -139 -151 -152 -176 0
-21 -41 -42 -60 -61 -78 -79 -94 -96 -109 -111 -124 -125 -138 -139 -151 -152 -176 0
-22 -41 -43 -60 -61 -78 -79 -94 -96 -109 -111 -124 -125 -138 -139 -151 -152 -176 0
-22 -42 -43 -60 -62 -78 -79 -94 -96 -109 -111 -124 -125 -138 -139 -151 -152 -176 0
-22 -42 -43 -61 -62 -78 -80 -94 -96 -109 -111 -124 -125 -138 -139 -151 -152 -176 0
-22 -42 -43 -61 -62 -79 -80 -94 -97 -109 -111 -124 -125 -138 -139 -151 -152 -176 0
-21 -41 -42 -60 -61 -78 -79 -95 -96 -109 -112 -124 -125 -138 -139 -151 -152 -176 0
-22 -41 -43 -60 -61 -78 -79 -95 -96 -109 -112 -124 -125 -138 -139 -151 -152 -176 0
-22 -42 -43 -60 -62 -78 -79 -95 -96 -109 -112 -124 -125 -138 -139 -151 -152 -176 0
-22 -42 -43 -61 -62 -78 -80 -95 -96 -109 -112 -124 -125 -138 -139 -151 -152 -176 0
-22 -42 -43 -61 -62 -79 -80 -95 -97 -109 -112 -124 -125 -138 -139 -151 -152 -176 0
-22 -42 -43 -61 -62 -79 -80 -96 -97 -109 -113 -124 -125 -138 -139 -151 -152 -176 0
-20 -40 -41 -59 -60 -77 -78 -94 -95 -110 -111 -124 -126 -138 -139 -151 -152 -176 0
-21 -40 -42 -59 -60 -77 -78 -94 -95 -110 -111 -124 -126 -138 -139 -151 -152 -176 0
-22 -40 -43 -59 -60 -77 -78 -94 -95 -110 -111 -124 -126 -138 -139 -151 -152 -176 0
-21 -41 -42 -59 -61 -77 -78 -94 -95 -110 -111 -124 -126 -138 -139 -151 -152 -176 0
-22 -41 -43 -59 -61 -77 -78 -94 -95 -110 -111 -124 -126 -138 -139 -151 -152 -176 0
-22 -42 -43 -59 -62 -77 -78 -94 -95 -110 -111 -124 -126 -138 -139 -151 -152 -176 0
-21 -41 -42 -60 -61 -77 -79 -94 -95 -110 -111 -124 -126 -138 -139 -151 -152 -176 0
-22 -41 -43 -60 -61 -77 -79 -94 -95 -110 -111 -124 -126 -138 -139 -151 -152 -176 0
-22 -42 -43 -60 -62 -77 -79 -94 -95 -110 -111 -124 -126 -138 -139 -151 -152 -176 0
-22 -42 -43 -61 -62 -77 -80 -94 -95 -110 -111 -124 -126 -138 -139 -151 -152 -176 0
-21 -41 -42 -60 -61 -78 -79 -94 -96 -110 -111 -124 -126 -138 -139 -151 -152 -176 0
-22 -41 -43 -60 -61 -78 -79 -94 -96 -110 -111 -124 -126 -138 -139 -151 -152 -176 0
-22 -42 -43 -60 -62 -78 -79 -94 -96 -110 -111 -124 -126 -138 -139 -151 -152 -176 0
-22 -42 -43 -61 -62 -78 -80 -94 -96 -110 -111 -124 -126 -138 -139 -151 -152 -176 0
-22 -42 -43 -61 -62 -79 -80 -94 -97 -110 -111 -124 -126 -138 -139 -151 -152 -176 0
-21 -41 -42 -60 -61 -78 -79 -95 -96 -110 -112 -124 -126 -138 -139 -151 -152 -176 0
-22 -41 -43 -60 -61 -78 -79 -95 -96 -110 -112 -124 -126 -138 -139 -151 -152 -176 0
-22 -42 -43 -60 -62 -78 -79 -95 -96 -110 -112 -124 -126 -138 -139 -151 -152 -176 0
-22 -42 -43 -61 -62 -78 -80 -95 -96 -110 -112 -124 -126 -138 -139 -151 -152 -176 0
-22 -42 -43 -61 -62 -79 -80 -95 -97 -110 -112 -124 -126 -138 -139 -151 -152 -176 0
-22 -42 -43 -61 -62 -79 -80 -96 -97 -110 -113 -124 -126 -138 -139 -151 -152 -176 0
-21 -41 -42 -60 -61 -78 -79 -95 -96 -111 -112 -124 -127 -138 -139 -151 -152 -176 0
-22 -41 -43 -60 -61 -78 -79 -95 -96 -111 -112 -124 -127 -138 -139 -151 -152 -176 0
-22 -42 -43 -60 -62 -78 -79 -95 -96 -111 -112 -124 -127 -138 -139 -151 -152 -176 0
-22 -42 -43 -61 -62 -78 -80 -95 -96 -111 -112 -124 -127 -138 -139 -151 -152 -176 0
-22 -42 -43 -61 -62 -79 -80 -95 -97 -111 -112 -124 -127 -138 -139 -151 -152 -176 0
-22 -42 -43 -61 -62 -79 -80 -96 -97 -111 -113 -124 -127 -138 -139 -151 -152 -176 0
-22 -42 -43 -61 -62 -79 -80 -96 -97 -112 -113 -124 -128 -138 -139 -151 -152 -176 0
-20 -40 -41 -59 -60 -77 -78 -94 -95 -110 -111 -125 -126 -138 -140 -151 -152 -176 0
-21 -40 -42 -59 -60 -77 -78 -94 -95 -110 -111 -125 -126 -138 -140 -151 -152 -176 0
-22 -40 -43 -59 -60 -77 -78 -94 -95 -110 -111 -125 -126 -138 -140 -151 -152 -176 0
-21 -41 -42 -59 -61 -77 -78 -94 -95 -110 -111 -125 -126 -138 -140 -151 -152 -176 0
-22 -41 -43 -59 -61 -77 -78 -94 -95 -110 -111 -125 -126 -138 -140 -151 -152 -176 0
-22 -42 -43 -59 -62 -77 -78 -94 -95 -110 -111 -125 -126 -138 -140 -151 -152 -176 0
-21 -41 -42 -60 -61 -77 -79 -94 -95 -110 -111 -125 -126 -138 -140 -151 -152 -176 0
-22 -41 -43 -60 -61 -77 -79 -94 -95 -110 -111 -125 -126 -138 -140 -151 -152 -176 0
-22 -42 -43 -60 -62 -77 -79 -94 -95 -110 -111 -125 -126 -138 -140 -151 -152 -176 0
-22 -42 -43 -61 -62 -77 -80 -94 -95 -110 -111 -125 -126 -138 -140 -151 -152 -176 0
-21 -41 -42 -60 -61 -78 -79 -94 -96 -110 -111 -125 -126 -138 -140 -151 -152 -176 0
-22 -41 -43 -60 -61 -78 -79 -94 -96 -110 -111 -125 -126 -138 -140 -151 -152 -176 0
-22 -42 -43 -60 -62 -78 -79 -94 -96 -110 -111 -125 -126 -138 -140 -151 -152 -176 0
-22 -42 -43 -61 -62 -78 -80 -94 -96 -110 -111 -125 -126 -138 -140 -151 -152 -176 0
-22 -42 -43 -61 -62 -79 -80 -94 -97 -110 -111 -125 -126 -138 -140 -151 -152 -176 0
-21 -41 -42 -60 -61 -78 -79 -95 -96 -110 -112 -125 -126 -138 -140 -151 -152 -176 0
-22 -41 -43 -60 -61 -78 -79 -95 -96 -110 -112 -125 -126 -138 -140 -151 -152 -176 0
-22 -42 -43 -60 -62 -78 -79 -95 -96 -110 -112 -125 -126 -138 -140 -151 -152 -176 0
-22 -42 -43 -61 -62 -78 -80 -95 -96 -110 -112 -125 -126 -138 -140 -151 -152 -176 0
-22 -42 -43 -61 -62 -79 -80 -95 -97 -110 -112 -125 -126 -138 -140 -151 -152 -176 0
-22 -42 -43 -61 -62 -79 -80 -96 -97 -110 -113 -125 -126 -138 -140 -151 -152 -176 0
-21 -41 -42 -60 -61 -78 -79 -95 -96 -111 -112 -125 -127 -138 -140 -151 -152 -176 0
-22 -41 -43 -60 -61 -78 -79 -95 -96 -111 -112 -125 -127 -138 -140 -151 -152 -176 0
-22 -42 -43 -60 -62 -78 -79 -95 -96 -111 -112 -125 -127 -138 -140 -151 -152 -176 0
-22 -42 -43 -61 -62 -78 -80 -95 -96 -111 -112 -125 -127 -138 -140 -151 -152 -176 0
-22 -42 -43 -61 -62 -79 -80 -95 -97 -111 -112 -125 -127 -138 -140 -151 -152 -176 0
-22 -42 -43 -61 -62 -79 -80 -96 -97 -111 -113 -125 -127 -138 -140 -151 -152 -176 0
-22 -42 -43 -61 -62 -79 -80 -96 -97 -112 -113 -125 -128 -138 -140 -151 -152 -176 0
-21 -41 -42 -60 -61 -78 -79 -95 -96 -111 -112 -126 -127 -138 -141 -151 -152 -176 0
-22 -41 -43 -60 -61 -78 -79 -95 -96 -111 -112 -126 -127 -138 -141 -151 -152 -176 0
-22 -42 -43 -60 -62 -78 -79 -95 -96 -111 -112 -126 -127 -138 -141 -151 -152 -176 0
-22 -42 -43 -61 -62 -78 -80 -95 -96 -111 -112 -126 -127 -138 -141 -151 -152 -176 0
-22 -42 -43 -61 -62 -79 -80 -95 -97 -111 -112 -126 -127 -138 -141 -151 -152 -176 0
-22 -42 -43 -61 -62 -79 -80 -96 -97 -111 -113 -126 -127 -138 -141 -151 -152 -176 0
-22 -42 -43 -61 -62 -79 -80 -96 -97 -112 -113 -126 -128 -138 -141 -151 -152 -176 0
-22 -42 -43 -61 -62 -79 -80 -96 -97 -112 -113 -127 -128 -138 -142 -151 -152 -176 0
-20 -40 -41 -59 -60 -77 -78 -94 -95 -110 -111 -125 -126 -139 -140 -151 -153 -176 0
-21 -40 -42 -59 -60 -77 -78 -94 -95 -110 -111 -125 -126 -139 -140 -151 -153 -176 0
-22 -40 -43 -59 -60 -77 -78 -94 -95 -110 -111 -125 -126 -139 -140 -151 -153 -176 0
-21 -41 -42 -59 -61 -77 -78 -94 -95 -110 -111 -125 -126 -139 -140 -151 -153 -176 0
-22 -41 -43 -59 -61 -77 -78 -94 -95 -110 -111 -125 -126 -139 -140 -151 -153 -176 0
-22 -42 -43 -59 -62 -77 -78 -94 -95 -110 -111 -125 -126 -139 -140 -151 -153 -176 0
-21 -41 -42 -60 -61 -77 -79 -94 -95 -110 -111 -125 -126 -139 -140 -151 -153 -176 0
-22 -41 -43 -60 -61 -77 -79 -94 -95 -110 -111 -125 -126 -139 -140 -151 -153 -176 0
-22 -42 -43 -60 -62 -77 -79 -94 -95 -110 -111 -125 -126 -139 -140 -151 -153 -176 0
-22 -42 -43 -61 -62 -77 -80 -94 -95 -110 -111 -125 -126 -139 -140 -151 -153 -176 0
-21 -41 -42 -60 -61 -78 -79 -94 -96 -110 -111 -125 -126 -139 -140 -151 -153 -176 0
-22 -41 -43 -60 -61 -78 -79 -94 -96 -110 -111 -125 -126 -139 -140 -151 -153 -176 0
-22 -42 -43 -60 -62 -78 -79 -94 -96 -110 -111 -125 -126 -139 -140 -151 -153 -176 0
-22 -42 -43 -61 -62 -78 -80 -94 -96 -110 -111 -125 -126 -139 -140 -151 -153 -176 0
-22 -42 -43 -61 -62 -79 -80 -94 -97 -110 -111 -125 -126 -139 -140 -151 -153 -176 0
-21 -41 -42 -60 -61 -78 -79 -95 -96 -110 -112 -125 -126 -139 -140 -151 -153 -176 0
-22 -41 -43 -60 -61 -78 -79 -95 -96 -110 -112 -125 -126 -139 -140 -151 -153 -176 0
-22 -42 -43 -60 -62 -78 -79 -95 -96 -110 -112 -125 -126 -139 -140 -151 -153 -176 0
-22 -42 -43 -61 -62 -78 -80 -95 -96 -110 -112 -125 -126 -139 -140 -151 -153 -176 0
-22 -42 -43 -61 -62 -79 -80 -95 -97 -110 -112 -125 -126 -139 -140 -151 -153 -176 0
-22 -42 -43 -61 -62 -79 -80 -96 -97 -110 -113 -125 -126 -139 -140 -151 -153 -176 0
-21 -41 -42 -60 -61 -78 -79 -95 -96 -111 -112 -125 -127 -139 -140 -151 -153 -176 0
-22 -41 -43 -60 -61 -78 -79 -95 -96 -111 -112 -125 -127 -139 -140 -151 -153 -176 0
-22 -42 -43 -60 -62 -78 -79 -95 -96 -111 -112 -125 -127 -139 -140 -151 -153 -176 0
-22 -42 -43 -61 -62 -78 -80 -95 -96 -111 -112 -125 -127 -139 -140 -151 -153 -176 0
-22 -42 -43 -61 -62 -79 -80 -95 -97 -111 -112 -125 -127 -139 -140 -151 -153 -176 0
-22 -42 -43 -61 -62 -79 -80 -96 -97 -111 -113 -125 -127 -139 -140 -151 -153 -176 0
-22 -42 -43 -61 -62 -79 -80 -96 -97 -112 -113 -125 -128 -139 -140 -151 -153 -176 0
-21 -41 -42 -60 -61 -78 -79 -95 -96 -111 -112 -126 -127 -139 -141 -151 -153 -176 0
-22 -41 -43 -60 -61 -78 -79 -95 -96 -111 -112 -126 -127 -139 -141 -151 -153 -176 0
-22 -42 -43 -60 -62 -78 -79 -95 -96 -111 -112 -126 -127 -139 -141 -151 -153 -176 0
-22 -42 -43 -61 -62 -78 -80 -95 -96 -111 -112 -126 -127 -139 -141 -151 -153 -176 0
-22 -42 -43 -61 -62 -79 -80 -95 -97 -111 -112 -126 -127 -139 -141 -151 -153 -176 0
-22 -42 -43 -61 -62 -79 -80 -96 -97 -111 -113 -126 -127 -139 -141 -151 -153 -176 0
-22 -42 -43 -61 -62 -79 -80 -96 -97 -112 -113 -126 -128 -139 -141 -151 -153 -176 0
-22 -42 -43 -61 -62 -79 -80 -96 -97 -112 -113 -127 -128 -139 -142 -151 -153 -176 0
-21 -41 -42 -60 -61 -78 -79 -95 -96 -111 -112 -126 -127 -140 -141 -151 -154 -176 0
-22 -41 -43 -60 -61 -78 -79 -95 -96 -111 -112 -126 -127 -140 -141 -151 -154 -176 0
-22 -42 -43 -60 -62 -78 -79 -95 -96 -111 -112 -126 -127 -140 -141 -151 -154 -176 0
-22 -42 -43 -61 -62 -78 -80 -95 -96 -111 -112 -126 -127 -140 -141 -151 -154 -176 0
-22 -42 -43 -61 -62 -79 -80 -95 -97 -111 -112 -126 -127 -140 -141 -151 -154 -176 0
-22 -42 -43 -61 -62 -79 -80 -96 -97 -111 -113 -126 -127 -140 -141 -151 -154 -176 0
-22 -42 -43 -61 -62 -79 -80 -96 -97 -112 -113 -126 -128 -140 -141 -151 -154 -176 0
-22 -42 -43 -61 -62 -79 -80 -96 -97 -112 -113 -127 -128 -140 -142 -151 -154 -176 0
-22 -42 -43 -61 -62 -79 -80 -96 -97 -112 -113 -127 -128 -141 -142 -151 -155 -176 0
-20 -40 -41 -59 -60 -77 -78 -94 -95 -110 -111 -125 -126 -139 -140 -152 -153 -177 0
-21 -40 -42 -59 -60 -77 -78 -94 -95 -110 -111 -125 -126 -139 -140 -152 -153 -177 0
-22 -40 -43 -59 -60 -77 -78 -94 -95 -110 -111 -125 -126 -139 -140 -152 -153 -177 0
-21 -41 -42 -59 -61 -77 -78 -94 -95 -110 -111 -125 -126 -139 -140 -152 -153 -177 0
-22 -41 -43 -59 -61 -77 -78 -94 -95 -110 -111 -125 -126 -139 -140 -152 -153 -177 0
-22 -42 -43 -59 -62 -77 -78 -94 -95 -110 -111 -125 -126 -139 -140 -152 -153 -177 0
-21 -41 -42 -60 -61 -77 -79 -94 -95 -110 -111 -125 -126 -139 -140 -152 -153 -177 0
-22 -41 -43 -60 -61 -77 -79 -94 -95 -110 -111 -125 -126 -139 -140 -152 -153 -177 0
-22 -42 -43 -60 -62 -77 -79 -94 -95 -110 -111 -125 -126 -139 -140 -152 -153 -177 0
-22 -42 -43 -61 -62 -77 -80 -94 -95 -110 -111 -125 -126 -139 -140 -152 -153 -177 0
-21 -41 -42 -60 -61 -78 -79 -94 -96 -110 -111 -125 -126 -139 -140 -152 -153 -177 0
-22 -41 -43 -60 -61 -78 -79 -94 -96 -110 -111 -125 -126 -139 -140 -152 -153 -177 0
-22 -42 -43 -60 -62 -78 -79 -94 -96 -110 -111 -125 -126 -139 -140 -152 -153 -177 0
-22 -42 -43 -61 -62 -78 -80 -94 -96 -110 -111 -125 -126 -139 -140 -152 -153 -177 0
-22 -42 -43 -61 -62 -79 -80 -94 -97 -110 -111 -125 -126 -139 -140 -152 -153 -177 0
-21 -41 -42 -60 -61 -78 -79 -95 -96 -110 -112 -125 -126 -139 -140 -152 -153 -177 0
-22 -41 -43 -60 -61 -78 -79 -95 -96 -110 -112 -125 -126 -139 -140 -152 -153 -177 0
-22 -42 -43 -60 -62 -78 -79 -95 -96 -110 -112 -125 -126 -139 -140 -152 -153 -177 0
-22 -42 -43 -61 -62 -78 -80 -95 -96 -110 -112 -125 -126 -139 -140 -152 -153 -177 0
-22 -42 -43 -61 -62 -79 -80 -95 -97 -110 -112 -125 -126 -139 -140 -152 -153 -177 0
-22 -42 -43 -61 -62 -79 -80 -96 -97 -110 -113 -125 -126 -139 -140 -152 -153 -177 0
-21 -41 -42 -60 -61 -78 -79 -95 -96 -111 -112 -125 -127 -139 -140 -152 -153 -177 0
-22 -41 -43 -60 -61 -78 -79 -95 -96 -111 -112 -125 -127 -139 -140 -152 -153 -177 0
-22 -42 -43 -60 -62 -78 -79 -95 -96 -111 -112 -125 -127 -139 -140 -152 -153 -177 0
-22 -42 -43 -61 -62 -78 -80 -95 -96 -111 -112 -125 -127 -139 -140 -152 -153 -177 0
-22 -42 -43 -61 -62 -79 -80 -95 -97 -111 -112 -125 -127 -139 -140 -152 -153 -177 0
-22 -42 -43 -61 -62 -79 -80 -96 -97 -111 -113 -125 -127 -139 -140 -152 -153 -177 0
-22 -42 -43 -61 -62 -79 -80 -96 -97 -112 -113 -125 -128 -139 -140 -152 -153 -177 0
-21 -41 -42 -60 -61 -78 -79 -95 -96 -111 -112 -126 -127 -139 -141 -152 -153 -177 0
-22 -41 -43 -60 -61 -78 -79 -95 -96 -111 -112 -126 -127 -139 -141 -152 -153 -177 0
-22 -42 -43 -60 -62 -78 -79 -95 -96 -111 -112 -126 -127 -139 -141 -152 -153 -177 0
-22 -42 -43 -61 -62 -78 -80 -95 -96 -111 -112 -126 -127 -139 -141 -152 -153 -177 0
-22 -42 -43 -61 -62 -79 -80 -95 -97 -111 -112 -126 -127 -139 -141 -152 -153 -177 0
-22 -42 -43 -61 -62 -79 -80 -96 -97 -111 -113 -126 -127 -139 -141 -152 -153 -177 0
-22 -42 -43 -61 -62 -79 -80 -96 -97 -112 -113 -126 -128 -139 -141 -152 -153 -177 0
-22 -42 -43 -61 -62 -79 -80 -96 -97 -112 -113 -127 -128 -139 -142 -152 -153 -177 0
-21 -41 -42 -60 -61 -78 -79 -95 -96 -111 -112 -126 -127 -140 -141 -152 -154 -177 0
-22 -41 -43 -60 -61 -78 -79 -95 -96 -111 -112 -126 -127 -140 -141 -152 -154 -177 0
-22 -42 -43 -60 -62 -78 -79 -95 -96 -111 -112 -126 -127 -140 -141 -152 -154 -177 0
-22 -42 -43 -61 -62 -78 -80 -95 -96 -111 -112 -126 -127 -140 -141 -152 -154 -177 0
-22 -42 -43 -61 -62 -79 -80 -95 -97 -111 -112 -126 -127 -140 -141 -152 -154 -177 0
-22 -42 -43 -61 -62 -79 -80 -96 -97 -111 -113 -126 -127 -140 -141 -152 -154 -177 0
-22 -42 -43 -61 -62 -79 -80 -96 -97 -112 -113 -126 -128 -140 -141 -152 -154 -177 0
-22 -42 -43 -61 -62 -79 -80 -96 -97 -112 -113 -127 -128 -140 -142 -152 -154 -177 0
-22 -42 -43 -61 -62 -79 -80 -96 -97 -112 -113 -127 -128 -141 -142 -152 -155 -177 0
-21 -41 -42 -60 -61 -78 -79 -95 -96 -111 -112 -126 -127 -140 -141 -153 -154 -178 0
-22 -41 -43 -60 -61 -78 -79 -95 -96 -111 -112 -126 -127 -140 -141 -153 -154 -178 0
-22 -42 -43 -60 -62 -78 -79 -95 -96 -111 -112 -126 -127 -140 -141 -153 -154 -178 0
-22 -42 -43 -61 -62 -78 -80 -95 -96 -111 -112 -126 -127 -140 -141 -153 -154 -178 0
-22 -42 -43 -61 -62 -79 -80 -95 -97 -111 -112 -126 -127 -140 -141 -153 -154 -178 0
-22 -42 -43 -61 -62 -79 -80 -96 -97 -111 -113 -126 -127 -140 -141 -153 -154 -178 0
-22 -42 -43 -61 -62 -79 -80 -96 -97 -112 -113 -126 -128 -140 -141 -153 -154 -178 0
-22 -42 -43 -61 -62 -79 -80 -96 -97 -112 -113 -127 -128 -140 -142 -153 -154 -178 0
-22 -42 -43 -61 -62 -79 -80 -96 -97 -112 -113 -127 -128 -141 -142 -153 -155 -178 0
-22 -42 -43 -61 -62 -79 -80 -96 -97 -112 -113 -127 -128 -141 -142 -154 -155 -179 0
-20 -40 -41 -59 -60 -77 -78 -94 -95 -110 -111 -125 -126 -139 -140 -152 -153 -188 0
-21 -40 -42 -59 -60 -77 -78 -94 -95 -110 -111 -125 -126 -139 -140 -152 -153 -188 0
-22 -40 -43 -59 -60 -77 -78 -94 -95 -110 -111 -125 -126 -139 -140 -152 -153 -188 0
-21 -41 -42 -59 -61 -77 -78 -94 -95 -110 -111 -125 -126 -139 -140 -152 -153 -188 0
-22 -41 -43 -59 -61 -77 -78 -94 -95 -110 -111 -125 -126 -139 -140 -152 -153 -188 0
-22 -42 -43 -59 -62 -77 -78 -94 -95 -110 -111 -125 -126 -139 -140 -152 -153 -188 0
-21 -41 -42 -60 -61 -77 -79 -94 -95 -110 -111 -125 -126 -139 -140 -152 -153 -188 0
-22 -41 -43 -60 -61 -77 -79 -94 -95 -110 -111 -125 -126 -139 -140 -152 -153 -188 0
-22 -42 -43 -60 -62 -77 -79 -94 -95 -110 -111 -125 -126 -139 -140 -152 -153 -188 0
-22 -42 -43 -61 -62 -77 -80 -94 -95 -110 -111 -125 -126 -139 -140 -152 -153 -188 0
-21 -41 -42 -60 -61 -78 -79 -94 -96 -110 -111 -125 -126 -139 -140 -152 -153 -188 0
-22 -41 -43 -60 -61 -78 -79 -94 -96 -110 -111 -125 -126 -139 -140 -152 -153 -188 0
-22 -42 -43 -60 -62 -78 -79 -94 -96 -110 -111 -125 -126 -139 -140 -152 -153 -188 0
-22 -42 -43 -61 -62 -78 -80 -94 -96 -110 -111 -125 -126 -139 -140 -152 -153 -188 0
-22 -42 -43 -61 -62 -79 -80 -94 -97 -110 -111 -125 -126 -139 -140 -152 -153 -188 0
-21 -41 -42 -60 -61 -78 -79 -95 -96 -110 -112 -125 -126 -139 -140 -152 -153 -188 0
-22 -41 -43 -60 -61 -78 -79 -95 -96 -110 -112 -125 -126 -139 -140 -152 -153 -188 0
-22 -42 -43 -60 -62 -78 -79 -95 -96 -110 -112 -125 -126 -139 -140 -152 -153 -188 0
-22 -42 -43 -61 -62 -78 -80 -95 -96 -110 -112 -125 -126 -139 -140 -152 -153 -188 0
-22 -42 -43 -61 -62 -79 -80 -95 -97 -110 -112 -125 -126 -139 -140 -152 -153 -188 0
-22 -42 -43 -61 -62 -79 -80 -96 -97 -110 -113 -125 -126 -139 -140 -152 -153 -188 0
-21 -41 -42 -60 -61 -78 -79 -95 -96 -111 -112 -125 -127 -139 -140 -152 -153 -188 0
-22 -41 -43 -60 -61 -78 -79 -95 -96 -111 -112 -125 -127 -139 -140 -152 -153 -188 0
-22 -42 -43 -60 -62 -78 -79 -95 -96 -111 -112 -125 -127 -139 -140 -152 -153 -188 0
-22 -42 -43 -61 -62 -78 -80 -95 -96 -111 -112 -125 -127 -139 -140 -152 -153 -188 0
-22 -42 -43 -61 -62 -79 -80 -95 -97 -111 -112 -125 -127 -139 -140 -152 -153 -188 0
-22 -42 -43 -61 -62 -79 -80 -96 -97 -111 -113 -125 -127 -139 -140 -152 -153 -188 0
-22 -42 -43 -61 -62 -79 -80 -96 -97 -112 -113 -125 -128 -139 -140 -152 -153 -188 0
-21 -41 -42 -60 -61 -78 -79 -95 -96 -111 -112 -126 -127 -139 -141 -152 -153 -188 0
-22 -41 -43 -60 -61 -78 -79 -95 -96 -111 -112 -126 -127 -139 -141 -152 -153 -188 0
-22 -42 -43 -60 -62 -78 -79 -95 -96 -111 -112 -126 -127 -139 -141 -152 -153 -188 0
-22 -42 -43 -61 -62 -78 -80 -95 -96 -111 -112 -126 -127 -139 -141 -152 -153 -188 0
-22 -42 -43 -61 -62 -79 -80 -95 -97 -111 -112 -126 -127 -139 -141 -152 -153 -188 0
-22 -42 -43 -61 -62 -79 -80 -96 -97 -111 -113 -126 -127 -139 -141 -152 -153 -188 0
-22 -42 -43 -61 -62 -79 -80 -96 -97 -112 -113 -126 -128 -139 -141 -152 -153 -188 0
-22 -42 -43 -61 -62 -79 -80 -96 -97 -112 -113 -127 -128 -139 -142 -152 -153 -188 0
-21 -41 -42 -60 -61 -78 -79 -95 -96 -111 -112 -126 -127 -140 -141 -152 -154 -188 0
-22 -41 -43 -60 -61 -78 -79 -95 -96 -111 -112 -126 -127 -140 -141 -152 -154 -188 0
-22 -42 -43 -60 -62 -78 -79 -95 -96 -111 -112 -126 -127 -140 -141 -152 -154 -188 0
-22 -42 -43 -61 -62 -78 -80 -95 -96 -111 -112 -126 -127 -140 -141 -152 -154 -188 0
-22 -42 -43 -61 -62 -79 -80 -95 -97 -111 -112 -126 -127 -140 -141 -152 -154 -188 0
-22 -42 -43 -61 -62 -79 -80 -96 -97 -111 -113 -126 -127 -140 -141 -152 -154 -188 0
-22 -42 -43 -61 -62 -79 -80 -96 -97 -112 -113 -126 -128 -140 -141 -152 -154 -188 0
-22 -42 -43 -61 -62 -79 -80 -96 -97 -112 -113 -127 -128 -140 -142 -152 -154 -188 0
-22 -42 -43 -61 -62 -79 -80 -96 -97 -112 -113 -127 -128 -141 -142 -152 -155 -188 0
-21 -41 -42 -60 -61 -78 -79 -95 -96 -111 -112 -126 -127 -140 -141 -153 -154 -189 0
-22 -41 -43 -60 -61 -78 -79 -95 -96 -111 -112 -126 -127 -140 -141 -153 -154 -189 0
-22 -42 -43 -60 -62 -78 -79 -95 -96 -111 -112 -126 -127 -140 -141 -153 -154 -189 0
-22 -42 -43 -61 -62 -78 -80 -95 -96 -111 -112 -126 -127 -140 -141 -153 -154 -189 0
-22 -42 -43 -61 -62 -79 -80 -95 -97 -111 -112 -126 -127 -140 -141 -153 -154 -189 0
-22 -42 -43 -61 -62 -79 -80 -96 -97 -111 -113 -126 -127 -140 -141 -153 -154 -189 0
-22 -42 -43 -61 -62 -79 -80 -96 -97 -112 -113 -126 -128 -140 -141 -153 -154 -189 0
-22 -42 -43 -61 -62 -79 -80 -96 -97 -112 -113 -127 -128 -140 -142 -153 -154 -189 0
-22 -42 -43 -61 -62 -79 -80 -96 -97 -112 -113 -127 -128 -141 -142 -153 -155 -189 0
-22 -42 -43 -61 -62 -79 -80 -96 -97 -112 -113 -127 -128 -141 -142 -154 -155 -190 0
-21 -41 -42 -60 -61 -78 -79 -95 -96 -111 -112 -126 -127 -140 -141 -153 -154 -199 0
-22 -41 -43 -60 -61 -78 -79 -95 -96 -111 -112 -126 -127 -140 -141 -153 -154 -199 0
-22 -42 -43 -60 -62 -78 -79 -95 -96 -111 -112 -126 -127 -140 -141 -153 -154 -199 0
-22 -42 -43 -61 -62 -78 -80 -95 -96 -111 -112 -126 -127 -140 -141 -153 -154 -199 0
-22 -42 -43 -61 -62 -79 -80 -95 -97 -111 -112 -126 -127 -140 -141 -153 -154 -199 0
-22 -42 -43 -61 -62 -79 -80 -96 -97 -111 -113 -126 -127 -140 -141 -153 -154 -199 0
-22 -42 -43 -61 -62 -79 -80 -96 -97 -112 -113 -126 -128 -140 -141 -153 -154 -199 0
-22 -42 -43 -61 -62 -79 -80 -96 -97 -112 -113 -127 -128 -140 -142 -153 -154 -199 0
-22 -42 -43 -61 -62 -79 -80 -96 -97 -112 -113 -127 -128 -141 -142 -153 -155 -199 0
-22 -42 -43 -61 -62 -79 -80 -96 -97 -112 -113 -127 -128 -141 -142 -154 -155 -200 0
-22 -42 -43 -61 -62 -79 -80 -96 -97 -112 -113 -127 -128 -141 -142 -154 -155 -209 0
-19 -39 -40 -58 -59 -76 -77 -93 -94 -109 -110 -124 -125 -138 -139 -164 -165 -176 0
-20 -39 -41 -58 -59 -76 -77 -93 -94 -109 -110 -124 -125 -138 -139 -164 -165 -176 0
-21 -39 -42 -58 -59 -76 -77 -93 -94 -109 -110 -124 -125 -138 -139 -164 -165 -176 0
-22 -39 -43 -58 -59 -76 -77 -93 -94 -109 -110 -124 -125 -138 -139 -164 -165 -176 0
-20 -40 -41 -58 -60 -76 -77 -93 -94 -109 -110 -124 -125 -138 -139 -164 -165 -176 0
-21 -40 -42 -58 -60 -76 -77 -93 -94 -109 -110 -124 -125 -138 -139 -164 -165 -176 0
-22 -40 -43 -58 -60 -76 -77 -93 -94 -109 -110 -124 -125 -138 -139 -164 -165 -176 0
-21 -41 -42 -58 -61 -76 -77 -93 -94 -109 -110 -124 -125 -138 -139 -164 -165 -176 0
-22 -41 -43 -58 -61 -76 -77 -93 -94 -109 -110 -124 -125 -138 -139 -164 -165 -176 0
-22 -42 -43 -58 -62 -76 -77 -93 -94 -109 -110 -124 -125 -138 -139 -164 -165 -176 0
-20 -40 -41 -59 -60 -76 -78 -93 -94 -109 -110 -124 -125 -138 -139 -164 -165 -176 0
-21 -40 -42 -59 -60 -76 -78 -93 -94 -109 -110 -124 -125 -138 -139 -164 -165 -176 0
-22 -40 -43 -59 -60 -76 -78 -93 -94 -109 -110 -124 -125 -138 -139 -164 -165 -176 0
-21 -41 -42 -59 -61 -76 -78 -93 -94 -109 -110 -124 -125 -138 -139 -164 -165 -176 0
-22 -41 -43 -59 -61 -76 -78 -93 -94 -109 -110 -124 -125 -138 -139 -164 -165 -176 0
-22 -42 -43 -59 -62 -76 -78 -93 -94 -109 -110 -124 -125 -138 -139 -164 -165 -176 0
-21 -41 -42 -60 -61 -76 -79 -93 -94 -109 -110 -124 -125 -138 -139 -164 -165 -176 0
-22 -41 -43 -60 -61 -76 -79 -93 -94 -109 -110 -124 -125 -138 -139 -164 -165 -176 0
-22 -42 -43 -60 -62 -76 -79 -93 -94 -109 -110 -124 -125 -138 -139 -164 -165 -176 0
-22 -42 -43 -61 -62 -76 -80 -93 -94 -109 -110 -124 -125 -138 -139 -164 -165 -176 0
-20 -40 -41 -59 -60 -77 -78 -93 -95 -109 -110 -124 -125 -138 -139 -164 -165 -176 0
-21 -40 -42 -59 -60 -77 -78 -93 -95 -109 -110 -124 -125 -138 -139 -164 -165 -176 0
-22 -40 -43 -59 -60 -77 -78 -93 -95 -109 -110 -124 -125 -138 -139 -164 -165 -176 0
-21 -41 -42 -59 -61 -77 -78 -93 -95 -109 -110 -124 -125 -138 -139 -164 -165 -176 0
-22 -41 -43 -59 -61 -77 -78 -93 -95 -109 -110 -124 -125 -138 -139 -164 -165 -176 0
-22 -42 -43 -59 -62 -77 -78 -93 -95 -109 -110 -124 -125 -138 -139 -164 -165 -176 0
-21 -41 -42 -60 -61 -77 -79 -93 -95 -109 -110 -124 -125 -138 -139 -164 -165 -176 0
-22 -41 -43 -60 -61 -77 -79 -93 -95 -109 -110 -124 -125 -138 -139 -164 -165 -176 0
-22 -42 -43 -60 -62 -77 -79 -93 -95 -109 -110 -124 -125 -138 -139 -164 -165 -176 0
-22 -42 -43 -61 -62 -77 -80 -93 -95 -109 -110 -124 -125 -138 -139 -164 -165 -176 0
-21 -41 -42 -60 -61 -78 -79 -93 -96 -109 -110 -124 -125 -138 -139 -164 -165 -176 0
-22 -41 -43 -60 -61 -78 -79 -93 -96 -109 -110 -124 -125 -138 -139 -164 -165 -176 0
-22 -42 -43 -60 -62 -78 -79 -93 -96 -109 -110 -124 -125 -138 -139 -164 -165 -176 0
-22 -42 -43 -61 -62 -78 -80 -93 -96 -109 -110 -124 -125 -138 -139 -164 -165 -176 0
-22 -42 -43 -61 -62 -79 -80 -93 -97 -109 -110 -124 -125 -138 -139 -164 -165 -176 0
-20 -40 -41 -59 -60 -77 -78 -94 -95 -109 -111 -124 -125 -138 -139 -164 -165 -176 0
-21 -40 -42 -59 -60 -77 -78 -94 -95 -109 -111 -124 -125 -138 -139 -164 -165 -176 0
-22 -40 -43 -59 -60 -77 -78 -94 -95 -109 -111 -124 -125 -138 -139 -164 -165 -176 0
-21 -41 -42 -59 -61 -77 -78 -94 -95 -109 -111 -124 -125 -138 -139 -164 -165 -176 0
-22 -41 -43 -59 -61 -77 -78 -94 -95 -109 -111 -124 -125 -138 -139 -164 -165 -176 0
-22 -42 -43 -59 -62 -77 -78 -94 -95 -109 -111 -124 -125 -138 -139 -164 -165 -176 0
-21 -41 -42 -60 -61 -77 -79 -94 -95 -109 -111 -124 -125 -138 -139 -164 -165 -176 0
-22 -41 -43 -60 -61 -77 -79 -94 -95 -109 -111 -124 -125 -138 -139 -164 -165 -176 0
-22 -42 -43 -60 -62 -77 -79 -94 -95 -109 -111 -124 -125 -138 -139 -164 -165 -176 0
-22 -42 -43 -61 -62 -77 -80 -94 -95 -109 -111 -124 -125 -138 -139 -164 -165 -176 0
-21 -41 -42 -60 -61 -78 -79 -94 -96 -109 -111 -124 -125 -138 -139 -164 -165 -176 0
-22 -41 -43 -60 -61 -78 -79 -94 -96 -109 -111 -124 -125 -138 -139 -164 -165 -176 0
-22 -42 -43 -60 -62 -78 -79 -94 -96 -109 -111 -124 -125 -138 -139 -164 -165 -176 0
-22 -42 -43 -61 -62 -78 -80 -94 -96 -109 -111 -124 -125 -138 -139 -164 -165 -176 0
-22 -42 -43 -61 -62 -79 -80 -94 -97 -109 -111 -124 -125 -138 -139 -164 -165 -176 0
-21 -41 -42 -60 -61 -78 -79 -95 -96 -109 -112 -124 -125 -138 -139 -164 -165 -176 0
-22 -41 -43 -60 -61 -78 -79 -95 -96 -109 -112 -124 -125 -138 -139 -164 -165 -176 0
-22 -42 -43 -60 -62 -78 -79 -95 -96 -109 -112 -124 -125 -138 -139 -164 -165 -176 0
-22 -42 -43 -61 -62 -78 -80 -95 -96 -109 -112 -124 -125 -138 -139 -164 -165 -176 0
-22 -42 -43 -61 -62 -79 -80 -95 -97 -109 -112 -124 -125 -138 -139 -164 -165 -176 0
-22 -42 -43 -61 -62 -79 -80 -96 -97 -109 -113 -124 -125 -138 -139 -164 -165 -176 0
-20 -40 -41 -59 -60 -77 -78 -94 -95 -110 -111 -124 -126 -138 -139 -164 -165 -176 0
-21 -40 -42 -59 -60 -77 -78 -94 -95 -110 -111 -124 -126 -138 -139 -164 -165 -176 0
-22 -40 -43 -59 -60 -77 -78 -94 -95 -110 -111 -124 -126 -138 -139 -164 -165 -176 0
-21 -41 -42 -59 -61 -77 -78 -94 -95 -110 -111 -124 -126 -138 -139 -164 -165 -176 0
-22 -41 -43 -59 -61 -77 -78 -94 -95 -110 -111 -124 -126 -138 -139 -164 -165 -176 0
-22 -42 -43 -59 -62 -77 -78 -94 -95 -110 -111 -124 -126 -138 -139 -164 -165 -176 0
-21 -41 -42 -60 -61 -77 -79 -94 -95 -110 -111 -124 -126 -138 -139 -164 -165 -176 0
-22 -41 -43 -60 -61 -77 -79 -94 -95 -110 -111 -124 -126 -138 -139 -164 -165 -176 0
-22 -42 -43 -60 -62 -77 -79 -94 -95 -110 -111 -124 -126 -138 -139 -164 -165 -176 0
-22 -42 -43 -61 -62 -77 -80 -94 -95 -110 -111 -124 -126 -138 -139 -164 -165 -176 0
-21 -41 -42 -60 -61 -78 -79 -94 -96 -110 -111 -124 -126 -138 -139 -164 -165 -176 0
-22 -41 -43 -60 -61 -78 -79 -94 -96 -110 -111 -124 -126 -138 -139 -164 -165 -176 0
-22 -42 -43 -60 -62 -78 -79 -94 -96 -110 -111 -124 -126 -138 -139 -164 -165 -176 0
-22 -42 -43 -61 -62 -78 -80 -94 -96 -110 -111 -124 -126 -138 -139 -164 -165 -176 0
-22 -42 -43 -61 -62 -79 -80 -94 -97 -110 -111 -124 -126 -138 -139 -164 -165 -176 0
-21 -41 -42 -60 -61 -78 -79 -95 -96 -110 -112 -124 -126 -138 -139 -164 -165 -176 0
-22 -41 -43 -60 -61 -78 -79 -95 -96 -110 -112 -124 -126 -138 -139 -164 -165 -176 0
-22 -42 -43 -60 -62 -78 -79 -95 -96 -110 -112 -124 -126 -138 -139 -164 -165 -176 0
-22 -42 -43 -61 -62 -78 -80 -95 -96 -110 -112 -124 -126 -138 -139 -164 -165 -176 0
-22 -42 -43 -61 -62 -79 -80 -95 -97 -110 -112 -124 -126 -138 -139 -164 -165 -176 0
-22 -42 -43 -61 -62 -79 -80 -96 -97 -110 -113 -124 -126 -138 -139 -164 -165 -176 0
-21 -41 -42 -60 -61 -78 -79 -95 -96 -111 -112 -124 -127 -138 -139 -164 -165 -176 0
-22 -41 -43 -60 -61 -78 -79 -95 -96 -111 -112 -124 -127 -138 -139 -164 -165 -176 0
-22 -42 -43 -60 -62 -78 -79 -95 -96 -111 -112 -124 -127 -138 -139 -164 -165 -176 0
-22 -42 -43 -61 -62 -78 -80 -95 -96 -111 -112 -124 -127 -138 -139 -164 -165 -176 0
-22 -42 -43 -61 -62 -79 -80 -95 -97 -111 -112 -124 -127 -138 -139 -164 -165 -176 0
-22 -42 -43 -61 -62 -79 -80 -96 -97 -111 -113 -124 -127 -138 -139 -164 -165 -176 0
-22 -42 -43 -61 -62 -79 -80 -96 -97 -112 -113 -124 -128 -138 -139 -164 -165 -176 0
-20 -40 -41 -59 -60 -77 -78 -94 -95 -110 -111 -125 -126 -138 -140 -164 -165 -176 0
-21 -40 -42 -59 -60 -77 -78 -94 -95 -110 -111 -125 -126 -138 -140 -164 -165 -176 0
-22 -40 -43 -59 -60 -77 -78 -94 -95 -110 -111 -125 -126 -138 -140 -164 -165 -176 0
-21 -41 -42 -59 -61 -77 -78 -94 -95 -110 -111 -125 -126 -138 -140 -164 -165 -176 0
-22 -41 -43 -59 -61 -77 -78 -94 -95 -110 -111 -125 -126 -138 -140 -164 -165 -176 0
-22 -42 -43 -59 -62 -77 -78 -94 -95 -110 -111 -125 -126 -138 -140 -164 -165 -176 0
-21 -41 -42 -60 -61 -77 -79 -94 -95 -110 -111 -125 -126 -138 -140 -164 -165 -176 0
-22 -41 -43 -60 -61 -77 -79 -94 -95 -110 -111 -125 -126 -138 -140 -164 -165 -176 0
-22 -42 -43 -60 -62 -77 -79 -94 -95 -110 -111 -125 -126 -138 -140 -164 -165 -176 0
-22 -42 -43 -61 -62 -77 -80 -94 -95 -110 -111 -125 -126 -138 -140 -164 -165 -176 0
-21 -41 -42 -60 -61 -78 -79 -94 -96 -110 -111 -125 -126 -138 -140 -164 -165 -176 0
-22 -41 -43 -60 -61 -78 -79 -94 -96 -110 -111 -125 -126 -138 -140 -164 -165 -176 0
-22 -42 -43 -60 -62 -78 -79 -94 -96 -110 -111 -125 -126 -138 -140 -164 -165 -176 0
-22 -42 -43 -61 -62 -78 -80 -94 -96 -110 -111 -125 -126 -138 -140 -164 -165 -176 0
-22 -42 -43 -61 -62 -79 -80 -94 -97 -110 -111 -125 -126 -138 -140 -164 -165 -176 0
-21 -41 -42 -60 -61 -78 -79 -95 -96 -110 -112 -125 -126 -138 -140 -164 -165 -176 0
-22 -41 -43 -60 -61 -78 -79 -95 -96 -110 -112 -125 -126 -138 -140 -164 -165 -176 0
-22 -42 -43 -60 -62 -78 -79 -95 -96 -110 -112 -125 -126 -138 -140 -164 -165 -176 0
-22 -42 -43 -61 -62 -78 -80 -95 -96 -110 -112 -125 -126 -138 -140 -164 -165 -176 0
-22 -42 -43 -61 -62 -79 -80 -95 -97 -110 -112 -125 -126 -138 -140 -164 -165 -176 0
-22 -42 -43 -61 -62 -79 -80 -96 -97 -110 -113 -125 -126 -138 -140 -164 -165 -176 0
-21 -41 -42 -60 -61 -78 -79 -95 -96 -111 -112 -125 -127 -138 -140 -164 -165 -176 0
-22 -41 -43 -60 -61 -78 -79 -95 -96 -111 -112 -125 -127 -138 -140 -164 -165 -176 0
-22 -42 -43 -60 -62 -78 -79 -95 -96 -111 -112 -125 -127 -138 -140 -164 -165 -176 0
-22 -42 -43 -61 -62 -78 -80 -95 -96 -111 -112 -125 -127 -138 -140 -164 -165 -176 0
-22 -42 -43 -61 -62 -79 -80 -95 -97 -111 -112 -125 -127 -138 -140 -164 -165 -176 0
-22 -42 -43 -61 -62 -79 -80 -96 -97 -111 -113 -125 -127 -138 -140 -164 -165 -176 0
-22 -42 -43 -61 -62 -79 -80 -96 -97 -112 -113 -125 -128 -138 -140 -164 -165 -176 0
-21 -41 -42 -60 -61 -78 -79 -95 -96 -111 -112 -126 -127 -138 -141 -164 -165 -176 0
-22 -41 -43 -60 -61 -78 -79 -95 -96 -111 -112 -126 -127 -138 -141 -164 -165 -176 0
-22 -42 -43 -60 -62 -78 -79 -95 -96 -111 -112 -126 -127 -138 -141 -164 -165 -176 0
-22 -42 -43 -61 -62 -78 -80 -95 -96 -111 -112 -126 -127 -138 -141 -164 -165 -176 0
-22 -42 -43 -61 -62 -79 -80 -95 -97 -111 -112 -126 -127 -138 -141 -164 -165 -176 0
-22 -42 -43 -61 -62 -79 -80 -96 -97 -111 -113 -126 -127 -138 -141 -164 -165 -176 0
-22 -42 -43 -61 -62 -79 -80 -96 -97 -112 -113 -126 -128 -138 -141 -164 -165 -176 0
-22 -42 -43 -61 -62 -79 -80 -96 -97 -112 -113 -127 -128 -138 -142 -164 -165 -176 0
-20 -40 -41 -59 -60 -77 -78 -94 -95 -110 -111 -125 -126 -139 -140 -164 -166 -176 0
-21 -40 -42 -59 -60 -77 -78 -94 -95 -110 -111 -125 -126 -139 -140 -164 -166 -176 0
-22 -40 -43 -59 -60 -77 -78 -94 -95 -110 -111 -125 -126 -139 -140 -164 -166 -176 0
-21 -41 -42 -59 -61 -77 -78 -94 -95 -110 -111 -125 -126 -139 -140 -164 -166 -176 0
-22 -41 -43 -59 -61 -77 -78 -94 -95 -110 -111 -125 -126 -139 -140 -164 -166 -176 0
-22 -42 -43 -59 -62 -77 -78 -94 -95 -110 -111 -125 -126 -139 -140 -164 -166 -176 0
-21 -41 -42 -60 -61 -77 -79 -94 -95 -110 -111 -125 -126 -139 -140 -164 -166 -176 0
-22 -41 -43 -60 -61 -77 -79 -94 -95 -110 -111 -125 -126 -139 -140 -164 -166 -176 0
-22 -42 -43 -60 -62 -77 -79 -94 -95 -110 -111 -125 -126 -139 -140 -164 -166 -176 0
-22 -42 -43 -61 -62 -77 -80 -94 -95 -110 -111 -125 -126 -139 -140 -164 -166 -176 0
-21 -41 -42 -60 -61 -78 -79 -94 -96 -110 -111 -125 -126 -139 -140 -164 -166 -176 0
-22 -41 -43 -60 -61 -78 -79 -94 -96 -110 -111 -125 -126 -139 -140 -164 -166 -176 0
-22 -42 -43 -60 -62 -78 -79 -94 -96 -110 -111 -125 -126 -139 -140 -164 -166 -176 0
-22 -42 -43 -61 -62 -78 -80 -94 -96 -110 -111 -125 -126 -139 -140 -164 -166 -176 0
-22 -42 -43 -61 -62 -79 -80 -94 -97 -110 -111 -125 -126 -139 -140 -164 -166 -176 0
-21 -41 -42 -60 -61 -78 -79 -95 -96 -110 -112 -125 -126 -139 -140 -164 -166 -176 0
-22 -41 -43 -60 -61 -78 -79 -95 -96 -110 -112 -125 -126 -139 -140 -164 -166 -176 0
-22 -42 -43 -60 -62 -78 -79 -95 -96 -110 -112 -125 -126 -139 -140 -164 -166 -176 0
-22 -42 -43 -61 -62 -78 -80 -95 -96 -110 -112 -125 -126 -139 -140 -164 -166 -176 0
-22 -42 -43 -61 -62 -79 -80 -95 -97 -110 -112 -125 -126 -139 -140 -164 -166 -176 0
-22 -42 -43 -61 -62 -79 -80 -96 -97 -110 -113 -125 -126 -139 -140 -164 -166 -176 0
-21 -41 -42 -60 -61 -78 -79 -95 -96 -111 -112 -125 -127 -139 -140 -164 -166 -176 0
-22 -41 -43 -60 -61 -78 -79 -95 -96 -111 -112 -125 -127 -139 -140 -164 -166 -176 0
-22 -42 -43 -60 -62 -78 -79 -95 -96 -111 -112 -125 -127 -139 -140 -164 -166 -176 0
-22 -42 -43 -61 -62 -78 -80 -95 -96 -111 -112 -125 -127 -139 -140 -164 -166 -176 0
-22 -42 -43 -61 -62 -79 -80 -95 -97 -111 -112 -125 -127 -139 -140 -164 -166 -176 0
-22 -42 -43 -61 -62 -79 -80 -96 -97 -111 -113 -125 -127 -139 -140 -164 -166 -176 0
-22 -42 -43 -61 -62 -79 -80 -96 -97 -112 -113 -125 -128 -139 -140 -164 -166 -176 0
-21 -41 -42 -60 -61 -78 -79 -95 -96 -111 -112 -126 -127 -139 -141 -164 -166 -176 0
-22 -41 -43 -60 -61 -78 -79 -95 -96 -111 -112 -126 -127 -139 -141 -164 -166 -176 0
-22 -42 -43 -60 -62 -78 -79 -95 -96 -111 -112 -126 -127 -139 -141 -164 -166 -176 0
-22 -42 -43 -61 -62 -78 -80 -95 -96 -111 -112 -126 -127 -139 -141 -164 -166 -176 0
-22 -42 -43 -61 -62 -79 -80 -95 -97 -111 -112 -126 -127 -139 -141 -164 -166 -176 0
-22 -42 -43 -61 -62 -79 -80 -96 -97 -111 -113 -126 -127 -139 -141 -164 -166 -176 0
-22 -42 -43 -61 -62 -79 -80 -96 -97 -112 -113 -126 -128 -139 -141 -164 -166 -176 0
-22 -42 -43 -61 -62 -79 -80 -96 -97 -112 -113 -127 -128 -139 -142 -164 -166 -176 0
-21 -41 -42 -60 -61 -78 -79 -95 -96 -111 -112 -126 -127 -140 -141 -164 -167 -176 0
-22 -41 -43 -60 -61 -78 -79 -95 -96 -111 -112 -126 -127 -140 -141 -164 -167 -176 0
-22 -42 -43 -60 -62 -78 -79 -95 -96 -111 -112 -126 -127 -140 -141 -164 -167 -176 0
-22 -42 -43 -61 -62 -78 -80 -95 -96 -111 -112 -126 -127 -140 -141 -164 -167 -176 0
-22 -42 -43 -61 -62 -79 -80 -95 -97 -111 -112 -126 -127 -140 -141 -164 -167 -176 0
-22 -42 -43 -61 -62 -79 -80 -96 -97 -111 -113 -126 -127 -140 -141 -164 -167 -176 0
-22 -42 -43 -61 -62 -79 -80 -96 -97 -112 -113 -126 -128 -140 -141 -164 -167 -176 0
-22 -42 -43 -61 -62 -79 -80 -96 -97 -112 -113 -127 -128 -140 -142 -164 -167 -176 0
-22 -42 -43 -61 -62 -79 -80 -96 -97 -112 -113 -127 -128 -141 -142 -164 -168 -176 0
-20 -40 -41 -59 -60 -77 -78 -94 -95 -110 -111 -125 -126 -139 -140 -165 -166 -177 0
-21 -40 -42 -59 -60 -77 -78 -94 -95 -110 -111 -125 -126 -139 -140 -165 -166 -177 0
-22 -40 -43 -59 -60 -77 -78 -94 -95 -110 -111 -125 -126 -139 -140 -165 -166 -177 0
-21 -41 -42 -59 -61 -77 -78 -94 -95 -110 -111 -125 -126 -139 -140 -165 -166 -177 0
-22 -41 -43 -59 -61 -77 -78 -94 -95 -110 -111 -125 -126 -139 -140 -165 -166 -177 0
-22 -42 -43 -59 -62 -77 -78 -94 -95 -110 -111 -125 -126 -139 -140 -165 -166 -177 0
-21 -41 -42 -60 -61 -77 -79 -94 -95 -110 -111 -125 -126 -139 -140 -165 -166 -177 0
-22 -41 -43 -60 -61 -77 -79 -94 -95 -110 -111 -125 -126 -139 -140 -165 -166 -177 0
-22 -42 -43 -60 -62 -77 -79 -94 -95 -110 -111 -125 -126 -139 -140 -165 -166 -177 0
-22 -42 -43 -61 -62 -77 -80 -94 -95 -110 -111 -125 -126 -139 -140 -165 -166 -177 0
-21 -41 -42 -60 -61 -78 -79 -94 -96 -110 -111 -125 -126 -139 -140 -165 -166 -177 0
-22 -41 -43 -60 -61 -78 -79 -94 -96 -110 -111 -125 -126 -139 -140 -165 -166 -177 0
-22 -42 -43 -60 -62 -78 -79 -94 -96 -110 -111 -125 -126 -139 -140 -165 -166 -177 0
-22 -42 -43 -61 -62 -78 -80 -94 -96 -110 -111 -125 -126 -139 -140 -165 -166 -177 0
-22 -42 -43 -61 -62 -79 -80 -94 -97 -110 -111 -125 -126 -139 -140 -165 -166 -177 0
-21 -41 -42 -60 -61 -78 -79 -95 -96 -110 -112 -125 -126 -139 -140 -165 -166 -177 0
-22 -41 -43 -60 -61 -78 -79 -95 -96 -110 -112 -125 -126 -139 -140 -165 -166 -177 0
-22 -42 -43 -60 -62 -78 -79 -95 -96 -110 -112 -125 -126 -139 -140 -165 -166 -177 0
-22 -42 -43 -61 -62 -78 -80 -95 -96 -110 -112 -125 -126 -139 -140 -165 -166 -177 0
-22 -42 -43 -61 -62 -79 -80 -95 -97 -110 -112 -125 -126 -139 -140 -165 -166 -177 0
-22 -42 -43 -61 -62 -79 -80 -96 -97 -110 -113 -125 -126 -139 -140 -165 -166 -177 0
-21 -41 -42 -60 -61 -78 -79 -95 -96 -111 -112 -125 -127 -139 -140 -165 -166 -177 0
-22 -41 -43 -60 -61 -78 -79 -95 -96 -111 -112 -125 -127 -139 -140 -165 -166 -177 0
-22 -42 -43 -60 -62 -78 -79 -95 -96 -111 -112 -125 -127 -139 -140 -165 -166 -177 0
-22 -42 -43 -61 -62 -78 -80 -95 -96 -111 -112 -125 -127 -139 -140 -165 -166 -177 0
-22 -42 -43 -61 -62 -79 -80 -95 -97 -111 -112 -125 -127 -139 -140 -165 -166 -177 0
-22 -42 -43 -61 -62 -79 -80 -96 -97 -111 -113 -125 -127 -139 -140 -165 -166 -177 0
-22 -42 -43 -61 -62 -79 -80 -96 -97 -112 -113 -125 -128 -139 -140 -165 -166 -177 0
-21 -41 -42 -60 -61 -78 -79 -95 -96 -111 -112 -126 -127 -139 -141 -165 -166 -177 0
-22 -41 -43 -60 -61 -78 -79 -95 -96 -111 -112 -126 -127 -139 -141 -165 -166 -177 0
-22 -42 -43 -60 -62 -78 -79 -95 -96 -111 -112 -126 -127 -139 -141 -165 -166 -177 0
-22 -42 -43 -61 -62 -78 -80 -95 -96 -111 -112 -126 -127 -139 -141 -165 -166 -177 0
-22 -42 -43 -61 -62 -79 -80 -95 -97 -111 -112 -126 -127 -139 -141 -165 -166 -177 0
-22 -42 -43 -61 -62 -79 -80 -96 -97 -111 -113 -126 -127 -139 -141 -165 -166 -177 0
-22 -42 -43 -61 -62 -79 -80 -96 -97 -112 -113 -126 -128 -139 -141 -165 -166 -177 0
-22 -42 -43 -61 -62 -79 -80 -96 -97 -112 -113 -127 -128 -139 -142 -165 -166 -177 0
-21 -41 -42 -60 -61 -78 -79 -95 -96 -111 -112 -126 -127 -140 -141 -165 -167 -177 0
-22 -41 -43 -60 -61 -78 -79 -95 -96 -111 -112 -126 -127 -140 -141 -165 -167 -177 0
-22 -42 -43 -60 -62 -78 -79 -95 -96 -111 -112 -126 -127 -140 -141 -165 -167 -177 0
-22 -42 -43 -61 -62 -78 -80 -95 -96 -111 -112 -126 -127 -140 -141 -165 -167 -177 0
-22 -42 -43 -61 -62 -79 -80 -95 -97 -111 -112 -126 -127 -140 -141 -165 -167 -177 0
-22 -42 -43 -61 -62 -79 -80 -96 -97 -111 -113 -126 -127 -140 -141 -165 -167 -177 0
-22 -42 -43 -61 -62 -79 -80 -96 -97 -112 -113 -126 -128 -140 -141 -165 -167 -177 0
-22 -42 -43 -61 -62 -79 -80 -96 -97 -112 -113 -127 -128 -140 -142 -165 -167 -177 0
-22 -42 -43 -61 -62 -79 -80 -96 -97 -112 -113 -127 -128 -141 -142 -165 -168 -177 0
-21 -41 -42 -60 -61 -78 -79 -95 -96 -111 -112 -126 -127 -140 -141 -166 -167 -178 0
-22 -41 -43 -60 -61 -78 -79 -95 -96 -111 -112 -126 -127 -140 -141 -166 -167 -178 0
-22 -42 -43 -60 -62 -78 -79 -95 -96 -111 -112 -126 -127 -140 -141 -166 -167 -178 0
-22 -42 -43 -61 -62 -78 -80 -95 -96 -111 -112 -126 -127 -140 -141 -166 -167 -178 0
-22 -42 -43 -61 -62 -79 -80 -95 -97 -111 -112 -126 -127 -140 -141 -166 -167 -178 0
-22 -42 -43 -61 -62 -79 -80 -96 -97 -111 -113 -126 -127 -140 -141 -166 -167 -178 0
-22 -42 -43 -61 -62 -79 -80 -96 -97 -112 -113 -126 -128 -140 -141 -166 -167 -178 0
-22 -42 -43 -61 -62 -79 -80 -96 -97 -112 -113 -127 -128 -140 -142 -166 -167 -178 0
-22 -42 -43 -61 -62 -79 -80 -96 -97 -112 -113 -127 -128 -141 -142 -166 -168 -178 0
-22 -42 -43 -61 -62 -79 -80 -96 -97 -112 -113 -127 -128 -141 -142 -167 -168 -179 0
-20 -40 -41 -59 -60 -77 -78 -94 -95 -110 -111 -125 -126 -139 -140 -165 -166 -188 0
-21 -40 -42 -59 -60 -77 -78 -94 -95 -110 -111 -125 -126 -139 -140 -165 -166 -188 0
-22 -40 -43 -59 -60 -77 -78 -94 -95 -110 -111 -125 -126 -139 -140 -165 -166 -188 0
-21 -41 -42 -59 -61 -77 -78 -94 -95 -110 -111 -125 -126 -139 -140 -165 -166 -188 0
-22 -41 -43 -59 -61 -77 -78 -94 -95 -110 -111 -125 -126 -139 -140 -165 -166 -188 0
-22 -42 -43 -59 -62 -77 -78 -94 -95 -110 -111 -125 -126 -139 -140 -165 -166 -188 0
-21 -41 -42 -60 -61 -77 -79 -94 -95 -110 -111 -125 -126 -139 -140 -165 -166 -188 0
-22 -41 -43 -60 -61 -77 -79 -94 -95 -110 -111 -125 -126 -139 -140 -165 -166 -188 0
-22 -42 -43 -60 -62 -77 -79 -94 -95 -110 -111 -125 -126 -139 -140 -165 -166 -188 0
-22 -42 -43 -61 -62 -77 -80 -94 -95 -110 -111 -125 -126 -139 -140 -165 -166 -188 0
-21 -41 -42 -60 -61 -78 -79 -94 -96 -110 -111 -125 -126 -139 -140 -165 -166 -188 0
-22 -41 -43 -60 -61 -78 -79 -94 -96 -110 -111 -125 -126 -139 -140 -165 -166 -188 0
-22 -42 -43 -60 -62 -78 -79 -94 -96 -110 -111 -125 -126 -139 -140 -165 -166 -188 0
-22 -42 -43 -61 -62 -78 -80 -94 -96 -110 -111 -125 -126 -139 -140 -165 -166 -188 0
-22 -42 -43 -61 -62 -79 -80 -94 -97 -110 -111 -125 -126 -139 -140 -165 -166 -188 0
-21 -41 -42 -60 -61 -78 -79 -95 -96 -110 -112 -125 -126 -139 -140 -165 -166 -188 0
-22 -41 -43 -60 -61 -78 -79 -95 -96 -110 -112 -125 -126 -139 -140 -165 -166 -188 0
-22 -42 -43 -60 -62 -78 -79 -95 -96 -110 -112 -125 -126 -139 -140 -165 -166 -188 0
-22 -42 -43 -61 -62 -78 -80 -95 -96 -110 -112 -125 -126 -139 -140 -165 -166 -188 0
-22 -42 -43 -61 -62 -79 -80 -95 -97 -110 -112 -125 -126 -139 -140 -165 -166 -188 0
-22 -42 -43 -61 -62 -79 -80 -96 -97 -110 -113 -125 -126 -139 -140 -165 -166 -188 0
-21 -41 -42 -60 -61 -78 -79 -95 -96 -111 -112 -125 -127 -139 -140 -165 -166 -188 0
-22 -41 -43 -60 -61 -78 -79 -95 -96 -111 -112 -125 -127 -139 -140 -165 -166 -188 0
-22 -42 -43 -60 -62 -78 -79 -95 -96 -111 -112 -125 -127 -139 -140 -165 -166 -188 0
-22 -42 -43 -61 -62 -78 -80 -95 -96 -111 -112 -125 -127 -139 -140 -165 -166 -188 0
-22 -42 -43 -61 -62 -79 -80 -95 -97 -111 -112 -125 -127 -139 -140 -165 -166 -188 0
-22 -42 -43 -61 -62 -79 -80 -96 -97 -111 -113 -125 -127 -139 -140 -165 -166 -188 0
-22 -42 -43 -61 -62 -79 -80 -96 -97 -112 -113 -125 -128 -139 -140 -165 -166 -188 0
-21 -41 -42 -60 -61 -78 -79 -95 -96 -111 -112 -126 -127 -139 -141 -165 -166 -188 0
-22 -41 -43 -60 -61 -78 -79 -95 -96 -111 -112 -126 -127 -139 -141 -165 -166 -188 0
-22 -42 -43 -60 -62 -78 -79 -95 -96 -111 -112 -126 -127 -139 -141 -165 -166 -188 0
-22 -42 -43 -61 -62 -78 -80 -95 -96 -111 -112 -126 -127 -139 -141 -165 -166 -188 0
-22 -42 -43 -61 -62 -79 -80 -95 -97 -111 -112 -126 -127 -139 -141 -165 -166 -188 0
-22 -42 -43 -61 -62 -79 -80 -96 -97 -111 -113 -126 -127 -139 -141 -165 -166 -188 0
-22 -42 -43 -61 -62 -79 -80 -96 -97 -112 -113 -126 -128 -139 -141 -165 -166 -188 0
-22 -42 -43 -61 -62 -79 -80 -96 -97 -112 -113 -127 -128 -139 -142 -165 -166 -188 0
-21 -41 -42 -60 -61 -78 -79 -95 -96 -111 -112 -126 -127 -140 -141 -165 -167 -188 0
-22 -41 -43 -60 -61 -78 -79 -95 -96 -111 -112 -126 -127 -140 -141 -165 -167 -188 0
-22 -42 -43 -60 -62 -78 -79 -95 -96 -111 -112 -126 -127 -140 -141 -165 -167 -188 0
-22 -42 -43 -61 -62 -78 -80 -95 -96 -111 -112 -126 -127 -140 -141 -165 -167 -188 0
-22 -42 -43 -61 -62 -79 -80 -95 -97 -111 -112 -126 -127 -140 -141 -165 -167 -188 0
-22 -42 -43 -61 -62 -79 -80 -96 -97 -111 -113 -126 -127 -140 -141 -165 -167 -188 0
-22 -42 -43 -61 -62 -79 -80 -96 -97 -112 -113 -126 -128 -140 -141 -165 -167 -188 0
-22 -42 -43 -61 -62 -79 -80 -96 -97 -112 -113 -127 -128 -140 -142 -165 -167 -188 0
-22 -42 -43 -61 -62 -79 -80 -96 -97 -112 -113 -127 -128 -141 -142 -165 -168 -188 0
-21 -41 -42 -60 -61 -78 -79 -95 -96 -111 -112 -126 -127 -140 -141 -166 -167 -189 0
-22 -41 -43 -60 -61 -78 -79 -95 -96 -111 -112 -126 -127 -140 -141 -166 -167 -189 0
-22 -42 -43 -60 -62 -78 -79 -95 -96 -111 -112 -126 -127 -140 -141 -166 -167 -189 0
-22 -42 -43 -61 -62 -78 -80 -95 -96 -111 -112 -126 -127 -140 -141 -166 -167 -189 0
-22 -42 -43 -61 -62 -79 -80 -95 -97 -111 -112 -126 -127 -140 -141 -166 -167 -189 0
-22 -42 -43 -61 -62 -79 -80 -96 -97 -111 -113 -126 -127 -140 -141 -166 -167 -189 0
-22 -42 -43 -61 -62 -79 -80 -96 -97 -112 -113 -126 -128 -140 -141 -166 -167 -189 0
-22 -42 -43 -61 -62 -79 -80 -96 -97 -112 -113 -127 -128 -140 -142 -166 -167 -189 0
-22 -42 -43 -61 -62 -79 -80 -96 -97 -112 -113 -127 -128 -141 -142 -166 -168 -189 0
-22 -42 -43 -61 -62 -79 -80 -96 -97 -112 -113 -127 -128 -141 -142 -167 -168 -190 0
-21 -41 -42 -60 -61 -78 -79 -95 -96 -111 -112 -126 -127 -140 -141 -166 -167 -199 0
-22 -41 -43 -60 -61 -78 -79 -95 -96 -111 -112 -126 -127 -140 -141 -166 -167 -199 0
-22 -42 -43 -60 -62 -78 -79 -95 -96 -111 -112 -126 -127 -140 -141 -166 -167 -199 0
-22 -42 -43 -61 -62 -78 -80 -95 -96 -111 -112 -126 -127 -140 -141 -166 -167 -199 0
-22 -42 -43 -61 -62 -79 -80 -95 -97 -111 -112 -126 -127 -140 -141 -166 -167 -199 0
-22 -42 -43 -61 -62 -79 -80 -96 -97 -111 -113 -126 -127 -140 -141 -166 -167 -199 0
-22 -42 -43 -61 -62 -79 -80 -96 -97 -112 -113 -126 -128 -140 -141 -166 -167 -199 0
-22 -42 -43 -61 -62 -79 -80 -96 -97 -112 -113 -127 -128 -140 -142 -166 -167 -199 0
-22 -42 -43 -61 -62 -79 -80 -96 -97 -112 -113 -127 -128 -141 -142 -166 -168 -199 0
-22 -42 -43 -61 -62 -79 -80 -96 -97 -112 -113 -127 -128 -141 -142 -167 -168 -200 0
-22 -42 -43 -61 -62 -79 -80 -96 -97 -112 -113 -127 -128 -141 -142 -167 -168 -209 0
-20 -40 -41 -59 -60 -77 -78 -94 -95 -110 -111 -125 -126 -139 -140 -177 -178 -188 0
-21 -40 -42 -59 -60 -77 -78 -94 -95 -110 -111 -125 -126 -139 -140 -177 -178 -188 0
-22 -40 -43 -59 -60 -77 -78 -94 -95 -110 -111 -125 -126 -139 -140 -177 -178 -188 0
-21 -41 -42 -59 -61 -77 -78 -94 -95 -110 -111 -125 -126 -139 -140 -177 -178 -188 0
-22 -41 -43 -59 -61 -77 -78 -94 -95 -110 -111 -125 -126 -139 -140 -177 -178 -188 0
-22 -42 -43 -59 -62 -77 -78 -94 -95 -110 -111 -125 -126 -139 -140 -177 -178 -188 0
-21 -41 -42 -60 -61 -77 -79 -94 -95 -110 -111 -125 -126 -139 -140 -177 -178 -188 0
-22 -41 -43 -60 -61 -77 -79 -94 -95 -110 -111 -125 -126 -139 -140 -177 -178 -188 0
-22 -42 -43 -60 -62 -77 -79 -94 -95 -110 -111 -125 -126 -139 -140 -177 -178 -188 0
-22 -42 -43 -61 -62 -77 -80 -94 -95 -110 -111 -125 -126 -139 -140 -177 -178 -188 0
-21 -41 -42 -60 -61 -78 -79 -94 -96 -110 -111 -125 -126 -139 -140 -177 -178 -188 0
-22 -41 -43 -60 -61 -78 -79 -94 -96 -110 -111 -125 -126 -139 -140 -177 -178 -188 0
-22 -42 -43 -60 -62 -78 -79 -94 -96 -110 -111 -125 -126 -139 -140 -177 -178 -188 0
-22 -42 -43 -61 -62 -78 -80 -94 -96 -110 -111 -125 -126 -139 -140 -177 -178 -188 0
-22 -42 -43 -61 -62 -79 -80 -94 -97 -110 -111 -125 -126 -139 -140 -177 -178 -188 0
-21 -41 -42 -60 -61 -78 -79 -95 -96 -110 -112 -125 -126 -139 -140 -177 -178 -188 0
-22 -41 -43 -60 -61 -78 -79 -95 -96 -110 -112 -125 -126 -139 -140 -177 -178 -188 0
-22 -42 -43 -60 -62 -78 -79 -95 -96 -110 -112 -125 -126 -139 -140 -177 -178 -188 0
-22 -42 -43 -61 -62 -78 -80 -95 -96 -110 -112 -125 -126 -139 -140 -177 -178 -188 0
-22 -42 -43 -61 -62 -79 -80 -95 -97 -110 -112 -125 -126 -139 -140 -177 -178 -188 0
-22 -42 -43 -61 -62 -79 -80 -96 -97 -110 -113 -125 -126 -139 -140 -177 -178 -188 0
-21 -41 -42 -60 -61 -78 -79 -95 -96 -111 -112 -125 -127 -139 -140 -177 -178 -188 0
-22 -41 -43 -60 -61 -78 -79 -95 -96 -111 -112 -125 -127 -139 -140 -177 -178 -188 0
-22 -42 -43 -60 -62 -78 -79 -95 -96 -111 -112 -125 -127 -139 -140 -177 -178 -188 0
-22 -42 -43 -61 -62 -78 -80 -95 -96 -111 -112 -125 -127 -139 -140 -177 -178 -188 0
-22 -42 -43 -61 -62 -79 -80 -95 -97 -111 -112 -125 -127 -139 -140 -177 -178 -188 0
-22 -42 -43 -61 -62 -79 -80 -96 -97 -111 -113 -125 -127 -139 -140 -177 -178 -188 0
-22 -42 -43 -61 -62 -79 -80 -96 -97 -112 -113 -125 -128 -139 -140 -177 -178 -188 0
-21 -41 -42 -60 -61 -78 -79 -95 -96 -111 -112 -126 -127 -139 -141 -177 -178 -188 0
-22 -41 -43 -60 -61 -78 -79 -95 -96 -111 -112 -126 -127 -139 -141 -177 -178 -188 0
-22 -42 -43 -60 -62 -78 -79 -95 -96 -111 -112 -126 -127 -139 -141 -177 -178 -188 0
-22 -42 -43 -61 -62 -78 -80 -95 -96 -111 -112 -126 -127 -139 -141 -177 -178 -188 0
-22 -42 -43 -61 -62 -79 -80 -95 -97 -111 -112 -126 -127 -139 -141 -177 -178 -188 0
-22 -42 -43 -61 -62 -79 -80 -96 -97 -111 -113 -126 -127 -139 -141 -177 -178 -188 0
-22 -42 -43 -61 -62 -79 -80 -96 -97 -112 -113 -126 -128 -139 -141 -177 -178 -188 0
-22 -42 -43 -61 -62 -79 -80 -96 -97 -112 -113 -127 -128 -139 -142 -177 -178 -188 0
-21 -41 -42 -60 -61 -78 -79 -95 -96 -111 -112 -126 -127 -140 -141 -177 -179 -188 0
-22 -41 -43 -60 -61 -78 -79 -95 -96 -111 -112 -126 -127 -140 -141 -177 -179 -188 0
-22 -42 -43 -60 -62 -78 -79 -95 -96 -111 -112 -126 -127 -140 -141 -177 -179 -188 0
-22 -42 -43 -61 -62 -78 -80 -95 -96 -111 -112 -126 -127 -140 -141 -177 -179 -188 0
-22 -42 -43 -61 -62 -79 -80 -95 -97 -111 -112 -126 -127 -140 -141 -177 -179 -188 0
-22 -42 -43 -61 -62 -79 -80 -96 -97 -111 -113 -126 -127 -140 -141 -177 -179 -188 0
-22 -42 -43 -61 -62 -79 -80 -96 -97 -112 -113 -126 -128 -140 -141 -177 -179 -188 0
-22 -42 -43 -61 -62 -79 -80 -96 -97 -112 -113 -127 -128 -140 -142 -177 -179 -188 0
-22 -42 -43 -61 -62 -79 -80 -96 -97 -112 -113 -127 -128 -141 -142 -177 -180 -188 0
-21 -41 -42 -60 -61 -78 -79 -95 -96 -111 -112 -126 -127 -140 -141 -178 -179 -189 0
-22 -41 -43 -60 -61 -78 -79 -95 -96 -111 -112 -126 -127 -140 -141 -178 -179 -189 0
-22 -42 -43 -60 -62 -78 -79 -95 -96 -111 -112 -126 -127 -140 -141 -178 -179 -189 0
-22 -42 -43 -61 -62 -78 -80 -95 -96 -111 -112 -126 -127 -140 -141 -178 -179 -189 0
-22 -42 -43 -61 -62 -79 -80 -95 -97 -111 -112 -126 -127 -140 -141 -178 -179 -189 0
-22 -42 -43 -61 -62 -79 -80 -96 -97 -111 -113 -126 -127 -140 -141 -178 -179 -189 0
-22 -42 -43 -61 -62 -79 -80 -96 -97 -112 -113 -126 -128 -140 -141 -178 -179 -189 0
-22 -42 -43 -61 -62 -79 -80 -96 -97 -112 -113 -127 -128 -140 -142 -178 -179 -189 0
-22 -42 -43 -61 -62 -79 -80 -96 -97 -112 -113 -127 -128 -141 -142 -178 -180 -189 0
-22 -42 -43 -61 -62 -79 -80 -96 -97 -112 -113 -127 -128 -141 -142 -179 -180 -190 0
-21 -41 -42 -60 -61 -78 -79 -95 -96 -111 -112 -126 -127 -140 -141 -178 -179 -199 0
-22 -41 -43 -60 -61 -78 -79 -95 -96 -111 -112 -126 -127 -140 -141 -178 -179 -199 0
-22 -42 -43 -60 -62 -78 -79 -95 -96 -111 -112 -126 -127 -140 -141 -178 -179 -199 0
-22 -42 -43 -61 -62 -78 -80 -95 -96 -111 -112 -126 -127 -140 -141 -178 -179 -199 0
-22 -42 -43 -61 -62 -79 -80 -95 -97 -111 -112 -126 -127 -140 -141 -178 -179 -199 0
-22 -42 -43 -61 -62 -79 -80 -96 -97 -111 -113 -126 -127 -140 -141 -178 -179 -199 0
-22 -42 -43 -61 -62 -79 -80 -96 -97 -112 -113 -126 -128 -140 -141 -178 -179 -199 0
-22 -42 -43 -61 -62 -79 -80 -96 -97 -112 -113 -127 -128 -140 -142 -178 -179 -199 0
-22 -42 -43 -61 -62 -79 -80 -96 -97 -112 -113 -127 -128 -141 -142 -178 -180 -199 0
-22 -42 -43 -61 -62 -79 -80 -96 -97 -112 -113 -127 -128 -141 -142 -179 -180 -200 0
-22 -42 -43 -61 -62 -79 -80 -96 -97 -112 -113 -127 -128 -141 -142 -179 -180 -209 0
-21 -41 -42 -60 -61 -78 -79 -95 -96 -111 -112 -126 -127 -140 -141 -189 -190 -199 0
-22 -41 -43 -60 -61 -78 -79 -95 -96 -111 -112 -126 -127 -140 -141 -189 -190 -199 0
-22 -42 -43 -60 -62 -78 -79 -95 -96 -111 -112 -126 -127 -140 -141 -189 -190 -199 0
-22 -42 -43 -61 -62 -78 -80 -95 -96 -111 -112 -126 -127 -140 -141 -189 -190 -199 0
-22 -42 -43 -61 -62 -79 -80 -95 -97 -111 -112 -126 -127 -140 -141 -189 -190 -199 0
-22 -42 -43 -61 -62 -79 -80 -96 -97 -111 -113 -126 -127 -140 -141 -189 -190 -199 0
-22 -42 -43 -61 -62 -79 -80 -96 -97 -112 -113 -126 -128 -140 -141 -189 -190 -199 0
-22 -42 -43 -61 -62 -79 -80 -96 -97 -112 -113 -127 -128 -140 -142 -189 -190 -199 0
-22 -42 -43 -61 -62 -79 -80 -96 -97 -112 -113 -127 -128 -141 -142 -189 -191 -199 0
-22 -42 -43 -61 -62 -79 -80 -96 -97 -112 -113 -127 -128 -141 -142 -190 -191 -200 0
-22 -42 -43 -61 -62 -79 -80 -96 -97 -112 -113 -127 -128 -141 -142 -190 -191 -209 0
-22 -42 -43 -61 -62 -79 -80 -96 -97 -112 -113 -127 -128 -141 -142 -200 -201 -209 0
-19 -39 -40 -58 -59 -76 -77 -93 -94 -109 -110 -124 -125 -152 -153 -164 -165 -176 0
-20 -39 -41 -58 -59 -76 -77 -93 -94 -109 -110 -124 -125 -152 -153 -164 -165 -176 0
-21 -39 -42 -58 -59 -76 -77 -93 -94 -109 -110 -124 -125 -152 -153 -164 -165 -176 0
-22 -39 -43 -58 -59 -76 -77 -93 -94 -109 -110 -124 -125 -152 -153 -164 -165 -176 0
-20 -40 -41 -58 -60 -76 -77 -93 -94 -109 -110 -124 -125 -152 -153 -164 -165 -176 0
-21 -40 -42 -58 -60 -76 -77 -93 -94 -109 -110 -124 -125 -152 -153 -164 -165 -176 0
-22 -40 -43 -58 -60 -76 -77 -93 -94 -109 -110 -124 -125 -152 -153 -164 -165 -176 0
-21 -41 -42 -58 -61 -76 -77 -93 -94 -109 -110 -124 -125 -152 -153 -164 -165 -176 0
-22 -41 -43 -58 -61 -76 -77 -93 -94 -109 -110 -124 -125 -152 -153 -164 -165 -176 0
-22 -42 -43 -58 -62 -76 -77 -93 -94 -109 -110 -124 -125 -152 -153 -164 -165 -176 0
-20 -40 -41 -59 -60 -76 -78 -93 -94 -109 -110 -124 -125 -152 -153 -164 -165 -176 0
-21 -40 -42 -59 -60 -76 -78 -93 -94 -109 -110 -124 -125 -152 -153 -164 -165 -176 0
-22 -40 -43 -59 -60 -76 -78 -93 -94 -109 -110 -124 -125 -152 -153 -164 -165 -176 0
-21 -41 -42 -59 -61 -76 -78 -93 -94 -109 -110 -124 -125 -152 -153 -164 -165 -176 0
-22 -41 -43 -59 -61 -76 -78 -93 -94 -109 -110 -124 -125 -152 -153 -164 -165 -176 0
-22 -42 -43 -59 -62 -76 -78 -93 -94 -109 -110 -124 -125 -152 -153 -164 -165 -176 0
-21 -41 -42 -60 -61 -76 -79 -93 -94 -109 -110 -124 -125 -152 -153 -164 -165 -176 0
-22 -41 -43 -60 -61 -76 -79 -93 -94 -109 -110 -124 -125 -152 -153 -164 -165 -176 0
-22 -42 -43 -60 -62 -76 -79 -93 -94 -109 -110 -124 -125 -152 -153 -164 -165 -176 0
-22 -42 -43 -61 -62 -76 -80 -93 -94 -109 -110 -124 -125 -152 -153 -164 -165 -176 0
-20 -40 -41 -59 -60 -77 -78 -93 -95 -109 -110 -124 -125 -152 -153 -164 -165 -176 0
-21 -40 -42 -59 -60 -77 -78 -93 -95 -109 -110 -124 -125 -152 -153 -164 -165 -176 0
-22 -40 -43 -59 -60 -77 -78 -93 -95 -109 -110 -124 -125 -152 -153 -164 -165 -176 0
-21 -41 -42 -59 -61 -77 -78 -93 -95 -109 -110 -124 -125 -152 -153 -164 -165 -176 0
-22 -41 -43 -59 -61 -77 -78 -93 -95 -109 -110 -124 -125 -152 -153 -164 -165 -176 0
-22 -42 -43 -59 -62 -77 -78 -93 -95 -109 -110 -124 -125 -152 -153 -164 -165 -176 0
-21 -41 -42 -60 -61 -77 -79 -93 -95 -109 -110 -124 -125 -152 -153 -164 -165 -176 0
-22 -41 -43 -60 -61 -77 -79 -93 -95 -109 -110 -124 -125 -152 -153 -164 -165 -176 0
-22 -42 -43 -60 -62 -77 -79 -93 -95 -109 -110 -124 -125 -152 -153 -164 -165 -176 0
-22 -42 -43 -61 -62 -77 -80 -93 -95 -109 -110 -124 -125 -152 -153 -164 -165 -176 0
-21 -41 -42 -60 -61 -78 -79 -93 -96 -109 -110 -124 -125 -152 -153 -164 -165 -176 0
-22 -41 -43 -60 -61 -78 -79 -93 -96 -109 -110 -124 -125 -152 -153 -164 -165 -176 0
-22 -42 -43 -60 -62 -78 -79 -93 -96 -109 -110 -124 -125 -152 -153 -164 -165 -176 0
-22 -42 -43 -61 -62 -78 -80 -93 -96 -109 -110 -124 -125 -152 -153 -164 -165 -176 0
-22 -42 -43 -61 -62 -79 -80 -93 -97 -109 -110 -124 -125 -152 -153 -164 -165 -176 0
-20 -40 -41 -59 -60 -77 -78 -94 -95 -109 -111 -124 -125 -152 -153 -164 -165 -176 0
-21 -40 -42 -59 -60 -77 -78 -94 -95 -109 -111 -124 -125 -152 -153 -164 -165 -176 0
-22 -40 -43 -59 -60 -77 -78 -94 -95 -109 -111 -124 -125 -152 -153 -164 -165 -176 0
-21 -41 -42 -59 -61 -77 -78 -94 -95 -109 -111 -124 -125 -152 -153 -164 -165 -176 0
-22 -41 -43 -59 -61 -77 -78 -94 -95 -109 -111 -124 -125 -152 -153 -164 -165 -176 0
-22 -42 -43 -59 -62 -77 -78 -94 -95 -109 -111 -124 -125 -152 -153 -164 -165 -176 0
-21 -41 -42 -60 -61 -77 -79 -94 -95 -109 -111 -124 -125 -152 -153 -164 -165 -176 0
-22 -41 -43 -60 -61 -77 -79 -94 -95 -109 -111 -124 -125 -152 -153 -164 -165 -176 0
-22 -42 -43 -60 -62 -77 -79 -94 -95 -109 -111 -124 -125 -152 -153 -164 -165 -176 0
-22 -42 -43 -61 -62 -77 -80 -94 -95 -109 -111 -124 -125 -152 -153 -164 -165 -176 0
-21 -41 -42 -60 -61 -78 -79 -94 -96 -109 -111 -124 -125 -152 -153 -164 -165 -176 0
-22 -41 -43 -60 -61 -78 -79 -94 -96 -109 -111 -124 -125 -152 -153 -164 -165 -176 0
-22 -42 -43 -60 -62 -78 -79 -94 -96 -109 -111 -124 -125 -152 -153 -164 -165 -176 0
-22 -42 -43 -61 -62 -78 -80 -94 -96 -109 -111 -124 -125 -152 -153 -164 -165 -176 0
-22 -42 -43 -61 -62 -79 -80 -94 -97 -109 -111 -124 -125 -152 -153 -164 -165 -176 0
-21 -41 -42 -60 -61 -78 -79 -95 -96 -109 -112 -124 -125 -152 -153 -164 -165 -176 0
-22 -41 -43 -60 -61 -78 -79 -95 -96 -109 -112 -124 -125 -152 -153 -164 -165 -176 0
-22 -42 -43 -60 -62 -78 -79 -95 -96 -109 -112 -124 -125 -152 -153 -164 -165 -176 0
-22 -42 -43 -61 -62 -78 -80 -95 -96 -109 -112 -124 -125 -152 -153 -164 -165 -176 0
-22 -42 -43 -61 -62 -79 -80 -95 -97 -109 -112 -124 -125 -152 -153 -164 -165 -176 0
-22 -42 -43 -61 -62 -79 -80 -96 -97 -109 -113 -124 -125 -152 -153 -164 -165 -176 0
-20 -40 -41 -59 -60 -77 -78 -94 -95 -110 -111 -124 -126 -152 -153 -164 -165 -176 0
-21 -40 -42 -59 -60 -77 -78 -94 -95 -110 -111 -124 -126 -152 -153 -164 -165 -176 0
-22 -40 -43 -59 -60 -77 -78 -94 -95 -110 -111 -124 -126 -152 -153 -164 -165 -176 0
-21 -41 -42 -59 -61 -77 -78 -94 -95 -110 -111 -124 -126 -152 -153 -164 -165 -176 0
-22 -41 -43 -59 -61 -77 -78 -94 -95 -110 -111 -124 -126 -152 -153 -164 -165 -176 0
-22 -42 -43 -59 -62 -77 -78 -94 -95 -110 -111 -124 -126 -152 -153 -164 -165 -176 0
-21 -41 -42 -60 -61 -77 -79 -94 -95 -110 -111 -124 -126 -152 -153 -164 -165 -176 0
-22 -41 -43 -60 -61 -77 -79 -94 -95 -110 -111 -124 -126 -152 -153 -164 -165 -176 0
-22 -42 -43 -60 -62 -77 -79 -94 -95 -110 -111 -124 -126 -152 -153 -164 -165 -176 0
-22 -42 -43 -61 -62 -77 -80 -94 -95 -110 -111 -124 -126 -152 -153 -164 -165 -176 0
-21 -41 -42 -60 -61 -78 -79 -94 -96 -110 -111 -124 -126 -152 -153 -164 -165 -176 0
-22 -41 -43 -60 -61 -78 -79 -94 -96 -110 -111 -124 -126 -152 -153 -164 -165 -176 0
-22 -42 -43 -60 -62 -78 -79 -94 -96 -110 -111 -124 -126 -152 -153 -164 -165 -176 0
-22 -42 -43 -61 -62 -78 -80 -94 -96 -110 -111 -124 -126 -152 -153 -164 -165 -176 0
-22 -42 -43 -61 -62 -79 -80 -94 -97 -110 -111 -124 -126 -152 -153 -164 -165 -176 0
-21 -41 -42 -60 -61 -78 -79 -95 -96 -110 -112 -124 -126 -152 -153 -164 -165 -176 0
-22 -41 -43 -60 -61 -78 -79 -95 -96 -110 -112 -124 -126 -152 -153 -164 -165 -176 0
-22 -42 -43 -60 -62 -78 -79 -95 -96 -110 -112 -124 -126 -152 -153 -164 -165 -176 0
-22 -42 -43 -61 -62 -78 -80 -95 -96 -110 -112 -124 -126 -152 -153 -164 -165 -176 0
-22 -42 -43 -61 -62 -79 -80 -95 -97 -110 -112 -124 -126 -152 -153 -164 -165 -176 0
-22 -42 -43 -61 -62 -79 -80 -96 -97 -110 -113 -124 -126 -152 -153 -164 -165 -176 0
-21 -41 -42 -60 -61 -78 -79 -95 -96 -111 -112 -124 -127 -152 -153 -164 -165 -176 0
-22 -41 -43 -60 -61 -78 -79 -95 -96 -111 -112 -124 -127 -152 -153 -164 -165 -176 0
-22 -42 -43 -60 -62 -78 -79 -95 -96 -111 -112 -124 -127 -152 -153 -164 -165 -176 0
-22 -42 -43 -61 -62 -78 -80 -95 -96 -111 -112 -124 -127 -152 -153 -164 -165 -176 0
-22 -42 -43 -61 -62 -79 -80 -95 -97 -111 -112 -124 -127 -152 -153 -164 -165 -176 0
-22 -42 -43 -61 -62 -79 -80 -96 -97 -111 -113 -124 -127 -152 -153 -164 -165 -176 0
-22 -42 -43 -61 -62 -79 -80 -96 -97 -112 -113 -124 -128 -152 -153 -164 -165 -176 0
-20 -40 -41 -59 -60 -77 -78 -94 -95 -110 -111 -125 -126 -152 -154 -164 -165 -176 0
-21 -40 -42 -59 -60 -77 -78 -94 -95 -110 -111 -125 -126 -152 -154 -164 -165 -176 0
-22 -40 -43 -59 -60 -77 -78 -94 -95 -110 -111 -125 -126 -152 -154 -164 -165 -176 0
-21 -41 -42 -59 -61 -77 -78 -94 -95 -110 -111 -125 -126 -152 -154 -164 -165 -176 0
-22 -41 -43 -59 -61 -77 -78 -94 -95 -110 -111 -125 -126 -152 -154 -164 -165 -176 0
-22 -42 -43 -59 -62 -77 -78 -94 -95 -110 -111 -125 -126 -152 -154 -164 -165 -176 0
-21 -41 -42 -60 -61 -77 -79 -94 -95 -110 -111 -125 -126 -152 -154 -164 -165 -176 0
-22 -41 -43 -60 -61 -77 -79 -94 -95 -110 -111 -125 -126 -152 -154 -164 -165 -176 0
-22 -42 -43 -60 -62 -77 -79 -94 -95 -110 -111 -125 -126 -152 -154 -164 -165 -176 0
-22 -42 -43 -61 -62 -77 -80 -94 -95 -110 -111 -125 -126 -152 -154 -164 -165 -176 0
-21 -41 -42 -60 -61 -78 -79 -94 -96 -110 -111 -125 -126 -152 -154 -164 -165 -176 0
-22 -41 -43 -60 -61 -78 -79 -94 -96 -110 -111 -125 -126 -152 -154 -164 -165 -176 0
-22 -42 -43 -60 -62 -78 -79 -94 -96 -110 -111 -125 -126 -152 -154 -164 -165 -176 0
-22 -42 -43 -61 -62 -78 -80 -94 -96 -110 -111 -125 -126 -152 -154 -164 -165 -176 0
-22 -42 -43 -61 -62 -79 -80 -94 -97 -110 -111 -125 -126 -152 -154 -164 -165 -176 0
-21 -41 -42 -60 -61 -78 -79 -95 -96 -110 -112 -125 -126 -152 -154 -164 -165 -176 0
-22 -41 -43 -60 -61 -78 -79 -95 -96 -110 -112 -125 -126 -152 -154 -164 -165 -176 0
-22 -42 -43 -60 -62 -78 -79 -95 -96 -110 -112 -125 -126 -152 -154 -164 -165 -176 0
-22 -42 -43 -61 -62 -78 -80 -95 -96 -110 -112 -125 -126 -152 -154 -164 -165 -176 0
-22 -42 -43 -61 -62 -79 -80 -95 -97 -110 -112 -125 -126 -152 -154 -164 -165 -176 0
-22 -42 -43 -61 -62 -79 -80 -96 -97 -110 -113 -125 -126 -152 -154 -164 -165 -176 0
-21 -41 -42 -60 -61 -78 -79 -95 -96 -111 -112 -125 -127 -152 -154 -164 -165 -176 0
-22 -41 -43 -60 -61 -78 -79 -95 -96 -111 -112 -125 -127 -152 -154 -164 -165 -176 0
-22 -42 -43 -60 -62 -78 -79 -95 -96 -111 -112 -125 -127 -152 -154 -164 -165 -176 0
-22 -42 -43 -61 -62 -78 -80 -95 -96 -111 -112 -125 -127 -152 -154 -164 -165 -176 0
-22 -42 -43 -61 -62 -79 -80 -95 -97 -111 -112 -125 -127 -152 -154 -164 -165 -176 0
-22 -42 -43 -61 -62 -79 -80 -96 -97 -111 -113 -125 -127 -152 -154 -164 -165 -176 0
-22 -42 -43 -61 -62 -79 -80 -96 -97 -112 -113 -125 -128 -152 -154 -164 -165 -176 0
-21 -41 -42 -60 -61 -78 -79 -95 -96 -111 -112 -126 -127 -152 -155 -164 -165 -176 0
-22 -41 -43 -60 -61 -78 -79 -95 -96 -111 -112 -126 -127 -152 -155 -164 -165 -176 0
-22 -42 -43 -60 -62 -78 -79 -95 -96 -111 -112 -126 -127 -152 -155 -164 -165 -176 0
-22 -42 -43 -61 -62 -78 -80 -95 -96 -111 -112 -126 -127 -152 -155 -164 -165 -176 0
-22 -42 -43 -61 -62 -79 -80 -95 -97 -111 -112 -126 -127 -152 -155 -164 -165 -176 0
-22 -42 -43 -61 -62 -79 -80 -96 -97 -111 -113 -126 -127 -152 -155 -164 -165 -176 0
-22 -42 -43 -61 -62 -79 -80 -96 -97 -112 -113 -126 -128 -152 -155 -164 -165 -176 0
-22 -42 -43 -61 -62 -79 -80 -96 -97 -112 -113 -127 -128 -152 -156 -164 -165 -176 0
-20 -40 -41 -59 -60 -77 -78 -94 -95 -110 -111 -125 -126 -153 -154 -164 -166 -176 0
-21 -40 -42 -59 -60 -77 -78 -94 -95 -110 -111 -125 -126 -153 -154 -164 -166 -176 0
-22 -40 -43 -59 -60 -77 -78 -94 -95 -110 -111 -125 -126 -153 -154 -164 -166 -176 0
-21 -41 -42 -59 -61 -77 -78 -94 -95 -110 -111 -125 -126 -153 -154 -164 -166 -176 0
-22 -41 -43 -59 -61 -77 -78 -94 -95 -110 -111 -125 -126 -153 -154 -164 -166 -176 0
-22 -42 -43 -59 -62 -77 -78 -94 -95 -110 -111 -125 -126 -153 -154 -164 -166 -176 0
-21 -41 -42 -60 -61 -77 -79 -94 -95 -110 -111 -125 -126 -153 -154 -164 -166 -176 0
-22 -41 -43 -60 -61 -77 -79 -94 -95 -110 -111 -125 -126 -153 -154 -164 -166 -176 0
-22 -42 -43 -60 -62 -77 -79 -94 -95 -110 -111 -125 -126 -153 -154 -164 -166 -176 0
-22 -42 -43 -61 -62 -77 -80 -94 -95 -110 -111 -125 -126 -153 -154 -164 -166 -176 0
-21 -41 -42 -60 -61 -78 -79 -94 -96 -110 -111 -125 -126 -153 -154 -164 -166 -176 0
-22 -41 -43 -60 -61 -78 -79 -94 -96 -110 -111 -125 -126 -153 -154 -164 -166 -176 0
-22 -42 -43 -60 -62 -78 -79 -94 -96 -110 -111 -125 -126 -153 -154 -164 -166 -176 0
-22 -42 -43 -61 -62 -78 -80 -94 -96 -110 -111 -125 -126 -153 -154 -164 -166 -176 0
-22 -42 -43 -61 -62 -79 -80 -94 -97 -110 -111 -125 -126 -153 -154 -164 -166 -176 0
-21 -41 -42 -60 -61 -78 -79 -95 -96 -110 -112 -125 -126 -153 -154 -164 -166 -176 0
-22 -41 -43 -60 -61 -78 -79 -95 -96 -110 -112 -125 -126 -153 -154 -164 -166 -176 0
-22 -42 -43 -60 -62 -78 -79 -95 -96 -110 -112 -125 -126 -153 -154 -164 -166 -176 0
-22 -42 -43 -61 -62 -78 -80 -95 -96 -110 -112 -125 -126 -153 -154 -164 -166 -176 0
-22 -42 -43 -61 -62 -79 -80 -95 -97 -110 -112 -125 -126 -153 -154 -164 -166 -176 0
-22 -42 -43 -61 -62 -79 -80 -96 -97 -110 -113 -125 -126 -153 -154 -164 -166 -176 0
-21 -41 -42 -60 -61 -78 -79 -95 -96 -111 -112 -125 -127 -153 -154 -164 -166 -176 0
-22 -41 -43 -60 -61 -78 -79 -95 -96 -111 -112 -125 -127 -153 -154 -164 -166 -176 0
-22 -42 -43 -60 -62 -78 -79 -95 -96 -111 -112 -125 -127 -153 -154 -164 -166 -176 0
-22 -42 -43 -61 -62 -78 -80 -95 -96 -111 -112 -125 -127 -153 -154 -164 -166 -176 0
-22 -42 -43 -61 -62 -79 -80 -95 -97 -111 -112 -125 -127 -153 -154 -164 -166 -176 0
-22 -42 -43 -61 -62 -79 -80 -96 -97 -111 -113 -125 -127 -153 -154 -164 -166 -176 0
-22 -42 -43 -61 -62 -79 -80 -96 -97 -112 -113 -125 -128 -153 -154 -164 -166 -176 0
-21 -41 -42 -60 -61 -78 -79 -95 -96 -111 -112 -126 -127 -153 -155 -164 -166 -176 0
-22 -41 -43 -60 -61 -78 -79 -95 -96 -111 -112 -126 -127 -153 -155 -164 -166 -176 0
-22 -42 -43 -60 -62 -78 -79 -95 -96 -111 -112 -126 -127 -153 -155 -164 -166 -176 0
-22 -42 -43 -61 -62 -78 -80 -95 -96 -111 -112 -126 -127 -153 -155 -164 -166 -176 0
-22 -42 -43 -61 -62 -79 -80 -95 -97 -111 -112 -126 -127 -153 -155 -164 -166 -176 0
-22 -42 -43 -61 -62 -79 -80 -96 -97 -111 -113 -126 -127 -153 -155 -164 -166 -176 0
-22 -42 -43 -61 -62 -79 -80 -96 -97 -112 -113 -126 -128 -153 -155 -164 -166 -176 0
-22 -42 -43 -61 -62 -79 -80 -96 -97 -112 -113 -127 -128 -153 -156 -164 -166 -176 0
-21 -41 -42 -60 -61 -78 -79 -95 -96 -111 -112 -126 -127 -154 -155 -164 -167 -176 0
-22 -41 -43 -60 -61 -78 -79 -95 -96 -111 -112 -126 -127 -154 -155 -164 -167 -176 0
-22 -42 -43 -60 -62 -78 -79 -95 -96 -111 -112 -126 -127 -154 -155 -164 -167 -176 0
-22 -42 -43 -61 -62 -78 -80 -95 -96 -111 -112 -126 -127 -154 -155 -164 -167 -176 0
-22 -42 -43 -61 -62 -79 -80 -95 -97 -111 -112 -126 -127 -154 -155 -164 -167 -176 0
-22 -42 -43 -61 -62 -79 -80 -96 -97 -111 -113 -126 -127 -154 -155 -164 -167 -176 0
-22 -42 -43 -61 -62 -79 -80 -96 -97 -112 -113 -126 -128 -154 -155 -164 -167 -176 0
-22 -42 -43 -61 -62 -79 -80 -96 -97 -112 -113 -127 -128 -154 -156 -164 -167 -176 0
-22 -42 -43 -61 -62 -79 -80 -96 -97 -112 -113 -127 -128 -155 -156 -164 -168 -176 0
-20 -40 -41 -59 -60 -77 -78 -94 -95 -110 -111 -125 -126 -153 -154 -165 -166 -177 0
-21 -40 -42 -59 -60 -77 -78 -94 -95 -110 -111 -125 -126 -153 -154 -165 -166 -177 0
-22 -40 -43 -59 -60 -77 -78 -94 -95 -110 -111 -125 -126 -153 -154 -165 -166 -177 0
-21 -41 -42 -59 -61 -77 -78 -94 -95 -110 -111 -125 -126 -153 -154 -165 -166 -177 0
-22 -41 -43 -59 -61 -77 -78 -94 -95 -110 -111 -125 -126 -153 -154 -165 -166 -177 0
-22 -42 -43 -59 -62 -77 -78 -94 -95 -110 -111 -125 -126 -153 -154 -165 -166 -177 0
-21 -41 -42 -60 -61 -77 -79 -94 -95 -110 -111 -125 -126 -153 -154 -165 -166 -177 0
-22 -41 -43 -60 -61 -77 -79 -94 -95 -110 -111 -125 -126 -153 -154 -165 -166 -177 0
-22 -42 -43 -60 -62 -77 -79 -94 -95 -110 -111 -125 -126 -153 -154 -165 -166 -177 0
-22 -42 -43 -61 -62 -77 -80 -94 -95 -110 -111 -125 -126 -153 -154 -165 -166 -177 0
-21 -41 -42 -60 -61 -78 -79 -94 -96 -110 -111 -125 -126 -153 -154 -165 -166 -177 0
-22 -41 -43 -60 -61 -78 -79 -94 -96 -110 -111 -125 -126 -153 -154 -165 -166 -177 0
-22 -42 -43 -60 -62 -78 -79 -94 -96 -110 -111 -125 -126 -153 -154 -165 -166 -177 0
-22 -42 -43 -61 -62 -78 -80 -94 -96 -110 -111 -125 -126 -153 -154 -165 -166 -177 0
-22 -42 -43 -61 -62 -79 -80 -94 -97 -110 -111 -125 -126 -153 -154 -165 -166 -177 0
-21 -41 -42 -60 -61 -78 -79 -95 -96 -110 -112 -125 -126 -153 -154 -165 -166 -177 0
-22 -41 -43 -60 -61 -78 -79 -95 -96 -110 -112 -125 -126 -153 -154 -165 -166 -177 0
-22 -42 -43 -60 -62 -78 -79 -95 -96 -110 -112 -125 -126 -153 -154 -165 -166 -177 0
-22 -42 -43 -61 -62 -78 -80 -95 -96 -110 -112 -125 -126 -153 -154 -165 -166 -177 0
-22 -42 -43 -61 -62 -79 -80 -95 -97 -110 -112 -125 -126 -153 -154 -165 -166 -177 0
-22 -42 -43 -61 -62 -79 -80 -96 -97 -110 -113 -125 -126 -153 -154 -165 -166 -177 0
-21 -41 -42 -60 -61 -78 -79 -95 -96 -111 -112 -125 -127 -153 -154 -165 -166 -177 0
-22 -41 -43 -60 -61 -78 -79 -95 -96 -111 -112 -125 -127 -153 -154 -165 -166 -177 0
-22 -42 -43 -60 -62 -78 -79 -95 -96 -111 -112 -125 -127 -153 -154 -165 -166 -177 0
-22 -42 -43 -61 -62 -78 -80 -95 -96 -111 -112 -125 -127 -153 -154 -165 -166 -177 0
-22 -42 -43 -61 -62 -79 -80 -95 -97 -111 -112 -125 -127 -153 -154 -165 -166 -177 0
-22 -42 -43 -61 -62 -79 -80 -96 -97 -111 -113 -125 -127 -153 -154 -165 -166 -177 0
-22 -42 -43 -61 -62 -79 -80 -96 -97 -112 -113 -125 -128 -153 -154 -165 -166 -177 0
-21 -41 -42 -60 -61 -78 -79 -95 -96 -111 -112 -126 -127 -153 -155 -165 -166 -177 0
-22 -41 -43 -60 -61 -78 -79 -95 -96 -111 -112 -126 -127 -153 -155 -165 -166 -177 0
-22 -42 -43 -60 -62 -78 -79 -95 -96 -111 -112 -126 -127 -153 -155 -165 -166 -177 0
-22 -42 -43 -61 -62 -78 -80 -95 -96 -111 -112 -126 -127 -153 -155 -165 -166 -177 0
-22 -42 -43 -61 -62 -79 -80 -95 -97 -111 -112 -126 -127 -153 -155 -165 -166 -177 0
-22 -42 -43 -61 -62 -79 -80 -96 -97 -111 -113 -126 -127 -153 -155 -165 -166 -177 0
-22 -42 -43 -61 -62 -79 -80 -96 -97 -112 -113 -126 -128 -153 -155 -165 -166 -177 0
-22 -42 -43 -61 -62 -79 -80 -96 -97 -112 -113 -127 -128 -153 -156 -165 -166 -177 0
-21 -41 -42 -60 -61 -78 -79 -95 -96 -111 -112 -126 -127 -154 -155 -165 -167 -177 0
-22 -41 -43 -60 -61 -78 -79 -95 -96 -111 -112 -126 -127 -154 -155 -165 -167 -177 0
-22 -42 -43 -60 -62 -78 -79 -95 -96 -111 -112 -126 -127 -154 -155 -165 -167 -177 0
-22 -42 -43 -61 -62 -78 -80 -95 -96 -111 -112 -126 -127 -154 -155 -165 -167 -177 0
-22 -42 -43 -61 -62 -79 -80 -95 -97 -111 -112 -126 -127 -154 -155 -165 -167 -177 0
-22 -42 -43 -61 -62 -79 -80 -96 -97 -111 -113 -126 -127 -154 -155 -165 -167 -177 0
-22 -42 -43 -61 -62 -79 -80 -96 -97 -112 -113 -126 -128 -154 -155 -165 -167 -177 0
-22 -42 -43 -61 -62 -79 -80 -96 -97 -112 -113 -127 -128 -154 -156 -165 -167 -177 0
-22 -42 -43 -61 -62 -79 -80 -96 -97 -112 -113 -127 -128 -155 -156 -165 -168 -177 0
-21 -41 -42 -60 -61 -78 -79 -95 -96 -111 -112 -126 -127 -154 -155 -166 -167 -178 0
-22 -41 -43 -60 -61 -78 -79 -95 -96 -111 -112 -126 -127 -154 -155 -166 -167 -178 0
-22 -42 -43 -60 -62 -78 -79 -95 -96 -111 -112 -126 -127 -154 -155 -166 -167 -178 0
-22 -42 -43 -61 -62 -78 -80 -95 -96 -111 -112 -126 -127 -154 -155 -166 -167 -178 0
-22 -42 -43 -61 -62 -79 -80 -95 -97 -111 -112 -126 -127 -154 -155 -166 -167 -178 0
-22 -42 -43 -61 -62 -79 -80 -96 -97 -111 -113 -126 -127 -154 -155 -166 -167 -178 0
-22 -42 -43 -61 -62 -79 -80 -96 -97 -112 -113 -126 -128 -154 -155 -166 -167 -178 0
-22 -42 -43 -61 -62 -79 -80 -96 -97 -112 -113 -127 -128 -154 -156 -166 -167 -178 0
-22 -42 -43 -61 -62 -79 -80 -96 -97 -112 -113 -127 -128 -155 -156 -166 -168 -178 0
-22 -42 -43 -61 -62 -79 -80 -96 -97 -112 -113 -127 -128 -155 -156 -167 -168 -179 0
-20 -40 -41 -59 -60 -77 -78 -94 -95 -110 -111 -125 -126 -153 -154 -165 -166 -188 0
-21 -40 -42 -59 -60 -77 -78 -94 -95 -110 -111 -125 -126 -153 -154 -165 -166 -188 0
-22 -40 -43 -59 -60 -77 -78 -94 -95 -110 -111 -125 -126 -153 -154 -165 -166 -188 0
-21 -41 -42 -59 -61 -77 -78 -94 -95 -110 -111 -125 -126 -153 -154 -165 -166 -188 0
-22 -41 -43 -59 -61 -77 -78 -94 -95 -110 -111 -125 -126 -153 -154 -165 -166 -188 0
-22 -42 -43 -59 -62 -77 -78 -94 -95 -110 -111 -125 -126 -153 -154 -165 -166 -188 0
-21 -41 -42 -60 -61 -77 -79 -94 -95 -110 -111 -125 -126 -153 -154 -165 -166 -188 0
-22 -41 -43 -60 -61 -77 -79 -94 -95 -110 -111 -125 -126 -153 -154 -165 -166 -188 0
-22 -42 -43 -60 -62 -77 -79 -94 -95 -110 -111 -125 -126 -153 -154 -165 -166 -188 0
-22 -42 -43 -61 -62 -77 -80 -94 -95 -110 -111 -125 -126 -153 -154 -165 -166 -188 0
-21 -41 -42 -60 -61 -78 -79 -94 -96 -110 -111 -125 -126 -153 -154 -165 -166 -188 0
-22 -41 -43 -60 -61 -78 -79 -94 -96 -110 -111 -125 -126 -153 -154 -165 -166 -188 0
-22 -42 -43 -60 -62 -78 -79 -94 -96 -110 -111 -125 -126 -153 -154 -165 -166 -188 0
-22 -42 -43 -61 -62 -78 -80 -94 -96 -110 -111 -125 -126 -153 -154 -165 -166 -188 0
-22 -42 -43 -61 -62 -79 -80 -94 -97 -110 -111 -125 -126 -153 -154 -165 -166 -188 0
-21 -41 -42 -60 -61 -78 -79 -95 -96 -110 -112 -125 -126 -153 -154 -165 -166 -188 0
-22 -41 -43 -60 -61 -78 -79 -95 -96 -110 -112 -125 -126 -153 -154 -165 -166 -188 0
-22 -42 -43 -60 -62 -78 -79 -95 -96 -110 -112 -125 -126 -153 -154 -165 -166 -188 0
-22 -42 -43 -61 -62 -78 -80 -95 -96 -110 -112 -125 -126 -153 -154 -165 -166 -188 0
-22 -42 -43 -61 -62 -79 -80 -95 -97 -110 -112 -125 -126 -153 -154 -165 -166 -188 0
-22 -42 -43 -61 -62 -79 -80 -96 -97 -110 -113 -125 -126 -153 -154 -165 -166 -188 0
-21 -41 -42 -60 -61 -78 -79 -95 -96 -111 -112 -125 -127 -153 -154 -165 -166 -188 0
-22 -41 -43 -60 -61 -78 -79 -95 -96 -111 -112 -125 -127 -153 -154 -165 -166 -188 0
-22 -42 -43 -60 -62 -78 -79 -95 -96 -111 -112 -125 -127 -153 -154 -165 -166 -188 0
-22 -42 -43 -61 -62 -78 -80 -95 -96 -111 -112 -125 -127 -153 -154 -165 -166 -188 0
-22 -42 -43 -61 -62 -79 -80 -95 -97 -111 -112 -125 -127 -153 -154 -165 -166 -188 0
-22 -42 -43 -61 -62 -79 -80 -96 -97 -111 -113 -125 -127 -153 -154 -165 -166 -188 0
-22 -42 -43 -61 -62 -79 -80 -96 -97 -112 -113 -125 -128 -153 -154 -165 -166 -188 0
-21 -41 -42 -60 -61 -78 -79 -95 -96 -111 -112 -126 -127 -153 -155 -165 -166 -188 0
-22 -41 -43 -60 -61 -78 -79 -95 -96 -111 -112 -126 -127 -153 -155 -165 -166 -188 0
-22 -42 -43 -60 -62 -78 -79 -95 -96 -111 -112 -126 -127 -153 -155 -165 -166 -188 0
-22 -42 -43 -61 -62 -78 -80 -95 -96 -111 -112 -126 -127 -153 -155 -165 -166 -188 0
-22 -42 -43 -61 -62 -79 -80 -95 -97 -111 -112 -126 -127 -153 -155 -165 -166 -188 0
-22 -42 -43 -61 -62 -79 -80 -96 -97 -111 -113 -126 -127 -153 -155 -165 -166 -188 0
-22 -42 -43 -61 -62 -79 -80 -96 -97 -112 -113 -126 -128 -153 -155 -165 -166 -188 0
-22 -42 -43 -61 -62 -79 -80 -96 -97 -112 -113 -127 -128 -153 -156 -165 -166 -188 0
-21 -41 -42 -60 -61 -78 -79 -95 -96 -111 -112 -126 -127 -154 -155 -165 -167 -188 0
-22 -41 -43 -60 -61 -78 -79 -95 -96 -111 -112 -126 -127 -154 -155 -165 -167 -188 0
-22 -42 -43 -60 -62 -78 -79 -95 -96 -111 -112 -126 -127 -154 -155 -165 -167 -188 0
-22 -42 -43 -61 -62 -78 -80 -95 -96 -111 -112 -126 -127 -154 -155 -165 -167 -188 0
-22 -42 -43 -61 -62 -79 -80 -95 -97 -111 -112 -126 -127 -154 -155 -165 -167 -188 0
-22 -42 -43 -61 -62 -79 -80 -96 -97 -111 -113 -126 -127 -154 -155 -165 -167 -188 0
-22 -42 -43 -61 -62 -79 -80 -96 -97 -112 -113 -126 -128 -154 -155 -165 -167 -188 0
-22 -42 -43 -61 -62 -79 -80 -96 -97 -112 -113 -127 -128 -154 -156 -165 -167 -188 0
-22 -42 -43 -61 -62 -79 -80 -96 -97 -112 -113 -127 -128 -155 -156 -165 -168 -188 0
-21 -41 -42 -60 -61 -78 -79 -95 -96 -111 -112 -126 -127 -154 -155 -166 -167 -189 0
-22 -41 -43 -60 -61 -78 -79 -95 -96 -111 -112 -126 -127 -154 -155 -166 -167 -189 0
-22 -42 -43 -60 -62 -78 -79 -95 -96 -111 -112 -126 -127 -154 -155 -166 -167 -189 0
-22 -42 -43 -61 -62 -78 -80 -95 -96 -111 -112 -126 -127 -154 -155 -166 -167 -189 0
-22 -42 -43 -61 -62 -79 -80 -95 -97 -111 -112 -126 -127 -154 -155 -166 -167 -189 0
-22 -42 -43 -61 -62 -79 -80 -96 -97 -111 -113 -126 -127 -154 -155 -166 -167 -189 0
-22 -42 -43 -61 -62 -79 -80 -96 -97 -112 -113 -126 -128 -154 -155 -166 -167 -189 0
-22 -42 -43 -61 -62 -79 -80 -96 -97 -112 -113 -127 -128 -154 -156 -166 -167 -189 0
-22 -42 -43 -61 -62 -79 -80 -96 -97 -112 -113 -127 -128 -155 -156 -166 -168 -189 0
-22 -42 -43 -61 -62 -79 -80 -96 -97 -112 -113 -127 -128 -155 -156 -167 -168 -190 0
-21 -41 -42 -60 -61 -78 -79 -95 -96 -111 -112 -126 -127 -154 -155 -166 -167 -199 0
-22 -41 -43 -60 -61 -78 -79 -95 -96 -111 -112 -126 -127 -154 -155 -166 -167 -199 0
-22 -42 -43 -60 -62 -78 -79 -95 -96 -111 -112 -126 -127 -154 -155 -166 -167 -199 0
-22 -42 -43 -61 -62 -78 -80 -95 -96 -111 -112 -126 -127 -154 -155 -166 -167 -199 0
-22 -42 -43 -61 -62 -79 -80 -95 -97 -111 -112 -126 -127 -154 -155 -166 -167 -199 0
-22 -42 -43 -61 -62 -79 -80 -96 -97 -111 -113 -126 -127 -154 -155 -166 -167 -199 0
-22 -42 -43 -61 -62 -79 -80 -96 -97 -112 -113 -126 -128 -154 -155 -166 -167 -199 0
-22 -42 -43 -61 -62 -79 -80 -96 -97 -112 -113 -127 -128 -154 -156 -166 -167 -199 0
-22 -42 -43 -61 -62 -79 -80 -96 -97 -112 -113 -127 -128 -155 -156 -166 -168 -199 0
-22 -42 -43 -61 -62 -79 -80 -96 -97 -112 -113 -127 -128 -155 -156 -167 -168 -200 0
-22 -42 -43 -61 -62 -79 -80 -96 -97 -112 -113 -127 -128 -155 -156 -167 -168 -209 0
-20 -40 -41 -59 -60 -77 -78 -94 -95 -110 -111 -125 -126 -153 -154 -177 -178 -188 0
-21 -40 -42 -59 -60 -77 -78 -94 -95 -110 -111 -125 -126 -153 -154 -177 -178 -188 0
-22 -40 -43 -59 -60 -77 -78 -94 -95 -110 -111 -125 -126 -153 -154 -177 -178 -188 0
-21 -41 -42 -59 -61 -77 -78 -94 -95 -110 -111 -125 -126 -153 -154 -177 -178 -188 0
-22 -41 -43 -59 -61 -77 -78 -94 -95 -110 -111 -125 -126 -153 -154 -177 -178 -188 0
-22 -42 -43 -59 -62 -77 -78 -94 -95 -110 -111 -125 -126 -153 -154 -177 -178 -188 0
-21 -41 -42 -60 -61 -77 -79 -94 -95 -110 -111 -125 -126 -153 -154 -177 -178 -188 0
-22 -41 -43 -60 -61 -77 -79 -94 -95 -110 -111 -125 -126 -153 -154 -177 -178 -188 0
-22 -42 -43 -60 -62 -77 -79 -94 -95 -110 -111 -125 -126 -153 -154 -177 -178 -188 0
-22 -42 -43 -61 -62 -77 -80 -94 -95 -110 -111 -125 -126 -153 -154 -177 -178 -188 0
-21 -41 -42 -60 -61 -78 -79 -94 -96 -110 -111 -125 -126 -153 -154 -177 -178 -188 0
-22 -41 -43 -60 -61 -78 -79 -94 -96 -110 -111 -125 -126 -153 -154 -177 -178 -188 0
-22 -42 -43 -60 -62 -78 -79 -94 -96 -110 -111 -125 -126 -153 -154 -177 -178 -188 0
-22 -42 -43 -61 -62 -78 -80 -94 -96 -110 -111 -125 -126 -153 -154 -177 -178 -188 0
-22 -42 -43 -61 -62 -79 -80 -94 -97 -110 -111 -125 -126 -153 -154 -177 -178 -188 0
-21 -41 -42 -60 -61 -78 -79 -95 -96 -110 -112 -125 -126 -153 -154 -177 -178 -188 0
-22 -41 -43 -60 -61 -78 -79 -95 -96 -110 -112 -125 -126 -153 -154 -177 -178 -188 0
-22 -42 -43 -60 -62 -78 -79 -95 -96 -110 -112 -125 -126 -153 -154 -177 -178 -188 0
-22 -42 -43 -61 -62 -78 -80 -95 -96 -110 -112 -125 -126 -153 -154 -177 -178 -188 0
-22 -42 -43 -61 -62 -79 -80 -95 -97 -110 -112 -125 -126 -153 -154 -177 -178 -188 0
-22 -42 -43 -61 -62 -79 -80 -96 -97 -110 -113 -125 -126 -153 -154 -177 -178 -188 0
-21 -41 -42 -60 -61 -78 -79 -95 -96 -111 -112 -125 -127 -153 -154 -177 -178 -188 0
-22 -41 -43 -60 -61 -78 -79 -95 -96 -111 -112 -125 -127 -153 -154 -177 -178 -188 0
-22 -42 -43 -60 -62 -78 -79 -95 -96 -111 -112 -125 -127 -153 -154 -177 -178 -188 0
-22 -42 -43 -61 -62 -78 -80 -95 -96 -111 -112 -125 -127 -153 -154 -177 -178 -188 0
-22 -42 -43 -61 -62 -79 -80 -95 -97 -111 -112 -125 -127 -153 -154 -177 -178 -188 0
-22 -42 -43 -61 -62 -79 -80 -96 -97 -111 -113 -125 -127 -153 -154 -177 -178 -188 0
-22 -42 -43 -61 -62 -79 -80 -96 -97 -112 -113 -125 -128 -153 -154 -177 -178 -188 0
-21 -41 -42 -60 -61 -78 -79 -95 -96 -111 -112 -126 -127 -153 -155 -177 -178 -188 0
-22 -41 -43 -60 -61 -78 -79 -95 -96 -111 -112 -126 -127 -153 -155 -177 -178 -188 0
-22 -42 -43 -60 -62 -78 -79 -95 -96 -111 -112 -126 -127 -153 -155 -177 -178 -188 0
-22 -42 -43 -61 -62 -78 -80 -95 -96 -111 -112 -126 -127 -153 -155 -177 -178 -188 0
-22 -42 -43 -61 -62 -79 -80 -95 -97 -111 -112 -126 -127 -153 -155 -177 -178 -188 0
-22 -42 -43 -61 -62 -79 -80 -96 -97 -111 -113 -126 -127 -153 -155 -177 -178 -188 0
-22 -42 -43 -61 -62 -79 -80 -96 -97 -112 -113 -126 -128 -153 -155 -177 -178 -188 0
-22 -42 -43 -61 -62 -79 -80 -96 -97 -112 -113 -127 -128 -153 -156 -177 -178 -188 0
-21 -41 -42 -60 -61 -78 -79 -95 -96 -111 -112 -126 -127 -154 -155 -177 -179 -188 0
-22 -41 -43 -60 -61 -78 -79 -95 -96 -111 -112 -126 -127 -154 -155 -177 -179 -188 0
-22 -42 -43 -60 -62 -78 -79 -95 -96 -111 -112 -126 -127 -154 -155 -177 -179 -188 0
-22 -42 -43 -61 -62 -78 -80 -95 -96 -111 -112 -126 -127 -154 -155 -177 -179 -188 0
-22 -42 -43 -61 -62 -79 -80 -95 -97 -111 -112 -126 -127 -154 -155 -177 -179 -188 0
-22 -42 -43 -61 -62 -79 -80 -96 -97 -111 -113 -126 -127 -154 -155 -177 -179 -188 0
-22 -42 -43 -61 -62 -79 -80 -96 -97 -112 -113 -126 -128 -154 -155 -177 -179 -188 0
-22 -42 -43 -61 -62 -79 -80 -96 -97 -112 -113 -127 -128 -154 -156 -177 -179 -188 0
-22 -42 -43 -61 -62 -79 -80 -96 -97 -112 -113 -127 -128 -155 -156 -177 -180 -188 0
-21 -41 -42 -60 -61 -78 -79 -95 -96 -111 -112 -126 -127 -154 -155 -178 -179 -189 0
-22 -41 -43 -60 -61 -78 -79 -95 -96 -111 -112 -126 -127 -154 -155 -178 -179 -189 0
-22 -42 -43 -60 -62 -78 -79 -95 -96 -111 -112 -126 -127 -154 -155 -178 -179 -189 0
-22 -42 -43 -61 -62 -78 -80 -95 -96 -111 -112 -126 -127 -154 -155 -178 -179 -189 0
-22 -42 -43 -61 -62 -79 -80 -95 -97 -111 -112 -126 -127 -154 -155 -178 -179 -189 0
-22 -42 -43 -61 -62 -79 -80 -96 -97 -111 -113 -126 -127 -154 -155 -178 -179 -189 0
-22 -42 -43 -61 -62 -79 -80 -96 -97 -112 -113 -126 -128 -154 -155 -178 -179 -189 0
-22 -42 -43 -61 -62 -79 -80 -96 -97 -112 -113 -127 -128 -154 -156 -178 -179 -189 0
-22 -42 -43 -61 -62 -79 -80 -96 -97 -112 -113 -127 -128 -155 -156 -178 -180 -189 0
-22 -42 -43 -61 -62 -79 -80 -96 -97 -112 -113 -127 -128 -155 -156 -179 -180 -190 0
-21 -41 -42 -60 -61 -78 -79 -95 -96 -111 -112 -126 -127 -154 -155 -178 -179 -199 0
-22 -41 -43 -60 -61 -78 -79 -95 -96 -111 -112 -126 -127 -154 -155 -178 -179 -199 0
-22 -42 -43 -60 -62 -78 -79 -95 -96 -111 -112 -126 -127 -154 -155 -178 -179 -199 0
-22 -42 -43 -61 -62 -78 -80 -95 -96 -111 -112 -126 -127 -154 -155 -178 -179 -199 0
-22 -42 -43 -61 -62 -79 -80 -95 -97 -111 -112 -126 -127 -154 -155 -178 -179 -199 0
-22 -42 -43 -61 -62 -79 -80 -96 -97 -111 -113 -126 -127 -154 -155 -178 -179 -199 0
-22 -42 -43 -61 -62 -79 -80 -96 -97 -112 -113 -126 -128 -154 -155 -178 -179 -199 0
-22 -42 -43 -61 -62 -79 -80 -96 -97 -112 -113 -127 -128 -154 -156 -178 -179 -199 0
-22 -42 -43 -61 -62 -79 -80 -96 -97 -112 -113 -127 -128 -155 -156 -178 -180 -199 0
-22 -42 -43 -61 -62 -79 -80 -96 -97 -112 -113 -127 -128 -155 -156 -179 -180 -200 0
-22 -42 -43 -61 -62 -79 -80 -96 -97 -112 -113 -127 -128 -155 -156 -179 -180 -209 0
-21 -41 -42 -60 -61 -78 -79 -95 -96 -111 -112 -126 -127 -154 -155 -189 -190 -199 0
-22 -41 -43 -60 -61 -78 -79 -95 -96 -111 -112 -126 -127 -154 -155 -189 -190 -199 0
-22 -42 -43 -60 -62 -78 -79 -95 -96 -111 -112 -126 -127 -154 -155 -189 -190 -199 0
-22 -42 -43 -61 -62 -78 -80 -95 -96 -111 -112 -126 -127 -154 -155 -189 -190 -199 0
-22 -42 -43 -61 -62 -79 -80 -95 -97 -111 -112 -126 -127 -154 -155 -189 -190 -199 0
-22 -42 -43 -61 -62 -79 -80 -96 -97 -111 -113 -126 -127 -154 -155 -189 -190 -199 0
-22 -42 -43 -61 -62 -79 -80 -96 -97 -112 -113 -126 -128 -154 -155 -189 -190 -199 0
-22 -42 -43 -61 -62 -79 -80 -96 -97 -112 -113 -127 -128 -154 -156 -189 -190 -199 0
-22 -42 -43 -61 -62 -79 -80 -96 -97 -112 -113 -127 -128 -155 -156 -189 -191 -199 0
-22 -42 -43 -61 -62 -79 -80 -96 -97 -112 -113 -127 -128 -155 -156 -190 -191 -200 0
-22 -42 -43 -61 -62 -79 -80 -96 -97 -112 -113 -127 -128 -155 -156 -190 -191 -209 0
-22 -42 -43 -61 -62 -79 -80 -96 -97 -112 -113 -127 -128 -155 -156 -200 -201 -209 0
-20 -40 -41 -59 -60 -77 -78 -94 -95 -110 -111 -125 -126 -166 -167 -177 -178 -188 0
-21 -40 -42 -59 -60 -77 -78 -94 -95 -110 -111 -125 -126 -166 -167 -177 -178 -188 0
-22 -40 -43 -59 -60 -77 -78 -94 -95 -110 -111 -125 -126 -166 -167 -177 -178 -188 0
-21 -41 -42 -59 -61 -77 -78 -94 -95 -110 -111 -125 -126 -166 -167 -177 -178 -188 0
-22 -41 -43 -59 -61 -77 -78 -94 -95 -110 -111 -125 -126 -166 -167 -177 -178 -188 0
-22 -42 -43 -59 -62 -77 -78 -94 -95 -110 -111 -125 -126 -166 -167 -177 -178 -188 0
-21 -41 -42 -60 -61 -77 -79 -94 -95 -110 -111 -125 -126 -166 -167 -177 -178 -188 0
-22 -41 -43 -60 -61 -77 -79 -94 -95 -110 -111 -125 -126 -166 -167 -177 -178 -188 0
-22 -42 -43 -60 -62 -77 -79 -94 -95 -110 -111 -125 -126 -166 -167 -177 -178 -188 0
-22 -42 -43 -61 -62 -77 -80 -94 -95 -110 -111 -125 -126 -166 -167 -177 -178 -188 0
-21 -41 -42 -60 -61 -78 -79 -94 -96 -110 -111 -125 -126 -166 -167 -177 -178 -188 0
-22 -41 -43 -60 -61 -78 -79 -94 -96 -110 -111 -125 -126 -166 -167 -177 -178 -188 0
-22 -42 -43 -60 -62 -78 -79 -94 -96 -110 -111 -125 -126 -166 -167 -177 -178 -188 0
-22 -42 -43 -61 -62 -78 -80 -94 -96 -110 -111 -125 -126 -166 -167 -177 -178 -188 0
-22 -42 -43 -61 -62 -79 -80 -94 -97 -110 -111 -125 -126 -166 -167 -177 -178 -188 0
-21 -41 -42 -60 -61 -78 -79 -95 -96 -110 -112 -125 -126 -166 -167 -177 -178 -188 0
-22 -41 -43 -60 -61 -78 -79 -95 -96 -110 -112 -125 -126 -166 -167 -177 -178 -188 0
-22 -42 -43 -60 -62 -78 -79 -95 -96 -110 -112 -125 -126 -166 -167 -177 -178 -188 0
-22 -42 -43 -61 -62 -78 -80 -95 -96 -110 -112 -125 -126 -166 -167 -177 -178 -188 0
-22 -42 -43 -61 -62 -79 -80 -95 -97 -110 -112 -125 -126 -166 -167 -177 -178 -188 0
-22 -42 -43 -61 -62 -79 -80 -96 -97 -110 -113 -125 -126 -166 -167 -177 -178 -188 0
-21 -41 -42 -60 -61 -78 -79 -95 -96 -111 -112 -125 -127 -166 -167 -177 -178 -188 0
-22 -41 -43 -60 -61 -78 -79 -95 -96 -111 -112 -125 -127 -166 -167 -177 -178 -188 0
-22 -42 -43 -60 -62 -78 -79 -95 -96 -111 -112 -125 -127 -166 -167 -177 -178 -188 0
-22 -42 -43 -61 -62 -78 -80 -95 -96 -111 -112 -125 -127 -166 -167 -177 -178 -188 0
-22 -42 -43 -61 -62 -79 -80 -95 -97 -111 -112 -125 -127 -166 -167 -177 -178 -188 0
-22 -42 -43 -61 -62 -79 -80 -96 -97 -111 -113 -125 -127 -166 -167 -177 -178 -188 0
-22 -42 -43 -61 -62 -79 -80 -96 -97 -112 -113 -125 -128 -166 -167 -177 -178 -188 0
-21 -41 -42 -60 -61 -78 -79 -95 -96 -111 -112 -126 -127 -166 -168 -177 -178 -188 0
-22 -41 -43 -60 -61 -78 -79 -95 -96 -111 -112 -126 -127 -166 -168 -177 -178 -188 0
-22 -42 -43 -60 -62 -78 -79 -95 -96 -111 -112 -126 -127 -166 -168 -177 -178 -188 0
-22 -42 -43 -61 -62 -78 -80 -95 -96 -111 -112 -126 -127 -166 -168 -177 -178 -188 0
-22 -42 -43 -61 -62 -79 -80 -95 -97 -111 -112 -126 -127 -166 -168 -177 -178 -188 0
-22 -42 -43 -61 -62 -79 -80 -96 -97 -111 -113 -126 -127 -166 -168 -177 -178 -188 0
-22 -42 -43 -61 -62 -79 -80 -96 -97 -112 -113 -126 -128 -166 -168 -177 -178 -188 0
-22 -42 -43 -61 -62 -79 -80 -96 -97 -112 -113 -127 -128 -166 -169 -177 -178 -188 0
-21 -41 -42 -60 -61 -78 -79 -95 -96 -111 -112 -126 -127 -167 -168 -177 -179 -188 0
-22 -41 -43 -60 -61 -78 -79 -95 -96 -111 -112 -126 -127 -167 -168 -177 -179 -188 0
-22 -42 -43 -60 -62 -78 -79 -95 -96 -111 -112 -126 -127 -167 -168 -177 -179 -188 0
-22 -42 -43 -61 -62 -78 -80 -95 -96 -111 -112 -126 -127 -167 -168 -177 -179 -188 0
-22 -42 -43 -61 -62 -79 -80 -95 -97 -111 -112 -126 -127 -167 -168 -177 -179 -188 0
-22 -42 -43 -61 -62 -79 -80 -96 -97 -111 -113 -126 -127 -167 -168 -177 -179 -188 0
-22 -42 -43 -61 -62 -79 -80 -96 -97 -112 -113 -126 -128 -167 -168 -177 -179 -188 0
-22 -42 -43 -61 -62 -79 -80 -96 -97 -112 -113 -127 -128 -167 -169 -177 -179 -188 0
-22 -42 -43 -61 -62 -79 -80 -96 -97 -112 -113 -127 -128 -168 -169 -177 -180 -188 0
-21 -41 -42 -60 -61 -78 -79 -95 -96 -111 -112 -126 -127 -167 -168 -178 -179 -189 0
-22 -41 -43 -60 -61 -78 -79 -95 -96 -111 -112 -126 -127 -167 -168 -178 -179 -189 0
-22 -42 -43 -60 -62 -78 -79 -95 -96 -111 -112 -126 -127 -167 -168 -178 -179 -189 0
-22 -42 -43 -61 -62 -78 -80 -95 -96 -111 -112 -126 -127 -167 -168 -178 -179 -189 0
-22 -42 -43 -61 -62 -79 -80 -95 -97 -111 -112 -126 -127 -167 -168 -178 -179 -189 0
-22 -42 -43 -61 -62 -79 -80 -96 -97 -111 -113 -126 -127 -167 -168 -178 -179 -189 0
-22 -42 -43 -61 -62 -79 -80 -96 -97 -112 -113 -126 -128 -167 -168 -178 -179 -189 0
-22 -42 -43 -61 -62 -79 -80 -96 -97 -112 -113 -127 -128 -167 -169 -178 -179 -189 0
-22 -42 -43 -61 -62 -79 -80 -96 -97 -112 -113 -127 -128 -168 -169 -178 -180 -189 0
-22 -42 -43 -61 -62 -79 -80 -96 -97 -112 -113 -127 -128 -168 -169 -179 -180 -190 0
-21 -41 -42 -60 -61 -78 -79 -95 -96 -111 -112 -126 -127 -167 -168 -178 -179 -199 0
-22 -41 -43 -60 -61 -78 -79 -95 -96 -111 -112 -126 -127 -167 -168 -178 -179 -199 0
-22 -42 -43 -60 -62 -78 -79 -95 -96 -111 -112 -126 -127 -167 -168 -178 -179 -199 0
-22 -42 -43 -61 -62 -78 -80 -95 -96 -111 -112 -126 -127 -167 -168 -178 -179 -199 0
-22 -42 -43 -61 -62 -79 -80 -95 -97 -111 -112 -126 -127 -167 -168 -178 -179 -199 0
-22 -42 -43 -61 -62 -79 -80 -96 -97 -111 -113 -126 -127 -167 -168 -178 -179 -199 0
-22 -42 -43 -61 -62 -79 -80 -96 -97 -112 -113 -126 -128 -167 -168 -178 -179 -199 0
-22 -42 -43 -61 -62 -79 -80 -96 -97 -112 -113 -127 -128 -167 -169 -178 -179 -199 0
-22 -42 -43 -61 -62 -79 -80 -96 -97 -112 -113 -127 -128 -168 -169 -178 -180 -199 0
-22 -42 -43 -61 -62 -79 -80 -96 -97 -112 -113 -127 -128 -168 -169 -179 -180 -200 0
-22 -42 -43 -61 -62 -79 -80 -96 -97 -112 -113 -127 -128 -168 -169 -179 -180 -209 0
-21 -41 -42 -60 -61 -78 -79 -95 -96 -111 -112 -126 -127 -167 -168 -189 -190 -199 0
-22 -41 -43 -60 -61 -78 -79 -95 -96 -111 -112 -126 -127 -167 -168 -189 -190 -199 0
-22 -42 -43 -60 -62 -78 -79 -95 -96 -111 -112 -126 -127 -167 -168 -189 -190 -199 0
-22 -42 -43 -61 -62 -78 -80 -95 -96 -111 -112 -126 -127 -167 -168 -189 -190 -199 0
-22 -42 -43 -61 -62 -79 -80 -95 -97 -111 -112 -126 -127 -167 -168 -189 -190 -199 0
-22 -42 -43 -61 -62 -79 -80 -96 -97 -111 -113 -126 -127 -167 -168 -189 -190 -199 0
-22 -42 -43 -61 -62 -79 -80 -96 -97 -112 -113 -126 -128 -167 -168 -189 -190 -199 0
-22 -42 -43 -61 -62 -79 -80 -96 -97 -112 -113 -127 -128 -167 -169 -189 -190 -199 0
-22 -42 -43 -61 -62 -79 -80 -96 -97 -112 -113 -127 -128 -168 -169 -189 -191 -199 0
-22 -42 -43 -61 -62 -79 -80 -96 -97 -112 -113 -127 -128 -168 -169 -190 -191 -200 0
-22 -42 -43 -61 -62 -79 -80 -96 -97 -112 -113 -127 -128 -168 -169 -190 -191 -209 0
-22 -42 -43 -61 -62 -79 -80 -96 -97 -112 -113 -127 -128 -168 -169 -200 -201 -209 0
-21 -41 -42 -60 -61 -78 -79 -95 -96 -111 -112 -126 -127 -179 -180 -189 -190 -199 0
-22 -41 -43 -60 -61 -78 -79 -95 -96 -111 -112 -126 -127 -179 -180 -189 -190 -199 0
-22 -42 -43 -60 -62 -78 -79 -95 -96 -111 -112 -126 -127 -179 -180 -189 -190 -199 0
-22 -42 -43 -61 -62 -78 -80 -95 -96 -111 -112 -126 -127 -179 -180 -189 -190 -199 0
-22 -42 -43 -61 -62 -79 -80 -95 -97 -111 -112 -126 -127 -179 -180 -189 -190 -199 0
-22 -42 -43 -61 -62 -79 -80 -96 -97 -111 -113 -126 -127 -179 -180 -189 -190 -199 0
-22 -42 -43 -61 -62 -79 -80 -96 -97 -112 -113 -126 -128 -179 -180 -189 -190 -199 0
-22 -42 -43 -61 -62 -79 -80 -96 -97 -112 -113 -127 -128 -179 -181 -189 -190 -199 0
-22 -42 -43 -61 -62 -79 -80 -96 -97 -112 -113 -127 -128 -180 -181 -189 -191 -199 0
-22 -42 -43 -61 -62 -79 -80 -96 -97 -112 -113 -127 -128 -180 -181 -190 -191 -200 0
-22 -42 -43 -61 -62 -79 -80 -96 -97 -112 -113 -127 -128 -180 -181 -190 -191 -209 0
-22 -42 -43 -61 -62 -79 -80 -96 -97 -112 -113 -127 -128 -180 -181 -200 -201 -209 0
-22 -42 -43 -61 -62 -79 -80 -96 -97 -112 -113 -127 -128 -191 -192 -200 -201 -209 0
-19 -39 -40 -58 -59 -76 -77 -93 -94 -109 -110 -139 -140 -152 -153 -164 -165 -176 0
-20 -39 -41 -58 -59 -76 -77 -93 -94 -109 -110 -139 -140 -152 -153 -164 -165 -176 0
-21 -39 -42 -58 -59 -76 -77 -93 -94 -109 -110 -139 -140 -152 -153 -164 -165 -176 0
-22 -39 -43 -58 -59 -76 -77 -93 -94 -109 -110 -139 -140 -152 -153 -164 -165 -176 0
-20 -40 -41 -58 -60 -76 -77 -93 -94 -109 -110 -139 -140 -152 -153 -164 -165 -176 0
-21 -40 -42 -58 -60 -76 -77 -93 -94 -109 -110 -139 -140 -152 -153 -164 -165 -176 0
-22 -40 -43 -58 -60 -76 -77 -93 -94 -109 -110 -139 -140 -152 -153 -164 -165 -176 0
-21 -41 -42 -58 -61 -76 -77 -93 -94 -109 -110 -139 -140 -152 -153 -164 -165 -176 0
-22 -41 -43 -58 -61 -76 -77 -93 -94 -109 -110 -139 -140 -152 -153 -164 -165 -176 0
-22 -42 -43 -58 -62 -76 -77 -93 -94 -109 -110 -139 -140 -152 -153 -164 -165 -176 0
-20 -40 -41 -59 -60 -76 -78 -93 -94 -109 -110 -139 -140 -152 -153 -164 -165 -176 0
-21 -40 -42 -59 -60 -76 -78 -93 -94 -109 -110 -139 -140 -152 -153 -164 -165 -176 0
-22 -40 -43 -59 -60 -76 -78 -93 -94 -109 -110 -139 -140 -152 -153 -164 -165 -176 0
-21 -41 -42 -59 -61 -76 -78 -93 -94 -109 -110 -139 -140 -152 -153 -164 -165 -176 0
-22 -41 -43 -59 -61 -76 -78 -93 -94 -109 -110 -139 -140 -152 -153 -164 -165 -176 0
-22 -42 -43 -59 -62 -76 -78 -93 -94 -109 -110 -139 -140 -152 -153 -164 -165 -176 0
-21 -41 -42 -60 -61 -76 -79 -93 -94 -109 -110 -139 -140 -152 -153 -164 -165 -176 0
-22 -41 -43 -60 -61 -76 -79 -93 -94 -109 -110 -139 -140 -152 -153 -164 -165 -176 0
-22 -42 -43 -60 -62 -76 -79 -93 -94 -109 -110 -139 -140 -152 -153 -164 -165 -176 0
-22 -42 -43 -61 -62 -76 -80 -93 -94 -109 -110 -139 -140 -152 -153 -164 -165 -176 0
-20 -40 -41 -59 -60 -77 -78 -93 -95 -109 -110 -139 -140 -152 -153 -164 -165 -176 0
-21 -40 -42 -59 -60 -77 -78 -93 -95 -109 -110 -139 -140 -152 -153 -164 -165 -176 0
-22 -40 -43 -59 -60 -77 -78 -93 -95 -109 -110 -139 -140 -152 -153 -164 -165 -176 0
-21 -41 -42 -59 -61 -77 -78 -93 -95 -109 -110 -139 -140 -152 -153 -164 -165 -176 0
-22 -41 -43 -59 -61 -77 -78 -93 -95 -109 -110 -139 -140 -152 -153 -164 -165 -176 0
-22 -42 -43 -59 -62 -77 -78 -93 -95 -109 -110 -139 -140 -152 -153 -164 -165 -176 0
-21 -41 -42 -60 -61 -77 -79 -93 -95 -109 -110 -139 -140 -152 -153 -164 -165 -176 0
-22 -41 -43 -60 -61 -77 -79 -93 -95 -109 -110 -139 -140 -152 -153 -164 -165 -176 0
-22 -42 -43 -60 -62 -77 -79 -93 -95 -109 -110 -139 -140 -152 -153 -164 -165 -176 0
-22 -42 -43 -61 -62 -77 -80 -93 -95 -109 -110 -139 -140 -152 -153 -164 -165 -176 0
-21 -41 -42 -60 -61 -78 -79 -93 -96 -109 -110 -139 -140 -152 -153 -164 -165 -176 0
-22 -41 -43 -60 -61 -78 -79 -93 -96 -109 -110 -139 -140 -152 -153 -164 -165 -176 0
-22 -42 -43 -60 -62 -78 -79 -93 -96 -109 -110 -139 -140 -152 -153 -164 -165 -176 0
-22 -42 -43 -61 -62 -78 -80 -93 -96 -109 -110 -139 -140 -152 -153 -164 -165 -176 0
-22 -42 -43 -61 -62 -79 -80 -93 -97 -109 -110 -139 -140 -152 -153 -164 -165 -176 0
-20 -40 -41 -59 -60 -77 -78 -94 -95 -109 -111 -139 -140 -152 -153 -164 -165 -176 0
-21 -40 -42 -59 -60 -77 -78 -94 -95 -109 -111 -139 -140 -152 -153 -164 -165 -176 0
-22 -40 -43 -59 -60 -77 -78 -94 -95 -109 -111 -139 -140 -152 -153 -164 -165 -176 0
-21 -41 -42 -59 -61 -77 -78 -94 -95 -109 -111 -139 -140 -152 -153 -164 -165 -176 0
-22 -41 -43 -59 -61 -77 -78 -94 -95 -109 -111 -139 -140 -152 -153 -164 -165 -176 0
-22 -42 -43 -59 -62 -77 -78 -94 -95 -109 -111 -139 -140 -152 -153 -164 -165 -176 0
-21 -41 -42 -60 -61 -77 -79 -94 -95 -109 -111 -139 -140 -152 -153 -164 -165 -176 0
-22 -41 -43 -60 -61 -77 -79 -94 -95 -109 -111 -139 -140 -152 -153 -164 -165 -176 0
-22 -42 -43 -60 -62 -77 -79 -94 -95 -109 -111 -139 -140 -152 -153 -164 -165 -176 0
-22 -42 -43 -61 -62 -77 -80 -94 -95 -109 -111 -139 -140 -152 -153 -164 -165 -176 0
-21 -41 -42 -60 -61 -78 -79 -94 -96 -109 -111 -139 -140 -152 -153 -164 -165 -176 0
-22 -41 -43 -60 -61 -78 -79 -94 -96 -109 -111 -139 -140 -152 -153 -164 -165 -176 0
-22 -42 -43 -60 -62 -78 -79 -94 -96 -109 -111 -139 -140 -152 -153 -164 -165 -176 0
-22 -42 -43 -61 -62 -78 -80 -94 -96 -109 -111 -139 -140 -152 -153 -164 -165 -176 0
-22 -42 -43 -61 -62 -79 -80 -94 -97 -109 -111 -139 -140 -152 -153 -164 -165 -176 0
-21 -41 -42 -60 -61 -78 -79 -95 -96 -109 -112 -139 -140 -152 -153 -164 -165 -176 0
-22 -41 -43 -60 -61 -78 -79 -95 -96 -109 -112 -139 -140 -152 -153 -164 -165 -176 0
-22 -42 -43 -60 -62 -78 -79 -95 -96 -109 -112 -139 -140 -152 -153 -164 -165 -176 0
-22 -42 -43 -61 -62 -78 -80 -95 -96 -109 -112 -139 -140 -152 -153 -164 -165 -176 0
-22 -42 -43 -61 -62 -79 -80 -95 -97 -109 -112 -139 -140 -152 -153 -164 -165 -176 0
-22 -42 -43 -61 -62 -79 -80 -96 -97 -109 -113 -139 -140 -152 -153 -164 -165 -176 0
-20 -40 -41 -59 -60 -77 -78 -94 -95 -110 -111 -139 -141 -152 -153 -164 -165 -176 0
-21 -40 -42 -59 -60 -77 -78 -94 -95 -110 -111 -139 -141 -152 -153 -164 -165 -176 0
-22 -40 -43 -59 -60 -77 -78 -94 -95 -110 -111 -139 -141 -152 -153 -164 -165 -176 0
-21 -41 -42 -59 -61 -77 -78 -94 -95 -110 -111 -139 -141 -152 -153 -164 -165 -176 0
-22 -41 -43 -59 -61 -77 -78 -94 -95 -110 -111 -139 -141 -152 -153 -164 -165 -176 0
-22 -42 -43 -59 -62 -77 -78 -94 -95 -110 -111 -139 -141 -152 -153 -164 -165 -176 0
-21 -41 -42 -60 -61 -77 -79 -94 -95 -110 -111 -139 -141 -152 -153 -164 -165 -176 0
-22 -41 -43 -60 -61 -77 -79 -94 -95 -110 -111 -139 -141 -152 -153 -164 -165 -176 0
-22 -42 -43 -60 -62 -77 -79 -94 -95 -110 -111 -139 -141 -152 -153 -164 -165 -176 0
-22 -42 -43 -61 -62 -77 -80 -94 -95 -110 -111 -139 -141 -152 -153 -164 -165 -176 0
-21 -41 -42 -60 -61 -78 -79 -94 -96 -110 -111 -139 -141 -152 -153 -164 -165 -176 0
-22 -41 -43 -60 -61 -78 -79 -94 -96 -110 -111 -139 -141 -152 -153 -164 -165 -176 0
-22 -42 -43 -60 -62 -78 -79 -94 -96 -110 -111 -139 -141 -152 -153 -164 -165 -176 0
-22 -42 -43 -61 -62 -78 -80 -94 -96 -110 -111 -139 -141 -152 -153 -164 -165 -176 0
-22 -42 -43 -61 -62 -79 -80 -94 -97 -110 -111 -139 -141 -152 -153 -164 -165 -176 0
-21 -41 -42 -60 -61 -78 -79 -95 -96 -110 -112 -139 -141 -152 -153 -164 -165 -176 0
-22 -41 -43 -60 -61 -78 -79 -95 -96 -110 -112 -139 -141 -152 -153 -164 -165 -176 0
-22 -42 -43 -60 -62 -78 -79 -95 -96 -110 -112 -139 -141 -152 -153 -164 -165 -176 0
-22 -42 -43 -61 -62 -78 -80 -95 -96 -110 -112 -139 -141 -152 -153 -164 -165 -176 0
-22 -42 -43 -61 -62 -79 -80 -95 -97 -110 -112 -139 -141 -152 -153 -164 -165 -176 0
-22 -42 -43 -61 -62 -79 -80 -96 -97 -110 -113 -139 -141 -152 -153 -164 -165 -176 0
-21 -41 -42 -60 -61 -78 -79 -95 -96 -111 -112 -139 -142 -152 -153 -164 -165 -176 0
-22 -41 -43 -60 -61 -78 -79 -95 -96 -111 -112 -139 -142 -152 -153 -164 -165 -176 0
-22 -42 -43 -60 -62 -78 -79 -95 -96 -111 -112 -139 -142 -152 -153 -164 -165 -176 0
-22 -42 -43 -61 -62 -78 -80 -95 -96 -111 -112 -139 -142 -152 -153 -164 -165 -176 0
-22 -42 -43 -61 -62 -79 -80 -95 -97 -111 -112 -139 -142 -152 -153 -164 -165 -176 0
-22 -42 -43 -61 -62 -79 -80 -96 -97 -111 -113 -139 -142 -152 -153 -164 -165 -176 0
-22 -42 -43 -61 -62 -79 -80 -96 -97 -112 -113 -139 -143 -152 -153 -164 -165 -176 0
-20 -40 -41 -59 -60 -77 -78 -94 -95 -110 -111 -140 -141 -152 -154 -164 -165 -176 0
-21 -40 -42 -59 -60 -77 -78 -94 -95 -110 -111 -140 -141 -152 -154 -164 -165 -176 0
-22 -40 -43 -59 -60 -77 -78 -94 -95 -110 -111 -140 -141 -152 -154 -164 -165 -176 0
-21 -41 -42 -59 -61 -77 -78 -94 -95 -110 -111 -140 -141 -152 -154 -164 -165 -176 0
-22 -41 -43 -59 -61 -77 -78 -94 -95 -110 -111 -140 -141 -152 -154 -164 -165 -176 0
-22 -42 -43 -59 -62 -77 -78 -94 -95 -110 -111 -140 -141 -152 -154 -164 -165 -176 0
-21 -41 -42 -60 -61 -77 -79 -94 -95 -110 -111 -140 -141 -152 -154 -164 -165 -176 0
-22 -41 -43 -60 -61 -77 -79 -94 -95 -110 -111 -140 -141 -152 -154 -164 -165 -176 0
-22 -42 -43 -60 -62 -77 -79 -94 -95 -110 -111 -140 -141 -152 -154 -164 -165 -176 0
-22 -42 -43 -61 -62 -77 -80 -94 -95 -110 -111 -140 -141 -152 -154 -164 -165 -176 0
-21 -41 -42 -60 -61 -78 -79 -94 -96 -110 -111 -140 -141 -152 -154 -164 -165 -176 0
-22 -41 -43 -60 -61 -78 -79 -94 -96 -110 -111 -140 -141 -152 -154 -164 -165 -176 0
-22 -42 -43 -60 -62 -78 -79 -94 -96 -110 -111 -140 -141 -152 -154 -164 -165 -176 0
-22 -42 -43 -61 -62 -78 -80 -94 -96 -110 -111 -140 -141 -152 -154 -164 -165 -176 0
-22 -42 -43 -61 -62 -79 -80 -94 -97 -110 -111 -140 -141 -152 -154 -164 -165 -176 0
-21 -41 -42 -60 -61 -78 -79 -95 -96 -110 -112 -140 -141 -152 -154 -164 -165 -176 0
-22 -41 -43 -60 -61 -78 -79 -95 -96 -110 -112 -140 -141 -152 -154 -164 -165 -176 0
-22 -42 -43 -60 -62 -78 -79 -95 -96 -110 -112 -140 -141 -152 -154 -164 -165 -176 0
-22 -42 -43 -61 -62 -78 -80 -95 -96 -110 -112 -140 -141 -152 -154 -164 -165 -176 0
-22 -42 -43 -61 -62 -79 -80 -95 -97 -110 -112 -140 -141 -152 -154 -164 -165 -176 0
-22 -42 -43 -61 -62 -79 -80 -96 -97 -110 -113 -140 -141 -152 -154 -164 -165 -176 0
-21 -41 -42 -60 -61 -78 -79 -95 -96 -111 -112 -140 -142 -152 -154 -164 -165 -176 0
-22 -41 -43 -60 -61 -78 -79 -95 -96 -111 -112 -140 -142 -152 -154 -164 -165 -176 0
-22 -42 -43 -60 -62 -78 -79 -95 -96 -111 -112 -140 -142 -152 -154 -164 -165 -176 0
-22 -42 -43 -61 -62 -78 -80 -95 -96 -111 -112 -140 -142 -152 -154 -164 -165 -176 0
-22 -42 -43 -61 -62 -79 -80 -95 -97 -111 -112 -140 -142 -152 -154 -164 -165 -176 0
-22 -42 -43 -61 -62 -79 -80 -96 -97 -111 -113 -140 -142 -152 -154 -164 -165 -176 0
-22 -42 -43 -61 -62 -79 -80 -96 -97 -112 -113 -140 -143 -152 -154 -164 -165 -176 0
-21 -41 -42 -60 -61 -78 -79 -95 -96 -111 -112 -141 -142 -152 -155 -164 -165 -176 0
-22 -41 -43 -60 -61 -78 -79 -95 -96 -111 -112 -141 -142 -152 -155 -164 -165 -176 0
-22 -42 -43 -60 -62 -78 -79 -95 -96 -111 -112 -141 -142 -152 -155 -164 -165 -176 0
-22 -42 -43 -61 -62 -78 -80 -95 -96 -111 -112 -141 -142 -152 -155 -164 -165 -176 0
-22 -42 -43 -61 -62 -79 -80 -95 -97 -111 -112 -141 -142 -152 -155 -164 -165 -176 0
-22 -42 -43 -61 -62 -79 -80 -96 -97 -111 -113 -141 -142 -152 -155 -164 -165 -176 0
-22 -42 -43 -61 -62 -79 -80 -96 -97 -112 -113 -141 -143 -152 -155 -164 -165 -176 0
-22 -42 -43 -61 -62 -79 -80 -96 -97 -112 -113 -142 -143 -152 -156 -164 -165 -176 0
-20 -40 -41 -59 -60 -77 -78 -94 -95 -110 -111 -140 -141 -153 -154 -164 -166 -176 0
-21 -40 -42 -59 -60 -77 -78 -94 -95 -110 -111 -140 -141 -153 -154 -164 -166 -176 0
-22 -40 -43 -59 -60 -77 -78 -94 -95 -110 -111 -140 -141 -153 -154 -164 -166 -176 0
-21 -41 -42 -59 -61 -77 -78 -94 -95 -110 -111 -140 -141 -153 -154 -164 -166 -176 0
-22 -41 -43 -59 -61 -77 -78 -94 -95 -110 -111 -140 -141 -153 -154 -164 -166 -176 0
-22 -42 -43 -59 -62 -77 -78 -94 -95 -110 -111 -140 -141 -153 -154 -164 -166 -176 0
-21 -41 -42 -60 -61 -77 -79 -94 -95 -110 -111 -140 -141 -153 -154 -164 -166 -176 0
-22 -41 -43 -60 -61 -77 -79 -94 -95 -110 -111 -140 -141 -153 -154 -164 -166 -176 0
-22 -42 -43 -60 -62 -77 -79 -94 -95 -110 -111 -140 -141 -153 -154 -164 -166 -176 0
-22 -42 -43 -61 -62 -77 -80 -94 -95 -110 -111 -140 -141 -153 -154 -164 -166 -176 0
-21 -41 -42 -60 -61 -78 -79 -94 -96 -110 -111 -140 -141 -153 -154 -164 -166 -176 0
-22 -41 -43 -60 -61 -78 -79 -94 -96 -110 -111 -140 -141 -153 -154 -164 -166 -176 0
-22 -42 -43 -60 -62 -78 -79 -94 -96 -110 -111 -140 -141 -153 -154 -164 -166 -176 0
-22 -42 -43 -61 -62 -78 -80 -94 -96 -110 -111 -140 -141 -153 -154 -164 -166 -176 0
-22 -42 -43 -61 -62 -79 -80 -94 -97 -110 -111 -140 -141 -153 -154 -164 -166 -176 0
-21 -41 -42 -60 -61 -78 -79 -95 -96 -110 -112 -140 -141 -153 -154 -164 -166 -176 0
-22 -41 -43 -60 -61 -78 -79 -95 -96 -110 -112 -140 -141 -153 -154 -164 -166 -176 0
-22 -42 -43 -60 -62 -78 -79 -95 -96 -110 -112 -140 -141 -153 -154 -164 -166 -176 0
-22 -42 -43 -61 -62 -78 -80 -95 -96 -110 -112 -140 -141 -153 -154 -164 -166 -176 0
-22 -42 -43 -61 -62 -79 -80 -95 -97 -110 -112 -140 -141 -153 -154 -164 -166 -176 0
-22 -42 -43 -61 -62 -79 -80 -96 -97 -110 -113 -140 -141 -153 -154 -164 -166 -176 0
-21 -41 -42 -60 -61 -78 -79 -95 -96 -111 -112 -140 -142 -153 -154 -164 -166 -176 0
-22 -41 -43 -60 -61 -78 -79 -95 -96 -111 -112 -140 -142 -153 -154 -164 -166 -176 0
-22 -42 -43 -60 -62 -78 -79 -95 -96 -111 -112 -140 -142 -153 -154 -164 -166 -176 0
-22 -42 -43 -61 -62 -78 -80 -95 -96 -111 -112 -140 -142 -153 -154 -164 -166 -176 0
-22 -42 -43 -61 -62 -79 -80 -95 -97 -111 -112 -140 -142 -153 -154 -164 -166 -176 0
-22 -42 -43 -61 -62 -79 -80 -96 -97 -111 -113 -140 -142 -153 -154 -164 -166 -176 0
-22 -42 -43 -61 -62 -79 -80 -96 -97 -112 -113 -140 -143 -153 -154 -164 -166 -176 0
-21 -41 -42 -60 -61 -78 -79 -95 -96 -111 -112 -141 -142 -153 -155 -164 -166 -176 0
-22 -41 -43 -60 -61 -78 -79 -95 -96 -111 -112 -141 -142 -153 -155 -164 -166 -176 0
-22 -42 -43 -60 -62 -78 -79 -95 -96 -111 -112 -141 -142 -153 -155 -164 -166 -176 0
-22 -42 -43 -61 -62 -78 -80 -95 -96 -111 -112 -141 -142 -153 -155 -164 -166 -176 0
-22 -42 -43 -61 -62 -79 -80 -95 -97 -111 -112 -141 -142 -153 -155 -164 -166 -176 0
-22 -42 -43 -61 -62 -79 -80 -96 -97 -111 -113 -141 -142 -153 -155 -164 -166 -176 0
-22 -42 -43 -61 -62 -79 -80 -96 -97 -112 -113 -141 -143 -153 -155 -164 -166 -176 0
-22 -42 -43 -61 -62 -79 -80 -96 -97 -112 -113 -142 -143 -153 -156 -164 -166 -176 0
-21 -41 -42 -60 -61 -78 -79 -95 -96 -111 -112 -141 -142 -154 -155 -164 -167 -176 0
-22 -41 -43 -60 -61 -78 -79 -95 -96 -111 -112 -141 -142 -154 -155 -164 -167 -176 0
-22 -42 -43 -60 -62 -78 -79 -95 -96 -111 -112 -141 -142 -154 -155 -164 -167 -176 0
-22 -42 -43 -61 -62 -78 -80 -95 -96 -111 -112 -141 -142 -154 -155 -164 -167 -176 0
-22 -42 -43 -61 -62 -79 -80 -95 -97 -111 -112 -141 -142 -154 -155 -164 -167 -176 0
-22 -42 -43 -61 -62 -79 -80 -96 -97 -111 -113 -141 -142 -154 -155 -164 -167 -176 0
-22 -42 -43 -61 -62 -79 -80 -96 -97 -112 -113 -141 -143 -154 -155 -164 -167 -176 0
-22 -42 -43 -61 -62 -79 -80 -96 -97 -112 -113 -142 -143 -154 -156 -164 -167 -176 0
-22 -42 -43 -61 -62 -79 -80 -96 -97 -112 -113 -142 -143 -155 -156 -164 -168 -176 0
-20 -40 -41 -59 -60 -77 -78 -94 -95 -110 -111 -140 -141 -153 -154 -165 -166 -177 0
-21 -40 -42 -59 -60 -77 -78 -94 -95 -110 -111 -140 -141 -153 -154 -165 -166 -177 0
-22 -40 -43 -59 -60 -77 -78 -94 -95 -110 -111 -140 -141 -153 -154 -165 -166 -177 0
-21 -41 -42 -59 -61 -77 -78 -94 -95 -110 -111 -140 -141 -153 -154 -165 -166 -177 0
-22 -41 -43 -59 -61 -77 -78 -94 -95 -110 -111 -140 -141 -153 -154 -165 -166 -177 0
-22 -42 -43 -59 -62 -77 -78 -94 -95 -110 -111 -140 -141 -153 -154 -165 -166 -177 0
-21 -41 -42 -60 -61 -77 -79 -94 -95 -110 -111 -140 -141 -153 -154 -165 -166 -177 0
-22 -41 -43 -60 -61 -77 -79 -94 -95 -110 -111 -140 -141 -153 -154 -165 -166 -177 0
-22 -42 -43 -60 -62 -77 -79 -94 -95 -110 -111 -140 -141 -153 -154 -165 -166 -177 0
-22 -42 -43 -61 -62 -77 -80 -94 -95 -110 -111 -140 -141 -153 -154 -165 -166 -177 0
-21 -41 -42 -60 -61 -78 -79 -94 -96 -110 -111 -140 -141 -153 -154 -165 -166 -177 0
-22 -41 -43 -60 -61 -78 -79 -94 -96 -110 -111 -140 -141 -153 -154 -165 -166 -177 0
-22 -42 -43 -60 -62 -78 -79 -94 -96 -110 -111 -140 -141 -153 -154 -165 -166 -177 0
-22 -42 -43 -61 -62 -78 -80 -94 -96 -110 -111 -140 -141 -153 -154 -165 -166 -177 0
-22 -42 -43 -61 -62 -79 -80 -94 -97 -110 -111 -140 -141 -153 -154 -165 -166 -177 0
-21 -41 -42 -60 -61 -78 -79 -95 -96 -110 -112 -140 -141 -153 -154 -165 -166 -177 0
-22 -41 -43 -60 -61 -78 -79 -95 -96 -110 -112 -140 -141 -153 -154 -165 -166 -177 0
-22 -42 -43 -60 -62 -78 -79 -95 -96 -110 -112 -140 -141 -153 -154 -165 -166 -177 0
-22 -42 -43 -61 -62 -78 -80 -95 -96 -110 -112 -140 -141 -153 -154 -165 -166 -177 0
-22 -42 -43 -61 -62 -79 -80 -95 -97 -110 -112 -140 -141 -153 -154 -165 -166 -177 0
-22 -42 -43 -61 -62 -79 -80 -96 -97 -110 -113 -140 -141 -153 -154 -165 -166 -177 0
-21 -41 -42 -60 -61 -78 -79 -95 -96 -111 -112 -140 -142 -153 -154 -165 -166 -177 0
-22 -41 -43 -60 -61 -78 -79 -95 -96 -111 -112 -140 -142 -153 -154 -165 -166 -177 0
-22 -42 -43 -60 -62 -78 -79 -95 -96 -111 -112 -140 -142 -153 -154 -165 -166 -177 0
-22 -42 -43 -61 -62 -78 -80 -95 -96 -111 -112 -140 -142 -153 -154 -165 -166 -177 0
-22 -42 -43 -61 -62 -79 -80 -95 -97 -111 -112 -140 -142 -153 -154 -165 -166 -177 0
-22 -42 -43 -61 -62 -79 -80 -96 -97 -111 -113 -140 -142 -153 -154 -165 -166 -177 0
-22 -42 -43 -61 -62 -79 -80 -96 -97 -112 -113 -140 -143 -153 -154 -165 -166 -177 0
-21 -41 -42 -60 -61 -78 -79 -95 -96 -111 -112 -141 -142 -153 -155 -165 -166 -177 0
-22 -41 -43 -60 -61 -78 -79 -95 -96 -111 -112 -141 -142 -153 -155 -165 -166 -177 0
-22 -42 -43 -60 -62 -78 -79 -95 -96 -111 -112 -141 -142 -153 -155 -165 -166 -177 0
-22 -42 -43 -61 -62 -78 -80 -95 -96 -111 -112 -141 -142 -153 -155 -165 -166 -177 0
-22 -42 -43 -61 -62 -79 -80 -95 -97 -111 -112 -141 -142 -153 -155 -165 -166 -177 0
-22 -42 -43 -61 -62 -79 -80 -96 -97 -111 -113 -141 -142 -153 -155 -165 -166 -177 0
-22 -42 -43 -61 -62 -79 -80 -96 -97 -112 -113 -141 -143 -153 -155 -165 -166 -177 0
-22 -42 -43 -61 -62 -79 -80 -96 -97 -112 -113 -142 -143 -153 -156 -165 -166 -177 0
-21 -41 -42 -60 -61 -78 -79 -95 -96 -111 -112 -141 -142 -154 -155 -165 -167 -177 0
-22 -41 -43 -60 -61 -78 -79 -95 -96 -111 -112 -141 -142 -154 -155 -165 -167 -177 0
-22 -42 -43 -60 -62 -78 -79 -95 -96 -111 -112 -141 -142 -154 -155 -165 -167 -177 0
-22 -42 -43 -61 -62 -78 -80 -95 -96 -111 -112 -141 -142 -154 -155 -165 -167 -177 0
-22 -42 -43 -61 -62 -79 -80 -95 -97 -111 -112 -141 -142 -154 -155 -165 -167 -177 0
-22 -42 -43 -61 -62 -79 -80 -96 -97 -111 -113 -141 -142 -154 -155 -165 -167 -177 0
-22 -42 -43 -61 -62 -79 -80 -96 -97 -112 -113 -141 -143 -154 -155 -165 -167 -177 0
-22 -42 -43 -61 -62 -79 -80 -96 -97 -112 -113 -142 -143 -154 -156 -165 -167 -177 0
-22 -42 -43 -61 -62 -79 -80 -96 -97 -112 -113 -142 -143 -155 -156 -165 -168 -177 0
-21 -41 -42 -60 -61 -78 -79 -95 -96 -111 -112 -141 -142 -154 -155 -166 -167 -178 0
-22 -41 -43 -60 -61 -78 -79 -95 -96 -111 -112 -141 -142 -154 -155 -166 -167 -178 0
-22 -42 -43 -60 -62 -78 -79 -95 -96 -111 -112 -141 -142 -154 -155 -166 -167 -178 0
-22 -42 -43 -61 -62 -78 -80 -95 -96 -111 -112 -141 -142 -154 -155 -166 -167 -178 0
-22 -42 -43 -61 -62 -79 -80 -95 -97 -111 -112 -141 -142 -154 -155 -166 -167 -178 0
-22 -42 -43 -61 -62 -79 -80 -96 -97 -111 -113 -141 -142 -154 -155 -166 -167 -178 0
-22 -42 -43 -61 -62 -79 -80 -96 -97 -112 -113 -141 -143 -154 -155 -166 -167 -178 0
-22 -42 -43 -61 -62 -79 -80 -96 -97 -112 -113 -142 -143 -154 -156 -166 -167 -178 0
-22 -42 -43 -61 -62 -79 -80 -96 -97 -112 -113 -142 -143 -155 -156 -166 -168 -178 0
-22 -42 -43 -61 -62 -79 -80 -96 -97 -112 -113 -142 -143 -155 -156 -167 -168 -179 0
-20 -40 -41 -59 -60 -77 -78 -94 -95 -110 -111 -140 -141 -153 -154 -165 -166 -188 0
-21 -40 -42 -59 -60 -77 -78 -94 -95 -110 -111 -140 -141 -153 -154 -165 -166 -188 0
-22 -40 -43 -59 -60 -77 -78 -94 -95 -110 -111 -140 -141 -153 -154 -165 -166 -188 0
-21 -41 -42 -59 -61 -77 -78 -94 -95 -110 -111 -140 -141 -153 -154 -165 -166 -188 0
-22 -41 -43 -59 -61 -77 -78 -94 -95 -110 -111 -140 -141 -153 -154 -165 -166 -188 0
-22 -42 -43 -59 -62 -77 -78 -94 -95 -110 -111 -140 -141 -153 -154 -165 -166 -188 0
-21 -41 -42 -60 -61 -77 -79 -94 -95 -110 -111 -140 -141 -153 -154 -165 -166 -188 0
-22 -41 -43 -60 -61 -77 -79 -94 -95 -110 -111 -140 -141 -153 -154 -165 -166 -188 0
-22 -42 -43 -60 -62 -77 -79 -94 -95 -110 -111 -140 -141 -153 -154 -165 -166 -188 0
-22 -42 -43 -61 -62 -77 -80 -94 -95 -110 -111 -140 -141 -153 -154 -165 -166 -188 0
-21 -41 -42 -60 -61 -78 -79 -94 -96 -110 -111 -140 -141 -153 -154 -165 -166 -188 0
-22 -41 -43 -60 -61 -78 -79 -94 -96 -110 -111 -140 -141 -153 -154 -165 -166 -188 0
-22 -42 -43 -60 -62 -78 -79 -94 -96 -110 -111 -140 -141 -153 -154 -165 -166 -188 0
-22 -42 -43 -61 -62 -78 -80 -94 -96 -110 -111 -140 -141 -153 -154 -165 -166 -188 0
-22 -42 -43 -61 -62 -79 -80 -94 -97 -110 -111 -140 -141 -153 -154 -165 -166 -188 0
-21 -41 -42 -60 -61 -78 -79 -95 -96 -110 -112 -140 -141 -153 -154 -165 -166 -188 0
-22 -41 -43 -60 -61 -78 -79 -95 -96 -110 -112 -140 -141 -153 -154 -165 -166 -188 0
-22 -42 -43 -60 -62 -78 -79 -95 -96 -110 -112 -140 -141 -153 -154 -165 -166 -188 0
-22 -42 -43 -61 -62 -78 -80 -95 -96 -110 -112 -140 -141 -153 -154 -165 -166 -188 0
-22 -42 -43 -61 -62 -79 -80 -95 -97 -110 -112 -140 -141 -153 -154 -165 -166 -188 0
-22 -42 -43 -61 -62 -79 -80 -96 -97 -110 -113 -140 -141 -153 -154 -165 -166 -188 0
-21 -41 -42 -60 -61 -78 -79 -95 -96 -111 -112 -140 -142 -153 -154 -165 -166 -188 0
-22 -41 -43 -60 -61 -78 -79 -95 -96 -111 -112 -140 -142 -153 -154 -165 -166 -188 0
-22 -42 -43 -60 -62 -78 -79 -95 -96 -111 -112 -140 -142 -153 -154 -165 -166 -188 0
-22 -42 -43 -61 -62 -78 -80 -95 -96 -111 -112 -140 -142 -153 -154 -165 -166 -188 0
-22 -42 -43 -61 -62 -79 -80 -95 -97 -111 -112 -140 -142 -153 -154 -165 -166 -188 0
-22 -42 -43 -61 -62 -79 -80 -96 -97 -111 -113 -140 -142 -153 -154 -165 -166 -188 0
-22 -42 -43 -61 -62 -79 -80 -96 -97 -112 -113 -140 -143 -153 -154 -165 -166 -188 0
-21 -41 -42 -60 -61 -78 -79 -95 -96 -111 -112 -141 -142 -153 -155 -165 -166 -188 0
-22 -41 -43 -60 -61 -78 -79 -95 -96 -111 -112 -141 -142 -153 -155 -165 -166 -188 0
-22 -42 -43 -60 -62 -78 -79 -95 -96 -111 -112 -141 -142 -153 -155 -165 -166 -188 0
-22 -42 -43 -61 -62 -78 -80 -95 -96 -111 -112 -141 -142 -153 -155 -165 -166 -188 0
-22 -42 -43 -61 -62 -79 -80 -95 -97 -111 -112 -141 -142 -153 -155 -165 -166 -188 0
-22 -42 -43 -61 -62 -79 -80 -96 -97 -111 -113 -141 -142 -153 -155 -165 -166 -188 0
-22 -42 -43 -61 -62 -79 -80 -96 -97 -112 -113 -141 -143 -153 -155 -165 -166 -188 0
-22 -42 -43 -61 -62 -79 -80 -96 -97 -112 -113 -142 -143 -153 -156 -165 -166 -188 0
-21 -41 -42 -60 -61 -78 -79 -95 -96 -111 -112 -141 -142 -154 -155 -165 -167 -188 0
-22 -41 -43 -60 -61 -78 -79 -95 -96 -111 -112 -141 -142 -154 -155 -165 -167 -188 0
-22 -42 -43 -60 -62 -78 -79 -95 -96 -111 -112 -141 -142 -154 -155 -165 -167 -188 0
-22 -42 -43 -61 -62 -78 -80 -95 -96 -111 -112 -141 -142 -154 -155 -165 -167 -188 0
-22 -42 -43 -61 -62 -79 -80 -95 -97 -111 -112 -141 -142 -154 -155 -165 -167 -188 0
-22 -42 -43 -61 -62 -79 -80 -96 -97 -111 -113 -141 -142 -154 -155 -165 -167 -188 0
-22 -42 -43 -61 -62 -79 -80 -96 -97 -112 -113 -141 -143 -154 -155 -165 -167 -188 0
-22 -42 -43 -61 -62 -79 -80 -96 -97 -112 -113 -142 -143 -154 -156 -165 -167 -188 0
-22 -42 -43 -61 -62 -79 -80 -96 -97 -112 -113 -142 -143 -155 -156 -165 -168 -188 0
-21 -41 -42 -60 -61 -78 -79 -95 -96 -111 -112 -141 -142 -154 -155 -166 -167 -189 0
-22 -41 -43 -60 -61 -78 -79 -95 -96 -111 -112 -141 -142 -154 -155 -166 -167 -189 0
-22 -42 -43 -60 -62 -78 -79 -95 -96 -111 -112 -141 -142 -154 -155 -166 -167 -189 0
-22 -42 -43 -61 -62 -78 -80 -95 -96 -111 -112 -141 -142 -154 -155 -166 -167 -189 0
-22 -42 -43 -61 -62 -79 -80 -95 -97 -111 -112 -141 -142 -154 -155 -166 -167 -189 0
-22 -42 -43 -61 -62 -79 -80 -96 -97 -111 -113 -141 -142 -154 -155 -166 -167 -189 0
-22 -42 -43 -61 -62 -79 -80 -96 -97 -112 -113 -141 -143 -154 -155 -166 -167 -189 0
-22 -42 -43 -61 -62 -79 -80 -96 -97 -112 -113 -142 -143 -154 -156 -166 -167 -189 0
-22 -42 -43 -61 -62 -79 -80 -96 -97 -112 -113 -142 -143 -155 -156 -166 -168 -189 0
-22 -42 -43 -61 -62 -79 -80 -96 -97 -112 -113 -142 -143 -155 -156 -167 -168 -190 0
-21 -41 -42 -60 -61 -78 -79 -95 -96 -111 -112 -141 -142 -154 -155 -166 -167 -199 0
-22 -41 -43 -60 -61 -78 -79 -95 -96 -111 -112 -141 -142 -154 -155 -166 -167 -199 0
-22 -42 -43 -60 -62 -78 -79 -95 -96 -111 -112 -141 -142 -154 -155 -166 -167 -199 0
-22 -42 -43 -61 -62 -78 -80 -95 -96 -111 -112 -141 -142 -154 -155 -166 -167 -199 0
-22 -42 -43 -61 -62 -79 -80 -95 -97 -111 -112 -141 -142 -154 -155 -166 -167 -199 0
-22 -42 -43 -61 -62 -79 -80 -96 -97 -111 -113 -141 -142 -154 -155 -166 -167 -199 0
-22 -42 -43 -61 -62 -79 -80 -96 -97 -112 -113 -141 -143 -154 -155 -166 -167 -199 0
-22 -42 -43 -61 -62 -79 -80 -96 -97 -112 -113 -142 -143 -154 -156 -166 -167 -199 0
-22 -42 -43 -61 -62 -79 -80 -96 -97 -112 -113 -142 -143 -155 -156 -166 -168 -199 0
-22 -42 -43 -61 -62 -79 -80 -96 -97 -112 -113 -142 -143 -155 -156 -167 -168 -200 0
-22 -42 -43 -61 -62 -79 -80 -96 -97 -112 -113 -142 -143 -155 -156 -167 -168 -209 0
-20 -40 -41 -59 -60 -77 -78 -94 -95 -110 -111 -140 -141 -153 -154 -177 -178 -188 0
-21 -40 -42 -59 -60 -77 -78 -94 -95 -110 -111 -140 -141 -153 -154 -177 -178 -188 0
-22 -40 -43 -59 -60 -77 -78 -94 -95 -110 -111 -140 -141 -153 -154 -177 -178 -188 0
-21 -41 -42 -59 -61 -77 -78 -94 -95 -110 -111 -140 -141 -153 -154 -177 -178 -188 0
-22 -41 -43 -59 -61 -77 -78 -94 -95 -110 -111 -140 -141 -153 -154 -177 -178 -188 0
-22 -42 -43 -59 -62 -77 -78 -94 -95 -110 -111 -140 -141 -153 -154 -177 -178 -188 0
-21 -41 -42 -60 -61 -77 -79 -94 -95 -110 -111 -140 -141 -153 -154 -177 -178 -188 0
-22 -41 -43 -60 -61 -77 -79 -94 -95 -110 -111 -140 -141 -153 -154 -177 -178 -188 0
-22 -42 -43 -60 -62 -77 -79 -94 -95 -110 -111 -140 -141 -153 -154 -177 -178 -188 0
-22 -42 -43 -61 -62 -77 -80 -94 -95 -110 -111 -140 -141 -153 -154 -177 -178 -188 0
-21 -41 -42 -60 -61 -78 -79 -94 -96 -110 -111 -140 -141 -153 -154 -177 -178 -188 0
-22 -41 -43 -60 -61 -78 -79 -94 -96 -110 -111 -140 -141 -153 -154 -177 -178 -188 0
-22 -42 -43 -60 -62 -78 -79 -94 -96 -110 -111 -140 -141 -153 -154 -177 -178 -188 0
-22 -42 -43 -61 -62 -78 -80 -94 -96 -110 -111 -140 -141 -153 -154 -177 -178 -188 0
-22 -42 -43 -61 -62 -79 -80 -94 -97 -110 -111 -140 -141 -153 -154 -177 -178 -188 0
-21 -41 -42 -60 -61 -78 -79 -95 -96 -110 -112 -140 -141 -153 -154 -177 -178 -188 0
-22 -41 -43 -60 -61 -78 -79 -95 -96 -110 -112 -140 -141 -153 -154 -177 -178 -188 0
-22 -42 -43 -60 -62 -78 -79 -95 -96 -110 -112 -140 -141 -153 -154 -177 -178 -188 0
-22 -42 -43 -61 -62 -78 -80 -95 -96 -110 -112 -140 -141 -153 -154 -177 -178 -188 0
-22 -42 -43 -61 -62 -79 -80 -95 -97 -110 -112 -140 -141 -153 -154 -177 -178 -188 0
-22 -42 -43 -61 -62 -79 -80 -96 -97 -110 -113 -140 -141 -153 -154 -177 -178 -188 0
-21 -41 -42 -60 -61 -78 -79 -95 -96 -111 -112 -140 -142 -153 -154 -177 -178 -188 0
-22 -41 -43 -60 -61 -78 -79 -95 -96 -111 -112 -140 -142 -153 -154 -177 -178 -188 0
-22 -42 -43 -60 -62 -78 -79 -95 -96 -111 -112 -140 -142 -153 -154 -177 -178 -188 0
-22 -42 -43 -61 -62 -78 -80 -95 -96 -111 -112 -140 -142 -153 -154 -177 -178 -188 0
-22 -42 -43 -61 -62 -79 -80 -95 -97 -111 -112 -140 -142 -153 -154 -177 -178 -188 0
-22 -42 -43 -61 -62 -79 -80 -96 -97 -111 -113 -140 -142 -153 -154 -177 -178 -188 0
-22 -42 -43 -61 -62 -79 -80 -96 -97 -112 -113 -140 -143 -153 -154 -177 -178 -188 0
-21 -41 -42 -60 -61 -78 -79 -95 -96 -111 -112 -141 -142 -153 -155 -177 -178 -188 0
-22 -41 -43 -60 -61 -78 -79 -95 -96 -111 -112 -141 -142 -153 -155 -177 -178 -188 0
-22 -42 -43 -60 -62 -78 -79 -95 -96 -111 -112 -141 -142 -153 -155 -177 -178 -188 0
-22 -42 -43 -61 -62 -78 -80 -95 -96 -111 -112 -141 -142 -153 -155 -177 -178 -188 0
-22 -42 -43 -61 -62 -79 -80 -95 -97 -111 -112 -141 -142 -153 -155 -177 -178 -188 0
-22 -42 -43 -61 -62 -79 -80 -96 -97 -111 -113 -141 -142 -153 -155 -177 -178 -188 0
-22 -42 -43 -61 -62 -79 -80 -96 -97 -112 -113 -141 -143 -153 -155 -177 -178 -188 0
-22 -42 -43 -61 -62 -79 -80 -96 -97 -112 -113 -142 -143 -153 -156 -177 -178 -188 0
-21 -41 -42 -60 -61 -78 -79 -95 -96 -111 -112 -141 -142 -154 -155 -177 -179 -188 0
-22 -41 -43 -60 -61 -78 -79 -95 -96 -111 -112 -141 -142 -154 -155 -177 -179 -188 0
-22 -42 -43 -60 -62 -78 -79 -95 -96 -111 -112 -141 -142 -154 -155 -177 -179 -188 0
-22 -42 -43 -61 -62 -78 -80 -95 -96 -111 -112 -141 -142 -154 -155 -177 -179 -188 0
-22 -42 -43 -61 -62 -79 -80 -95 -97 -111 -112 -141 -142 -154 -155 -177 -179 -188 0
-22 -42 -43 -61 -62 -79 -80 -96 -97 -111 -113 -141 -142 -154 -155 -177 -179 -188 0
-22 -42 -43 -61 -62 -79 -80 -96 -97 -112 -113 -141 -143 -154 -155 -177 -179 -188 0
-22 -42 -43 -61 -62 -79 -80 -96 -97 -112 -113 -142 -143 -154 -156 -177 -179 -188 0
-22 -42 -43 -61 -62 -79 -80 -96 -97 -112 -113 -142 -143 -155 -156 -177 -180 -188 0
-21 -41 -42 -60 -61 -78 -79 -95 -96 -111 -112 -141 -142 -154 -155 -178 -179 -189 0
-22 -41 -43 -60 -61 -78 -79 -95 -96 -111 -112 -141 -142 -154 -155 -178 -179 -189 0
-22 -42 -43 -60 -62 -78 -79 -95 -96 -111 -112 -141 -142 -154 -155 -178 -179 -189 0
-22 -42 -43 -61 -62 -78 -80 -95 -96 -111 -112 -141 -142 -154 -155 -178 -179 -189 0
-22 -42 -43 -61 -62 -79 -80 -95 -97 -111 -112 -141 -142 -154 -155 -178 -179 -189 0
-22 -42 -43 -61 -62 -79 -80 -96 -97 -111 -113 -141 -142 -154 -155 -178 -179 -189 0
-22 -42 -43 -61 -62 -79 -80 -96 -97 -112 -113 -141 -143 -154 -155 -178 -179 -189 0
-22 -42 -43 -61 -62 -79 -80 -96 -97 -112 -113 -142 -143 -154 -156 -178 -179 -189 0
-22 -42 -43 -61 -62 -79 -80 -96 -97 -112 -113 -142 -143 -155 -156 -178 -180 -189 0
-22 -42 -43 -61 -62 -79 -80 -96 -97 -112 -113 -142 -143 -155 -156 -179 -180 -190 0
-21 -41 -42 -60 -61 -78 -79 -95 -96 -111 -112 -141 -142 -154 -155 -178 -179 -199 0
-22 -41 -43 -60 -61 -78 -79 -95 -96 -111 -112 -141 -142 -154 -155 -178 -179 -199 0
-22 -42 -43 -60 -62 -78 -79 -95 -96 -111 -112 -141 -142 -154 -155 -178 -179 -199 0
-22 -42 -43 -61 -62 -78 -80 -95 -96 -111 -112 -141 -142 -154 -155 -178 -179 -199 0
-22 -42 -43 -61 -62 -79 -80 -95 -97 -111 -112 -141 -142 -154 -155 -178 -179 -199 0
-22 -42 -43 -61 -62 -79 -80 -96 -97 -111 -113 -141 -142 -154 -155 -178 -179 -199 0
-22 -42 -43 -61 -62 -79 -80 -96 -97 -112 -113 -141 -143 -154 -155 -178 -179 -199 0
-22 -42 -43 -61 -62 -79 -80 -96 -97 -112 -113 -142 -143 -154 -156 -178 -179 -199 0
-22 -42 -43 -61 -62 -79 -80 -96 -97 -112 -113 -142 -143 -155 -156 -178 -180 -199 0
-22 -42 -43 -61 -62 -79 -80 -96 -97 -112 -113 -142 -143 -155 -156 -179 -180 -200 0
-22 -42 -43 -61 -62 -79 -80 -96 -97 -112 -113 -142 -143 -155 -156 -179 -180 -209 0
-21 -41 -42 -60 -61 -78 -79 -95 -96 -111 -112 -141 -142 -154 -155 -189 -190 -199 0
-22 -41 -43 -60 -61 -78 -79 -95 -96 -111 -112 -141 -142 -154 -155 -189 -190 -199 0
-22 -42 -43 -60 -62 -78 -79 -95 -96 -111 -112 -141 -142 -154 -155 -189 -190 -199 0
-22 -42 -43 -61 -62 -78 -80 -95 -96 -111 -112 -141 -142 -154 -155 -189 -190 -199 0
-22 -42 -43 -61 -62 -79 -80 -95 -97 -111 -112 -141 -142 -154 -155 -189 -190 -199 0
-22 -42 -43 -61 -62 -79 -80 -96 -97 -111 -113 -141 -142 -154 -155 -189 -190 -199 0
-22 -42 -43 -61 -62 -79 -80 -96 -97 -112 -113 -141 -143 -154 -155 -189 -190 -199 0
-22 -42 -43 -61 -62 -79 -80 -96 -97 -112 -113 -142 -143 -154 -156 -189 -190 -199 0
-22 -42 -43 -61 -62 -79 -80 -96 -97 -112 -113 -142 -143 -155 -156 -189 -191 -199 0
-22 -42 -43 -61 -62 -79 -80 -96 -97 -112 -113 -142 -143 -155 -156 -190 -191 -200 0
-22 -42 -43 -61 -62 -79 -80 -96 -97 -112 -113 -142 -143 -155 -156 -190 -191 -209 0
-22 -42 -43 -61 -62 -79 -80 -96 -97 -112 -113 -142 -143 -155 -156 -200 -201 -209 0
-20 -40 -41 -59 -60 -77 -78 -94 -95 -110 -111 -140 -141 -166 -167 -177 -178 -188 0
-21 -40 -42 -59 -60 -77 -78 -94 -95 -110 -111 -140 -141 -166 -167 -177 -178 -188 0
-22 -40 -43 -59 -60 -77 -78 -94 -95 -110 -111 -140 -141 -166 -167 -177 -178 -188 0
-21 -41 -42 -59 -61 -77 -78 -94 -95 -110 -111 -140 -141 -166 -167 -177 -178 -188 0
-22 -41 -43 -59 -61 -77 -78 -94 -95 -110 -111 -140 -141 -166 -167 -177 -178 -188 0
-22 -42 -43 -59 -62 -77 -78 -94 -95 -110 -111 -140 -141 -166 -167 -177 -178 -188 0
-21 -41 -42 -60 -61 -77 -79 -94 -95 -110 -111 -140 -141 -166 -167 -177 -178 -188 0
-22 -41 -43 -60 -61 -77 -79 -94 -95 -110 -111 -140 -141 -166 -167 -177 -178 -188 0
-22 -42 -43 -60 -62 -77 -79 -94 -95 -110 -111 -140 -141 -166 -167 -177 -178 -188 0
-22 -42 -43 -61 -62 -77 -80 -94 -95 -110 -111 -140 -141 -166 -167 -177 -178 -188 0
-21 -41 -42 -60 -61 -78 -79 -94 -96 -110 -111 -140 -141 -166 -167 -177 -178 -188 0
-22 -41 -43 -60 -61 -78 -79 -94 -96 -110 -111 -140 -141 -166 -167 -177 -178 -188 0
-22 -42 -43 -60 -62 -78 -79 -94 -96 -110 -111 -140 -141 -166 -167 -177 -178 -188 0
-22 -42 -43 -61 -62 -78 -80 -94 -96 -110 -111 -140 -141 -166 -167 -177 -178 -188 0
-22 -42 -43 -61 -62 -79 -80 -94 -97 -110 -111 -140 -141 -166 -167 -177 -178 -188 0
-21 -41 -42 -60 -61 -78 -79 -95 -96 -110 -112 -140 -141 -166 -167 -177 -178 -188 0
-22 -41 -43 -60 -61 -78 -79 -95 -96 -110 -112 -140 -141 -166 -167 -177 -178 -188 0
-22 -42 -43 -60 -62 -78 -79 -95 -96 -110 -112 -140 -141 -166 -167 -177 -178 -188 0
-22 -42 -43 -61 -62 -78 -80 -95 -96 -110 -112 -140 -141 -166 -167 -177 -178 -188 0
-22 -42 -43 -61 -62 -79 -80 -95 -97 -110 -112 -140 -141 -166 -167 -177 -178 -188 0
-22 -42 -43 -61 -62 -79 -80 -96 -97 -110 -113 -140 -141 -166 -167 -177 -178 -188 0
-21 -41 -42 -60 -61 -78 -79 -95 -96 -111 -112 -140 -142 -166 -167 -177 -178 -188 0
-22 -41 -43 -60 -61 -78 -79 -95 -96 -111 -112 -140 -142 -166 -167 -177 -178 -188 0
-22 -42 -43 -60 -62 -78 -79 -95 -96 -111 -112 -140 -142 -166 -167 -177 -178 -188 0
-22 -42 -43 -61 -62 -78 -80 -95 -96 -111 -112 -140 -142 -166 -167 -177 -178 -188 0
-22 -42 -43 -61 -62 -79 -80 -95 -97 -111 -112 -140 -142 -166 -167 -177 -178 -188 0
-22 -42 -43 -61 -62 -79 -80 -96 -97 -111 -113 -140 -142 -166 -167 -177 -178 -188 0
-22 -42 -43 -61 -62 -79 -80 -96 -97 -112 -113 -140 -143 -166 -167 -177 -178 -188 0
-21 -41 -42 -60 -61 -78 -79 -95 -96 -111 -112 -141 -142 -166 -168 -177 -178 -188 0
-22 -41 -43 -60 -61 -78 -79 -95 -96 -111 -112 -141 -142 -166 -168 -177 -178 -188 0
-22 -42 -43 -60 -62 -78 -79 -95 -96 -111 -112 -141 -142 -166 -168 -177 -178 -188 0
-22 -42 -43 -61 -62 -78 -80 -95 -96 -111 -112 -141 -142 -166 -168 -177 -178 -188 0
-22 -42 -43 -61 -62 -79 -80 -95 -97 -111 -112 -141 -142 -166 -168 -177 -178 -188 0
-22 -42 -43 -61 -62 -79 -80 -96 -97 -111 -113 -141 -142 -166 -168 -177 -178 -188 0
-22 -42 -43 -61 -62 -79 -80 -96 -97 -112 -113 -141 -143 -166 -168 -177 -178 -188 0
-22 -42 -43 -61 -62 -79 -80 -96 -97 -112 -113 -142 -143 -166 -169 -177 -178 -188 0
-21 -41 -42 -60 -61 -78 -79 -95 -96 -111 -112 -141 -142 -167 -168 -177 -179 -188 0
-22 -41 -43 -60 -61 -78 -79 -95 -96 -111 -112 -141 -142 -167 -168 -177 -179 -188 0
-22 -42 -43 -60 -62 -78 -79 -95 -96 -111 -112 -141 -142 -167 -168 -177 -179 -188 0
-22 -42 -43 -61 -62 -78 -80 -95 -96 -111 -112 -141 -142 -167 -168 -177 -179 -188 0
-22 -42 -43 -61 -62 -79 -80 -95 -97 -111 -112 -141 -142 -167 -168 -177 -179 -188 0
-22 -42 -43 -61 -62 -79 -80 -96 -97 -111 -113 -141 -142 -167 -168 -177 -179 -188 0
-22 -42 -43 -61 -62 -79 -80 -96 -97 -112 -113 -141 -143 -167 -168 -177 -179 -188 0
-22 -42 -43 -61 -62 -79 -80 -96 -97 -112 -113 -142 -143 -167 -169 -177 -179 -188 0
-22 -42 -43 -61 -62 -79 -80 -96 -97 -112 -113 -142 -143 -168 -169 -177 -180 -188 0
-21 -41 -42 -60 -61 -78 -79 -95 -96 -111 -112 -141 -142 -167 -168 -178 -179 -189 0
-22 -41 -43 -60 -61 -78 -79 -95 -96 -111 -112 -141 -142 -167 -168 -178 -179 -189 0
-22 -42 -43 -60 -62 -78 -79 -95 -96 -111 -112 -141 -142 -167 -168 -178 -179 -189 0
-22 -42 -43 -61 -62 -78 -80 -95 -96 -111 -112 -141 -142 -167 -168 -178 -179 -189 0
-22 -42 -43 -61 -62 -79 -80 -95 -97 -111 -112 -141 -142 -167 -168 -178 -179 -189 0
-22 -42 -43 -61 -62 -79 -80 -96 -97 -111 -113 -141 -142 -167 -168 -178 -179 -189 0
-22 -42 -43 -61 -62 -79 -80 -96 -97 -112 -113 -141 -143 -167 -168 -178 -179 -189 0
-22 -42 -43 -61 -62 -79 -80 -96 -97 -112 -113 -142 -143 -167 -169 -178 -179 -189 0
-22 -42 -43 -61 -62 -79 -80 -96 -97 -112 -113 -142 -143 -168 -169 -178 -180 -189 0
-22 -42 -43 -61 -62 -79 -80 -96 -97 -112 -113 -142 -143 -168 -169 -179 -180 -190 0
-21 -41 -42 -60 -61 -78 -79 -95 -96 -111 -112 -141 -142 -167 -168 -178 -179 -199 0
-22 -41 -43 -60 -61 -78 -79 -95 -96 -111 -112 -141 -142 -167 -168 -178 -179 -199 0
-22 -42 -43 -60 -62 -78 -79 -95 -96 -111 -112 -141 -142 -167 -168 -178 -179 -199 0
-22 -42 -43 -61 -62 -78 -80 -95 -96 -111 -112 -141 -142 -167 -168 -178 -179 -199 0
-22 -42 -43 -61 -62 -79 -80 -95 -97 -111 -112 -141 -142 -167 -168 -178 -179 -199 0
-22 -42 -43 -61 -62 -79 -80 -96 -97 -111 -113 -141 -142 -167 -168 -178 -179 -199 0
-22 -42 -43 -61 -62 -79 -80 -96 -97 -112 -113 -141 -143 -167 -168 -178 -179 -199 0
-22 -42 -43 -61 -62 -79 -80 -96 -97 -112 -113 -142 -143 -167 -169 -178 -179 -199 0
-22 -42 -43 -61 -62 -79 -80 -96 -97 -112 -113 -142 -143 -168 -169 -178 -180 -199 0
-22 -42 -43 -61 -62 -79 -80 -96 -97 -112 -113 -142 -143 -168 -169 -179 -180 -200 0
-22 -42 -43 -61 -62 -79 -80 -96 -97 -112 -113 -142 -143 -168 -169 -179 -180 -209 0
-21 -41 -42 -60 -61 -78 -79 -95 -96 -111 -112 -141 -142 -167 -168 -189 -190 -199 0
-22 -41 -43 -60 -61 -78 -79 -95 -96 -111 -112 -141 -142 -167 -168 -189 -190 -199 0
-22 -42 -43 -60 -62 -78 -79 -95 -96 -111 -112 -141 -142 -167 -168 -189 -190 -199 0
-22 -42 -43 -61 -62 -78 -80 -95 -96 -111 -112 -141 -142 -167 -168 -189 -190 -199 0
-22 -42 -43 -61 -62 -79 -80 -95 -97 -111 -112 -141 -142 -167 -168 -189 -190 -199 0
-22 -42 -43 -61 -62 -79 -80 -96 -97 -111 -113 -141 -142 -167 -168 -189 -190 -199 0
-22 -42 -43 -61 -62 -79 -80 -96 -97 -112 -113 -141 -143 -167 -168 -189 -190 -199 0
-22 -42 -43 -61 -62 -79 -80 -96 -97 -112 -113 -142 -143 -167 -169 -189 -190 -199 0
-22 -42 -43 -61 -62 -79 -80 -96 -97 -112 -113 -142 -143 -168 -169 -189 -191 -199 0
-22 -42 -43 -61 -62 -79 -80 -96 -97 -112 -113 -142 -143 -168 -169 -190 -191 -200 0
-22 -42 -43 -61 -62 -79 -80 -96 -97 -112 -113 -142 -143 -168 -169 -190 -191 -209 0
-22 -42 -43 -61 -62 -79 -80 -96 -97 -112 -113 -142 -143 -168 -169 -200 -201 -209 0
-21 -41 -42 -60 -61 -78 -79 -95 -96 -111 -112 -141 -142 -179 -180 -189 -190 -199 0
-22 -41 -43 -60 -61 -78 -79 -95 -96 -111 -112 -141 -142 -179 -180 -189 -190 -199 0
-22 -42 -43 -60 -62 -78 -79 -95 -96 -111 -112 -141 -142 -179 -180 -189 -190 -199 0
-22 -42 -43 -61 -62 -78 -80 -95 -96 -111 -112 -141 -142 -179 -180 -189 -190 -199 0
-22 -42 -43 -61 -62 -79 -80 -95 -97 -111 -112 -141 -142 -179 -180 -189 -190 -199 0
-22 -42 -43 -61 -62 -79 -80 -96 -97 -111 -113 -141 -142 -179 -180 -189 -190 -199 0
-22 -42 -43 -61 -62 -79 -80 -96 -97 -112 -113 -141 -143 -179 -180 -189 -190 -199 0
-22 -42 -43 -61 -62 -79 -80 -96 -97 -112 -113 -142 -143 -179 -181 -189 -190 -199 0
-22 -42 -43 -61 -62 -79 -80 -96 -97 -112 -113 -142 -143 -180 -181 -189 -191 -199 0
-22 -42 -43 -61 -62 -79 -80 -96 -97 -112 -113 -142 -143 -180 -181 -190 -191 -200 0
-22 -42 -43 -61 -62 -79 -80 -96 -97 -112 -113 -142 -143 -180 -181 -190 -191 -209 0
-22 -42 -43 -61 -62 -79 -80 -96 -97 -112 -113 -142 -143 -180 -181 -200 -201 -209 0
-22 -42 -43 -61 -62 -79 -80 -96 -97 -112 -113 -142 -143 -191 -192 -200 -201 -209 0
-20 -40 -41 -59 -60 -77 -78 -94 -95 -110 -111 -154 -155 -166 -167 -177 -178 -188 0
-21 -40 -42 -59 -60 -77 -78 -94 -95 -110 -111 -154 -155 -166 -167 -177 -178 -188 0
-22 -40 -43 -59 -60 -77 -78 -94 -95 -110 -111 -154 -155 -166 -167 -177 -178 -188 0
-21 -41 -42 -59 -61 -77 -78 -94 -95 -110 -111 -154 -155 -166 -167 -177 -178 -188 0
-22 -41 -43 -59 -61 -77 -78 -94 -95 -110 -111 -154 -155 -166 -167 -177 -178 -188 0
-22 -42 -43 -59 -62 -77 -78 -94 -95 -110 -111 -154 -155 -166 -167 -177 -178 -188 0
-21 -41 -42 -60 -61 -77 -79 -94 -95 -110 -111 -154 -155 -166 -167 -177 -178 -188 0
-22 -41 -43 -60 -61 -77 -79 -94 -95 -110 -111 -154 -155 -166 -167 -177 -178 -188 0
-22 -42 -43 -60 -62 -77 -79 -94 -95 -110 -111 -154 -155 -166 -167 -177 -178 -188 0
-22 -42 -43 -61 -62 -77 -80 -94 -95 -110 -111 -154 -155 -166 -167 -177 -178 -188 0
-21 -41 -42 -60 -61 -78 -79 -94 -96 -110 -111 -154 -155 -166 -167 -177 -178 -188 0
-22 -41 -43 -60 -61 -78 -79 -94 -96 -110 -111 -154 -155 -166 -167 -177 -178 -188 0
-22 -42 -43 -60 -62 -78 -79 -94 -96 -110 -111 -154 -155 -166 -167 -177 -178 -188 0
-22 -42 -43 -61 -62 -78 -80 -94 -96 -110 -111 -154 -155 -166 -167 -177 -178 -188 0
-22 -42 -43 -61 -62 -79 -80 -94 -97 -110 -111 -154 -155 -166 -167 -177 -178 -188 0
-21 -41 -42 -60 -61 -78 -79 -95 -96 -110 -112 -154 -155 -166 -167 -177 -178 -188 0
-22 -41 -43 -60 -61 -78 -79 -95 -96 -110 -112 -154 -155 -166 -167 -177 -178 -188 0
-22 -42 -43 -60 -62 -78 -79 -95 -96 -110 -112 -154 -155 -166 -167 -177 -178 -188 0
-22 -42 -43 -61 -62 -78 -80 -95 -96 -110 -112 -154 -155 -166 -167 -177 -178 -188 0
-22 -42 -43 -61 -62 -79 -80 -95 -97 -110 -112 -154 -155 -166 -167 -177 -178 -188 0
-22 -42 -43 -61 -62 -79 -80 -96 -97 -110 -113 -154 -155 -166 -167 -177 -178 -188 0
-21 -41 -42 -60 -61 -78 -79 -95 -96 -111 -112 -154 -156 -166 -167 -177 -178 -188 0
-22 -41 -43 -60 -61 -78 -79 -95 -96 -111 -112 -154 -156 -166 -167 -177 -178 -188 0
-22 -42 -43 -60 -62 -78 -79 -95 -96 -111 -112 -154 -156 -166 -167 -177 -178 -188 0
-22 -42 -43 -61 -62 -78 -80 -95 -96 -111 -112 -154 -156 -166 -167 -177 -178 -188 0
-22 -42 -43 -61 -62 -79 -80 -95 -97 -111 -112 -154 -156 -166 -167 -177 -178 -188 0
-22 -42 -43 -61 -62 -79 -80 -96 -97 -111 -113 -154 -156 -166 -167 -177 -178 -188 0
-22 -42 -43 -61 -62 -79 -80 -96 -97 -112 -113 -154 -157 -166 -167 -177 -178 -188 0
-21 -41 -42 -60 -61 -78 -79 -95 -96 -111 -112 -155 -156 -166 -168 -177 -178 -188 0
-22 -41 -43 -60 -61 -78 -79 -95 -96 -111 -112 -155 -156 -166 -168 -177 -178 -188 0
-22 -42 -43 -60 -62 -78 -79 -95 -96 -111 -112 -155 -156 -166 -168 -177 -178 -188 0
-22 -42 -43 -61 -62 -78 -80 -95 -96 -111 -112 -155 -156 -166 -168 -177 -178 -188 0
-22 -42 -43 -61 -62 -79 -80 -95 -97 -111 -112 -155 -156 -166 -168 -177 -178 -188 0
-22 -42 -43 -61 -62 -79 -80 -96 -97 -111 -113 -155 -156 -166 -168 -177 -178 -188 0
-22 -42 -43 -61 -62 -79 -80 -96 -97 -112 -113 -155 -157 -166 -168 -177 -178 -188 0
-22 -42 -43 -61 -62 -79 -80 -96 -97 -112 -113 -156 -157 -166 -169 -177 -178 -188 0
-21 -41 -42 -60 -61 -78 -79 -95 -96 -111 -112 -155 -156 -167 -168 -177 -179 -188 0
-22 -41 -43 -60 -61 -78 -79 -95 -96 -111 -112 -155 -156 -167 -168 -177 -179 -188 0
-22 -42 -43 -60 -62 -78 -79 -95 -96 -111 -112 -155 -156 -167 -168 -177 -179 -188 0
-22 -42 -43 -61 -62 -78 -80 -95 -96 -111 -112 -155 -156 -167 -168 -177 -179 -188 0
-22 -42 -43 -61 -62 -79 -80 -95 -97 -111 -112 -155 -156 -167 -168 -177 -179 -188 0
-22 -42 -43 -61 -62 -79 -80 -96 -97 -111 -113 -155 -156 -167 -168 -177 -179 -188 0
-22 -42 -43 -61 -62 -79 -80 -96 -97 -112 -113 -155 -157 -167 -168 -177 -179 -188 0
-22 -42 -43 -61 -62 -79 -80 -96 -97 -112 -113 -156 -157 -167 -169 -177 -179 -188 0
-22 -42 -43 -61 -62 -79 -80 -96 -97 -112 -113 -156 -157 -168 -169 -177 -180 -188 0
-21 -41 -42 -60 -61 -78 -79 -95 -96 -111 -112 -155 -156 -167 -168 -178 -179 -189 0
-22 -41 -43 -60 -61 -78 -79 -95 -96 -111 -112 -155 -156 -167 -168 -178 -179 -189 0
-22 -42 -43 -60 -62 -78 -79 -95 -96 -111 -112 -155 -156 -167 -168 -178 -179 -189 0
-22 -42 -43 -61 -62 -78 -80 -95 -96 -111 -112 -155 -156 -167 -168 -178 -179 -189 0
-22 -42 -43 -61 -62 -79 -80 -95 -97 -111 -112 -155 -156 -167 -168 -178 -179 -189 0
-22 -42 -43 -61 -62 -79 -80 -96 -97 -111 -113 -155 -156 -167 -168 -178 -179 -189 0
-22 -42 -43 -61 -62 -79 -80 -96 -97 -112 -113 -155 -157 -167 -168 -178 -179 -189 0
-22 -42 -43 -61 -62 -79 -80 -96 -97 -112 -113 -156 -157 -167 -169 -178 -179 -189 0
-22 -42 -43 -61 -62 -79 -80 -96 -97 -112 -113 -156 -157 -168 -169 -178 -180 -189 0
-22 -42 -43 -61 -62 -79 -80 -96 -97 -112 -113 -156 -157 -168 -169 -179 -180 -190 0
-21 -41 -42 -60 -61 -78 -79 -95 -96 -111 -112 -155 -156 -167 -168 -178 -179 -199 0
-22 -41 -43 -60 -61 -78 -79 -95 -96 -111 -112 -155 -156 -167 -168 -178 -179 -199 0
-22 -42 -43 -60 -62 -78 -79 -95 -96 -111 -112 -155 -156 -167 -168 -178 -179 -199 0
-22 -42 -43 -61 -62 -78 -80 -95 -96 -111 -112 -155 -156 -167 -168 -178 -179 -199 0
-22 -42 -43 -61 -62 -79 -80 -95 -97 -111 -112 -155 -156 -167 -168 -178 -179 -199 0
-22 -42 -43 -61 -62 -79 -80 -96 -97 -111 -113 -155 -156 -167 -168 -178 -179 -199 0
-22 -42 -43 -61 -62 -79 -80 -96 -97 -112 -113 -155 -157 -167 -168 -178 -179 -199 0
-22 -42 -43 -61 -62 -79 -80 -96 -97 -112 -113 -156 -157 -167 -169 -178 -179 -199 0
-22 -42 -43 -61 -62 -79 -80 -96 -97 -112 -113 -156 -157 -168 -169 -178 -180 -199 0
-22 -42 -43 -61 -62 -79 -80 -96 -97 -112 -113 -156 -157 -168 -169 -179 -180 -200 0
-22 -42 -43 -61 -62 -79 -80 -96 -97 -112 -113 -156 -157 -168 -169 -179 -180 -209 0
-21 -41 -42 -60 -61 -78 -79 -95 -96 -111 -112 -155 -156 -167 -168 -189 -190 -199 0
-22 -41 -43 -60 -61 -78 -79 -95 -96 -111 -112 -155 -156 -167 -168 -189 -190 -199 0
-22 -42 -43 -60 -62 -78 -79 -95 -96 -111 -112 -155 -156 -167 -168 -189 -190 -199 0
-22 -42 -43 -61 -62 -78 -80 -95 -96 -111 -112 -155 -156 -167 -168 -189 -190 -199 0
-22 -42 -43 -61 -62 -79 -80 -95 -97 -111 -112 -155 -156 -167 -168 -189 -190 -199 0
-22 -42 -43 -61 -62 -79 -80 -96 -97 -111 -113 -155 -156 -167 -168 -189 -190 -199 0
-22 -42 -43 -61 -62 -79 -80 -96 -97 -112 -113 -155 -157 -167 -168 -189 -190 -199 0
-22 -42 -43 -61 -62 -79 -80 -96 -97 -112 -113 -156 -157 -167 -169 -189 -190 -199 0
-22 -42 -43 -61 -62 -79 -80 -96 -97 -112 -113 -156 -157 -168 -169 -189 -191 -199 0
-22 -42 -43 -61 -62 -79 -80 -96 -97 -112 -113 -156 -157 -168 -169 -190 -191 -200 0
-22 -42 -43 -61 -62 -79 -80 -96 -97 -112 -113 -156 -157 -168 -169 -190 -191 -209 0
-22 -42 -43 -61 -62 -79 -80 -96 -97 -112 -113 -156 -157 -168 -169 -200 -201 -209 0
-21 -41 -42 -60 -61 -78 -79 -95 -96 -111 -112 -155 -156 -179 -180 -189 -190 -199 0
-22 -41 -43 -60 -61 -78 -79 -95 -96 -111 -112 -155 -156 -179 -180 -189 -190 -199 0
-22 -42 -43 -60 -62 -78 -79 -95 -96 -111 -112 -155 -156 -179 -180 -189 -190 -199 0
-22 -42 -43 -61 -62 -78 -80 -95 -96 -111 -112 -155 -156 -179 -180 -189 -190 -199 0
-22 -42 -43 -61 -62 -79 -80 -95 -97 -111 -112 -155 -156 -179 -180 -189 -190 -199 0
-22 -42 -43 -61 -62 -79 -80 -96 -97 -111 -113 -155 -156 -179 -180 -189 -190 -199 0
-22 -42 -43 -61 -62 -79 -80 -96 -97 -112 -113 -155 -157 -179 -180 -189 -190 -199 0
-22 -42 -43 -61 -62 -79 -80 -96 -97 -112 -113 -156 -157 -179 -181 -189 -190 -199 0
-22 -42 -43 -61 -62 -79 -80 -96 -97 -112 -113 -156 -157 -180 -181 -189 -191 -199 0
-22 -42 -43 -61 -62 -79 -80 -96 -97 -112 -113 -156 -157 -180 -181 -190 -191 -200 0
-22 -42 -43 -61 -62 -79 -80 -96 -97 -112 -113 -156 -157 -180 -181 -190 -191 -209 0
-22 -42 -43 -61 -62 -79 -80 -96 -97 -112 -113 -156 -157 -180 -181 -200 -201 -209 0
-22 -42 -43 -61 -62 -79 -80 -96 -97 -112 -113 -156 -157 -191 -192 -200 -201 -209 0
-21 -41 -42 -60 -61 -78 -79 -95 -96 -111 -112 -168 -169 -179 -180 -189 -190 -199 0
-22 -41 -43 -60 -61 -78 -79 -95 -96 -111 -112 -168 -169 -179 -180 -189 -190 -199 0
-22 -42 -43 -60 -62 -78 -79 -95 -96 -111 -112 -168 -169 -179 -180 -189 -190 -199 0
-22 -42 -43 -61 -62 -78 -80 -95 -96 -111 -112 -168 -169 -179 -180 -189 -190 -199 0
-22 -42 -43 -61 -62 -79 -80 -95 -97 -111 -112 -168 -169 -179 -180 -189 -190 -199 0
-22 -42 -43 -61 -62 -79 -80 -96 -97 -111 -113 -168 -169 -179 -180 -189 -190 -199 0
-22 -42 -43 -61 -62 -79 -80 -96 -97 -112 -113 -168 -170 -179 -180 -189 -190 -199 0
-22 -42 -43 -61 -62 -79 -80 -96 -97 -112 -113 -169 -170 -179 -181 -189 -190 -199 0
-22 -42 -43 -61 -62 -79 -80 -96 -97 -112 -113 -169 -170 -180 -181 -189 -191 -199 0
-22 -42 -43 -61 -62 -79 -80 -96 -97 -112 -113 -169 -170 -180 -181 -190 -191 -200 0
-22 -42 -43 -61 -62 -79 -80 -96 -97 -112 -113 -169 -170 -180 -181 -190 -191 -209 0
-22 -42 -43 -61 -62 -79 -80 -96 -97 -112 -113 -169 -170 -180 -181 -200 -201 -209 0
-22 -42 -43 -61 -62 -79 -80 -96 -97 -112 -113 -169 -170 -191 -192 -200 -201 -209 0
-22 -42 -43 -61 -62 -79 -80 -96 -97 -112 -113 -181 -182 -191 -192 -200 -201 -209 0
-19 -39 -40 -58 -59 -76 -77 -93 -94 -125 -126 -139 -140 -152 -153 -164 -165 -176 0
-20 -39 -41 -58 -59 -76 -77 -93 -94 -125 -126 -139 -140 -152 -153 -164 -165 -176 0
-21 -39 -42 -58 -59 -76 -77 -93 -94 -125 -126 -139 -140 -152 -153 -164 -165 -176 0
-22 -39 -43 -58 -59 -76 -77 -93 -94 -125 -126 -139 -140 -152 -153 -164 -165 -176 0
-20 -40 -41 -58 -60 -76 -77 -93 -94 -125 -126 -139 -140 -152 -153 -164 -165 -176 0
-21 -40 -42 -58 -60 -76 -77 -93 -94 -125 -126 -139 -140 -152 -153 -164 -165 -176 0
-22 -40 -43 -58 -60 -76 -77 -93 -94 -125 -126 -139 -140 -152 -153 -164 -165 -176 0
-21 -41 -42 -58 -61 -76 -77 -93 -94 -125 -126 -139 -140 -152 -153 -164 -165 -176 0
-22 -41 -43 -58 -61 -76 -77 -93 -94 -125 -126 -139 -140 -152 -153 -164 -165 -176 0
-22 -42 -43 -58 -62 -76 -77 -93 -94 -125 -126 -139 -140 -152 -153 -164 -165 -176 0
-20 -40 -41 -59 -60 -76 -78 -93 -94 -125 -126 -139 -140 -152 -153 -164 -165 -176 0
-21 -40 -42 -59 -60 -76 -78 -93 -94 -125 -126 -139 -140 -152 -153 -164 -165 -176 0
-22 -40 -43 -59 -60 -76 -78 -93 -94 -125 -126 -139 -140 -152 -153 -164 -165 -176 0
-21 -41 -42 -59 -61 -76 -78 -93 -94 -125 -126 -139 -140 -152 -153 -164 -165 -176 0
-22 -41 -43 -59 -61 -76 -78 -93 -94 -125 -126 -139 -140 -152 -153 -164 -165 -176 0
-22 -42 -43 -59 -62 -76 -78 -93 -94 -125 -126 -139 -140 -152 -153 -164 -165 -176 0
-21 -41 -42 -60 -61 -76 -79 -93 -94 -125 -126 -139 -140 -152 -153 -164 -165 -176 0
-22 -41 -43 -60 -61 -76 -79 -93 -94 -125 -126 -139 -140 -152 -153 -164 -165 -176 0
-22 -42 -43 -60 -62 -76 -79 -93 -94 -125 -126 -139 -140 -152 -153 -164 -165 -176 0
-22 -42 -43 -61 -62 -76 -80 -93 -94 -125 -126 -139 -140 -152 -153 -164 -165 -176 0
-20 -40 -41 -59 -60 -77 -78 -93 -95 -125 -126 -139 -140 -152 -153 -164 -165 -176 0
-21 -40 -42 -59 -60 -77 -78 -93 -95 -125 -126 -139 -140 -152 -153 -164 -165 -176 0
-22 -40 -43 -59 -60 -77 -78 -93 -95 -125 -126 -139 -140 -152 -153 -164 -165 -176 0
-21 -41 -42 -59 -61 -77 -78 -93 -95 -125 -126 -139 -140 -152 -153 -164 -165 -176 0
-22 -41 -43 -59 -61 -77 -78 -93 -95 -125 -126 -139 -140 -152 -153 -164 -165 -176 0
-22 -42 -43 -59 -62 -77 -78 -93 -95 -125 -126 -139 -140 -152 -153 -164 -165 -176 0
-21 -41 -42 -60 -61 -77 -79 -93 -95 -125 -126 -139 -140 -152 -153 -164 -165 -176 0
-22 -41 -43 -60 -61 -77 -79 -93 -95 -125 -126 -139 -140 -152 -153 -164 -165 -176 0
-22 -42 -43 -60 -62 -77 -79 -93 -95 -125 -126 -139 -140 -152 -153 -164 -165 -176 0
-22 -42 -43 -61 -62 -77 -80 -93 -95 -125 -126 -139 -140 -152 -153 -164 -165 -176 0
-21 -41 -42 -60 -61 -78 -79 -93 -96 -125 -126 -139 -140 -152 -153 -164 -165 -176 0
-22 -41 -43 -60 -61 -78 -79 -93 -96 -125 -126 -139 -140 -152 -153 -164 -165 -176 0
-22 -42 -43 -60 -62 -78 -79 -93 -96 -125 -126 -139 -140 -152 -153 -164 -165 -176 0
-22 -42 -43 -61 -62 -78 -80 -93 -96 -125 -126 -139 -140 -152 -153 -164 -165 -176 0
-22 -42 -43 -61 -62 -79 -80 -93 -97 -125 -126 -139 -140 -152 -153 -164 -165 -176 0
-20 -40 -41 -59 -60 -77 -78 -94 -95 -125 -127 -139 -140 -152 -153 -164 -165 -176 0
-21 -40 -42 -59 -60 -77 -78 -94 -95 -125 -127 -139 -140 -152 -153 -164 -165 -176 0
-22 -40 -43 -59 -60 -77 -78 -94 -95 -125 -127 -139 -140 -152 -153 -164 -165 -176 0
-21 -41 -42 -59 -61 -77 -78 -94 -95 -125 -127 -139 -140 -152 -153 -164 -165 -176 0
-22 -41 -43 -59 -61 -77 -78 -94 -95 -125 -127 -139 -140 -152 -153 -164 -165 -176 0
-22 -42 -43 -59 -62 -77 -78 -94 -95 -125 -127 -139 -140 -152 -153 -164 -165 -176 0
-21 -41 -42 -60 -61 -77 -79 -94 -95 -125 -127 -139 -140 -152 -153 -164 -165 -176 0
-22 -41 -43 -60 -61 -77 -79 -94 -95 -125 -127 -139 -140 -152 -153 -164 -165 -176 0
-22 -42 -43 -60 -62 -77 -79 -94 -95 -125 -127 -139 -140 -152 -153 -164 -165 -176 0
-22 -42 -43 -61 -62 -77 -80 -94 -95 -125 -127 -139 -140 -152 -153 -164 -165 -176 0
-21 -41 -42 -60 -61 -78 -79 -94 -96 -125 -127 -139 -140 -152 -153 -164 -165 -176 0
-22 -41 -43 -60 -61 -78 -79 -94 -96 -125 -127 -139 -140 -152 -153 -164 -165 -176 0
-22 -42 -43 -60 -62 -78 -79 -94 -96 -125 -127 -139 -140 -152 -153 -164 -165 -176 0
-22 -42 -43 -61 -62 -78 -80 -94 -96 -125 -127 -139 -140 -152 -153 -164 -165 -176 0
-22 -42 -43 -61 -62 -79 -80 -94 -97 -125 -127 -139 -140 -152 -153 -164 -165 -176 0
-21 -41 -42 -60 -61 -78 -79 -95 -96 -125 -128 -139 -140 -152 -153 -164 -165 -176 0
-22 -41 -43 -60 -61 -78 -79 -95 -96 -125 -128 -139 -140 -152 -153 -164 -165 -176 0
-22 -42 -43 -60 -62 -78 -79 -95 -96 -125 -128 -139 -140 -152 -153 -164 -165 -176 0
-22 -42 -43 -61 -62 -78 -80 -95 -96 -125 -128 -139 -140 -152 -153 -164 -165 -176 0
-22 -42 -43 -61 -62 -79 -80 -95 -97 -125 -128 -139 -140 -152 -153 -164 -165 -176 0
-22 -42 -43 -61 -62 -79 -80 -96 -97 -125 -129 -139 -140 -152 -153 -164 -165 -176 0
-20 -40 -41 -59 -60 -77 -78 -94 -95 -126 -127 -139 -141 -152 -153 -164 -165 -176 0
-21 -40 -42 -59 -60 -77 -78 -94 -95 -126 -127 -139 -141 -152 -153 -164 -165 -176 0
-22 -40 -43 -59 -60 -77 -78 -94 -95 -126 -127 -139 -141 -152 -153 -164 -165 -176 0
-21 -41 -42 -59 -61 -77 -78 -94 -95 -126 -127 -139 -141 -152 -153 -164 -165 -176 0
-22 -41 -43 -59 -61 -77 -78 -94 -95 -126 -127 -139 -141 -152 -153 -164 -165 -176 0
-22 -42 -43 -59 -62 -77 -78 -94 -95 -126 -127 -139 -141 -152 -153 -164 -165 -176 0
-21 -41 -42 -60 -61 -77 -79 -94 -95 -126 -127 -139 -141 -152 -153 -164 -165 -176 0
-22 -41 -43 -60 -61 -77 -79 -94 -95 -126 -127 -139 -141 -152 -153 -164 -165 -176 0
-22 -42 -43 -60 -62 -77 -79 -94 -95 -126 -127 -139 -141 -152 -153 -164 -165 -176 0
-22 -42 -43 -61 -62 -77 -80 -94 -95 -126 -127 -139 -141 -152 -153 -164 -165 -176 0
-21 -41 -42 -60 -61 -78 -79 -94 -96 -126 -127 -139 -141 -152 -153 -164 -165 -176 0
-22 -41 -43 -60 -61 -78 -79 -94 -96 -126 -127 -139 -141 -152 -153 -164 -165 -176 0
-22 -42 -43 -60 -62 -78 -79 -94 -96 -126 -127 -139 -141 -152 -153 -164 -165 -176 0
-22 -42 -43 -61 -62 -78 -80 -94 -96 -126 -127 -139 -141 -152 -153 -164 -165 -176 0
-22 -42 -43 -61 -62 -79 -80 -94 -97 -126 -127 -139 -141 -152 -153 -164 -165 -176 0
-21 -41 -42 -60 -61 -78 -79 -95 -96 -126 -128 -139 -141 -152 -153 -164 -165 -176 0
-22 -41 -43 -60 -61 -78 -79 -95 -96 -126 -128 -139 -141 -152 -153 -164 -165 -176 0
-22 -42 -43 -60 -62 -78 -79 -95 -96 -126 -128 -139 -141 -152 -153 -164 -165 -176 0
-22 -42 -43 -61 -62 -78 -80 -95 -96 -126 -128 -139 -141 -152 -153 -164 -165 -176 0
-22 -42 -43 -61 -62 -79 -80 -95 -97 -126 -128 -139 -141 -152 -153 -164 -165 -176 0
-22 -42 -43 -61 -62 -79 -80 -96 -97 -126 -129 -139 -141 -152 -153 -164 -165 -176 0
-21 -41 -42 -60 -61 -78 -79 -95 -96 -127 -128 -139 -142 -152 -153 -164 -165 -176 0
-22 -41 -43 -60 -61 -78 -79 -95 -96 -127 -128 -139 -142 -152 -153 -164 -165 -176 0
-22 -42 -43 -60 -62 -78 -79 -95 -96 -127 -128 -139 -142 -152 -153 -164 -165 -176 0
-22 -42 -43 -61 -62 -78 -80 -95 -96 -127 -128 -139 -142 -152 -153 -164 -165 -176 0
-22 -42 -43 -61 -62 -79 -80 -95 -97 -127 -128 -139 -142 -152 -153 -164 -165 -176 0
-22 -42 -43 -61 -62 -79 -80 -96 -97 -127 -129 -139 -142 -152 -153 -164 -165 -176 0
-22 -42 -43 -61 -62 -79 -80 -96 -97 -128 -129 -139 -143 -152 -153 -164 -165 -176 0
-20 -40 -41 -59 -60 -77 -78 -94 -95 -126 -127 -140 -141 -152 -154 -164 -165 -176 0
-21 -40 -42 -59 -60 -77 -78 -94 -95 -126 -127 -140 -141 -152 -154 -164 -165 -176 0
-22 -40 -43 -59 -60 -77 -78 -94 -95 -126 -127 -140 -141 -152 -154 -164 -165 -176 0
-21 -41 -42 -59 -61 -77 -78 -94 -95 -126 -127 -140 -141 -152 -154 -164 -165 -176 0
-22 -41 -43 -59 -61 -77 -78 -94 -95 -126 -127 -140 -141 -152 -154 -164 -165 -176 0
-22 -42 -43 -59 -62 -77 -78 -94 -95 -126 -127 -140 -141 -152 -154 -164 -165 -176 0
-21 -41 -42 -60 -61 -77 -79 -94 -95 -126 -127 -140 -141 -152 -154 -164 -165 -176 0
-22 -41 -43 -60 -61 -77 -79 -94 -95 -126 -127 -140 -141 -152 -154 -164 -165 -176 0
-22 -42 -43 -60 -62 -77 -79 -94 -95 -126 -127 -140 -141 -152 -154 -164 -165 -176 0
-22 -42 -43 -61 -62 -77 -80 -94 -95 -126 -127 -140 -141 -152 -154 -164 -165 -176 0
-21 -41 -42 -60 -61 -78 -79 -94 -96 -126 -127 -140 -141 -152 -154 -164 -165 -176 0
-22 -41 -43 -60 -61 -78 -79 -94 -96 -126 -127 -140 -141 -152 -154 -164 -165 -176 0
-22 -42 -43 -60 -62 -78 -79 -94 -96 -126 -127 -140 -141 -152 -154 -164 -165 -176 0
-22 -42 -43 -61 -62 -78 -80 -94 -96 -126 -127 -140 -141 -152 -154 -164 -165 -176 0
-22 -42 -43 -61 -62 -79 -80 -94 -97 -126 -127 -140 -141 -152 -154 -164 -165 -176 0
-21 -41 -42 -60 -61 -78 -79 -95 -96 -126 -128 -140 -141 -152 -154 -164 -165 -176 0
-22 -41 -43 -60 -61 -78 -79 -95 -96 -126 -128 -140 -141 -152 -154 -164 -165 -176 0
-22 -42 -43 -60 -62 -78 -79 -95 -96 -126 -128 -140 -141 -152 -154 -164 -165 -176 0
-22 -42 -43 -61 -62 -78 -80 -95 -96 -126 -128 -140 -141 -152 -154 -164 -165 -176 0
-22 -42 -43 -61 -62 -79 -80 -95 -97 -126 -128 -140 -141 -152 -154 -164 -165 -176 0
-22 -42 -43 -61 -62 -79 -80 -96 -97 -126 -129 -140 -141 -152 -154 -164 -165 -176 0
-21 -41 -42 -60 -61 -78 -79 -95 -96 -127 -128 -140 -142 -152 -154 -164 -165 -176 0
-22 -41 -43 -60 -61 -78 -79 -95 -96 -127 -128 -140 -142 -152 -154 -164 -165 -176 0
-22 -42 -43 -60 -62 -78 -79 -95 -96 -127 -128 -140 -142 -152 -154 -164 -165 -176 0
-22 -42 -43 -61 -62 -78 -80 -95 -96 -127 -128 -140 -142 -152 -154 -164 -165 -176 0
-22 -42 -43 -61 -62 -79 -80 -95 -97 -127 -128 -140 -142 -152 -154 -164 -165 -176 0
-22 -42 -43 -61 -62 -79 -80 -96 -97 -127 -129 -140 -142 -152 -154 -164 -165 -176 0
-22 -42 -43 -61 -62 -79 -80 -96 -97 -128 -129 -140 -143 -152 -154 -164 -165 -176 0
-21 -41 -42 -60 -61 -78 -79 -95 -96 -127 -128 -141 -142 -152 -155 -164 -165 -176 0
-22 -41 -43 -60 -61 -78 -79 -95 -96 -127 -128 -141 -142 -152 -155 -164 -165 -176 0
-22 -42 -43 -60 -62 -78 -79 -95 -96 -127 -128 -141 -142 -152 -155 -164 -165 -176 0
-22 -42 -43 -61 -62 -78 -80 -95 -96 -127 -128 -141 -142 -152 -155 -164 -165 -176 0
-22 -42 -43 -61 -62 -79 -80 -95 -97 -127 -128 -141 -142 -152 -155 -164 -165 -176 0
-22 -42 -43 -61 -62 -79 -80 -96 -97 -127 -129 -141 -142 -152 -155 -164 -165 -176 0
-22 -42 -43 -61 -62 -79 -80 -96 -97 -128 -129 -141 -143 -152 -155 -164 -165 -176 0
-22 -42 -43 -61 -62 -79 -80 -96 -97 -128 -129 -142 -143 -152 -156 -164 -165 -176 0
-20 -40 -41 -59 -60 -77 -78 -94 -95 -126 -127 -140 -141 -153 -154 -164 -166 -176 0
-21 -40 -42 -59 -60 -77 -78 -94 -95 -126 -127 -140 -141 -153 -154 -164 -166 -176 0
-22 -40 -43 -59 -60 -77 -78 -94 -95 -126 -127 -140 -141 -153 -154 -164 -166 -176 0
-21 -41 -42 -59 -61 -77 -78 -94 -95 -126 -127 -140 -141 -153 -154 -164 -166 -176 0
-22 -41 -43 -59 -61 -77 -78 -94 -95 -126 -127 -140 -141 -153 -154 -164 -166 -176 0
-22 -42 -43 -59 -62 -77 -78 -94 -95 -126 -127 -140 -141 -153 -154 -164 -166 -176 0
-21 -41 -42 -60 -61 -77 -79 -94 -95 -126 -127 -140 -141 -153 -154 -164 -166 -176 0
-22 -41 -43 -60 -61 -77 -79 -94 -95 -126 -127 -140 -141 -153 -154 -164 -166 -176 0
-22 -42 -43 -60 -62 -77 -79 -94 -95 -126 -127 -140 -141 -153 -154 -164 -166 -176 0
-22 -42 -43 -61 -62 -77 -80 -94 -95 -126 -127 -140 -141 -153 -154 -164 -166 -176 0
-21 -41 -42 -60 -61 -78 -79 -94 -96 -126 -127 -140 -141 -153 -154 -164 -166 -176 0
-22 -41 -43 -60 -61 -78 -79 -94 -96 -126 -127 -140 -141 -153 -154 -164 -166 -176 0
-22 -42 -43 -60 -62 -78 -79 -94 -96 -126 -127 -140 -141 -153 -154 -164 -166 -176 0
-22 -42 -43 -61 -62 -78 -80 -94 -96 -126 -127 -140 -141 -153 -154 -164 -166 -176 0
-22 -42 -43 -61 -62 -79 -80 -94 -97 -126 -127 -140 -141 -153 -154 -164 -166 -176 0
-21 -41 -42 -60 -61 -78 -79 -95 -96 -126 -128 -140 -141 -153 -154 -164 -166 -176 0
-22 -41 -43 -60 -61 -78 -79 -95 -96 -126 -128 -140 -141 -153 -154 -164 -166 -176 0
-22 -42 -43 -60 -62 -78 -79 -95 -96 -126 -128 -140 -141 -153 -154 -164 -166 -176 0
-22 -42 -43 -61 -62 -78 -80 -95 -96 -126 -128 -140 -141 -153 -154 -164 -166 -176 0
-22 -42 -43 -61 -62 -79 -80 -95 -97 -126 -128 -140 -141 -153 -154 -164 -166 -176 0
-22 -42 -43 -61 -62 -79 -80 -96 -97 -126 -129 -140 -141 -153 -154 -164 -166 -176 0
-21 -41 -42 -60 -61 -78 -79 -95 -96 -127 -128 -140 -142 -153 -154 -164 -166 -176 0
-22 -41 -43 -60 -61 -78 -79 -95 -96 -127 -128 -140 -142 -153 -154 -164 -166 -176 0
-22 -42 -43 -60 -62 -78 -79 -95 -96 -127 -128 -140 -142 -153 -154 -164 -166 -176 0
-22 -42 -43 -61 -62 -78 -80 -95 -96 -127 -128 -140 -142 -153 -154 -164 -166 -176 0
-22 -42 -43 -61 -62 -79 -80 -95 -97 -127 -128 -140 -142 -153 -154 -164 -166 -176 0
-22 -42 -43 -61 -62 -79 -80 -96 -97 -127 -129 -140 -142 -153 -154 -164 -166 -176 0
-22 -42 -43 -61 -62 -79 -80 -96 -97 -128 -129 -140 -143 -153 -154 -164 -166 -176 0
-21 -41 -42 -60 -61 -78 -79 -95 -96 -127 -128 -141 -142 -153 -155 -164 -166 -176 0
-22 -41 -43 -60 -61 -78 -79 -95 -96 -127 -128 -141 -142 -153 -155 -164 -166 -176 0
-22 -42 -43 -60 -62 -78 -79 -95 -96 -127 -128 -141 -142 -153 -155 -164 -166 -176 0
-22 -42 -43 -61 -62 -78 -80 -95 -96 -127 -128 -141 -142 -153 -155 -164 -166 -176 0
-22 -42 -43 -61 -62 -79 -80 -95 -97 -127 -128 -141 -142 -153 -155 -164 -166 -176 0
-22 -42 -43 -61 -62 -79 -80 -96 -97 -127 -129 -141 -142 -153 -155 -164 -166 -176 0
-22 -42 -43 -61 -62 -79 -80 -96 -97 -128 -129 -141 -143 -153 -155 -164 -166 -176 0
-22 -42 -43 -61 -62 -79 -80 -96 -97 -128 -129 -142 -143 -153 -156 -164 -166 -176 0
-21 -41 -42 -60 -61 -78 -79 -95 -96 -127 -128 -141 -142 -154 -155 -164 -167 -176 0
-22 -41 -43 -60 -61 -78 -79 -95 -96 -127 -128 -141 -142 -154 -155 -164 -167 -176 0
-22 -42 -43 -60 -62 -78 -79 -95 -96 -127 -128 -141 -142 -154 -155 -164 -167 -176 0
-22 -42 -43 -61 -62 -78 -80 -95 -96 -127 -128 -141 -142 -154 -155 -164 -167 -176 0
-22 -42 -43 -61 -62 -79 -80 -95 -97 -127 -128 -141 -142 -154 -155 -164 -167 -176 0
-22 -42 -43 -61 -62 -79 -80 -96 -97 -127 -129 -141 -142 -154 -155 -164 -167 -176 0
-22 -42 -43 -61 -62 -79 -80 -96 -97 -128 -129 -141 -143 -154 -155 -164 -167 -176 0
-22 -42 -43 -61 -62 -79 -80 -96 -97 -128 -129 -142 -143 -154 -156 -164 -167 -176 0
-22 -42 -43 -61 -62 -79 -80 -96 -97 -128 -129 -142 -143 -155 -156 -164 -168 -176 0
-20 -40 -41 -59 -60 -77 -78 -94 -95 -126 -127 -140 -141 -153 -154 -165 -166 -177 0
-21 -40 -42 -59 -60 -77 -78 -94 -95 -126 -127 -140 -141 -153 -154 -165 -166 -177 0
-22 -40 -43 -59 -60 -77 -78 -94 -95 -126 -127 -140 -141 -153 -154 -165 -166 -177 0
-21 -41 -42 -59 -61 -77 -78 -94 -95 -126 -127 -140 -141 -153 -154 -165 -166 -177 0
-22 -41 -43 -59 -61 -77 -78 -94 -95 -126 -127 -140 -141 -153 -154 -165 -166 -177 0
-22 -42 -43 -59 -62 -77 -78 -94 -95 -126 -127 -140 -141 -153 -154 -165 -166 -177 0
-21 -41 -42 -60 -61 -77 -79 -94 -95 -126 -127 -140 -141 -153 -154 -165 -166 -177 0
-22 -41 -43 -60 -61 -77 -79 -94 -95 -126 -127 -140 -141 -153 -154 -165 -166 -177 0
-22 -42 -43 -60 -62 -77 -79 -94 -95 -126 -127 -140 -141 -153 -154 -165 -166 -177 0
-22 -42 -43 -61 -62 -77 -80 -94 -95 -126 -127 -140 -141 -153 -154 -165 -166 -177 0
-21 -41 -42 -60 -61 -78 -79 -94 -96 -126 -127 -140 -141 -153 -154 -165 -166 -177 0
-22 -41 -43 -60 -61 -78 -79 -94 -96 -126 -127 -140 -141 -153 -154 -165 -166 -177 0
-22 -42 -43 -60 -62 -78 -79 -94 -96 -126 -127 -140 -141 -153 -154 -165 -166 -177 0
-22 -42 -43 -61 -62 -78 -80 -94 -96 -126 -127 -140 -141 -153 -154 -165 -166 -177 0
-22 -42 -43 -61 -62 -79 -80 -94 -97 -126 -127 -140 -141 -153 -154 -165 -166 -177 0
-21 -41 -42 -60 -61 -78 -79 -95 -96 -126 -128 -140 -141 -153 -154 -165 -166 -177 0
-22 -41 -43 -60 -61 -78 -79 -95 -96 -126 -128 -140 -141 -153 -154 -165 -166 -177 0
-22 -42 -43 -60 -62 -78 -79 -95 -96 -126 -128 -140 -141 -153 -154 -165 -166 -177 0
-22 -42 -43 -61 -62 -78 -80 -95 -96 -126 -128 -140 -141 -153 -154 -165 -166 -177 0
-22 -42 -43 -61 -62 -79 -80 -95 -97 -126 -128 -140 -141 -153 -154 -165 -166 -177 0
-22 -42 -43 -61 -62 -79 -80 -96 -97 -126 -129 -140 -141 -153 -154 -165 -166 -177 0
-21 -41 -42 -60 -61 -78 -79 -95 -96 -127 -128 -140 -142 -153 -154 -165 -166 -177 0
-22 -41 -43 -60 -61 -78 -79 -95 -96 -127 -128 -140 -142 -153 -154 -165 -166 -177 0
-22 -42 -43 -60 -62 -78 -79 -95 -96 -127 -128 -140 -142 -153 -154 -165 -166 -177 0
-22 -42 -43 -61 -62 -78 -80 -95 -96 -127 -128 -140 -142 -153 -154 -165 -166 -177 0
-22 -42 -43 -61 -62 -79 -80 -95 -97 -127 -128 -140 -142 -153 -154 -165 -166 -177 0
-22 -42 -43 -61 -62 -79 -80 -96 -97 -127 -129 -140 -142 -153 -154 -165 -166 -177 0
-22 -42 -43 -61 -62 -79 -80 -96 -97 -128 -129 -140 -143 -153 -154 -165 -166 -177 0
-21 -41 -42 -60 -61 -78 -79 -95 -96 -127 -128 -141 -142 -153 -155 -165 -166 -177 0
-22 -41 -43 -60 -61 -78 -79 -95 -96 -127 -128 -141 -142 -153 -155 -165 -166 -177 0
-22 -42 -43 -60 -62 -78 -79 -95 -96 -127 -128 -141 -142 -153 -155 -165 -166 -177 0
-22 -42 -43 -61 -62 -78 -80 -95 -96 -127 -128 -141 -142 -153 -155 -165 -166 -177 0
-22 -42 -43 -61 -62 -79 -80 -95 -97 -127 -128 -141 -142 -153 -155 -165 -166 -177 0
-22 -42 -43 -61 -62 -79 -80 -96 -97 -127 -129 -141 -142 -153 -155 -165 -166 -177 0
-22 -42 -43 -61 -62 -79 -80 -96 -97 -128 -129 -141 -143 -153 -155 -165 -166 -177 0
-22 -42 -43 -61 -62 -79 -80 -96 -97 -128 -129 -142 -143 -153 -156 -165 -166 -177 0
-21 -41 -42 -60 -61 -78 -79 -95 -96 -127 -128 -141 -142 -154 -155 -165 -167 -177 0
-22 -41 -43 -60 -61 -78 -79 -95 -96 -127 -128 -141 -142 -154 -155 -165 -167 -177 0
-22 -42 -43 -60 -62 -78 -79 -95 -96 -127 -128 -141 -142 -154 -155 -165 -167 -177 0
-22 -42 -43 -61 -62 -78 -80 -95 -96 -127 -128 -141 -142 -154 -155 -165 -167 -177 0
-22 -42 -43 -61 -62 -79 -80 -95 -97 -127 -128 -141 -142 -154 -155 -165 -167 -177 0
-22 -42 -43 -61 -62 -79 -80 -96 -97 -127 -129 -141 -142 -154 -155 -165 -167 -177 0
-22 -42 -43 -61 -62 -79 -80 -96 -97 -128 -129 -141 -143 -154 -155 -165 -167 -177 0
-22 -42 -43 -61 -62 -79 -80 -96 -97 -128 -129 -142 -143 -154 -156 -165 -167 -177 0
-22 -42 -43 -61 -62 -79 -80 -96 -97 -128 -129 -142 -143 -155 -156 -165 -168 -177 0
-21 -41 -42 -60 -61 -78 -79 -95 -96 -127 -128 -141 -142 -154 -155 -166 -167 -178 0
-22 -41 -43 -60 -61 -78 -79 -95 -96 -127 -128 -141 -142 -154 -155 -166 -167 -178 0
-22 -42 -43 -60 -62 -78 -79 -95 -96 -127 -128 -141 -142 -154 -155 -166 -167 -178 0
-22 -42 -43 -61 -62 -78 -80 -95 -96 -127 -128 -141 -142 -154 -155 -166 -167 -178 0
-22 -42 -43 -61 -62 -79 -80 -95 -97 -127 -128 -141 -142 -154 -155 -166 -167 -178 0
-22 -42 -43 -61 -62 -79 -80 -96 -97 -127 -129 -141 -142 -154 -155 -166 -167 -178 0
-22 -42 -43 -61 -62 -79 -80 -96 -97 -128 -129 -141 -143 -154 -155 -166 -167 -178 0
-22 -42 -43 -61 -62 -79 -80 -96 -97 -128 -129 -142 -143 -154 -156 -166 -167 -178 0
-22 -42 -43 -61 -62 -79 -80 -96 -97 -128 -129 -142 -143 -155 -156 -166 -168 -178 0
-22 -42 -43 -61 -62 -79 -80 -96 -97 -128 -129 -142 -143 -155 -156 -167 -168 -179 0
-20 -40 -41 -59 -60 -77 -78 -94 -95 -126 -127 -140 -141 -153 -154 -165 -166 -188 0
-21 -40 -42 -59 -60 -77 -78 -94 -95 -126 -127 -140 -141 -153 -154 -165 -166 -188 0
-22 -40 -43 -59 -60 -77 -78 -94 -95 -126 -127 -140 -141 -153 -154 -165 -166 -188 0
-21 -41 -42 -59 -61 -77 -78 -94 -95 -126 -127 -140 -141 -153 -154 -165 -166 -188 0
-22 -41 -43 -59 -61 -77 -78 -94 -95 -126 -127 -140 -141 -153 -154 -165 -166 -188 0
-22 -42 -43 -59 -62 -77 -78 -94 -95 -126 -127 -140 -141 -153 -154 -165 -166 -188 0
-21 -41 -42 -60 -61 -77 -79 -94 -95 -126 -127 -140 -141 -153 -154 -165 -166 -188 0
-22 -41 -43 -60 -61 -77 -79 -94 -95 -126 -127 -140 -141 -153 -154 -165 -166 -188 0
-22 -42 -43 -60 -62 -77 -79 -94 -95 -126 -127 -140 -141 -153 -154 -165 -166 -188 0
-22 -42 -43 -61 -62 -77 -80 -94 -95 -126 -127 -140 -141 -153 -154 -165 -166 -188 0
-21 -41 -42 -60 -61 -78 -79 -94 -96 -126 -127 -140 -141 -153 -154 -165 -166 -188 0
-22 -41 -43 -60 -61 -78 -79 -94 -96 -126 -127 -140 -141 -153 -154 -165 -166 -188 0
-22 -42 -43 -60 -62 -78 -79 -94 -96 -126 -127 -140 -141 -153 -154 -165 -166 -188 0
-22 -42 -43 -61 -62 -78 -80 -94 -96 -126 -127 -140 -141 -153 -154 -165 -166 -188 0
-22 -42 -43 -61 -62 -79 -80 -94 -97 -126 -127 -140 -141 -153 -154 -165 -166 -188 0
-21 -41 -42 -60 -61 -78 -79 -95 -96 -126 -128 -140 -141 -153 -154 -165 -166 -188 0
-22 -41 -43 -60 -61 -78 -79 -95 -96 -126 -128 -140 -141 -153 -154 -165 -166 -188 0
-22 -42 -43 -60 -62 -78 -79 -95 -96 -126 -128 -140 -141 -153 -154 -165 -166 -188 0
-22 -42 -43 -61 -62 -78 -80 -95 -96 -126 -128 -140 -141 -153 -154 -165 -166 -188 0
-22 -42 -43 -61 -62 -79 -80 -95 -97 -126 -128 -140 -141 -153 -154 -165 -166 -188 0
-22 -42 -43 -61 -62 -79 -80 -96 -97 -126 -129 -140 -141 -153 -154 -165 -166 -188 0
-21 -41 -42 -60 -61 -78 -79 -95 -96 -127 -128 -140 -142 -153 -154 -165 -166 -188 0
-22 -41 -43 -60 -61 -78 -79 -95 -96 -127 -128 -140 -142 -153 -154 -165 -166 -188 0
-22 -42 -43 -60 -62 -78 -79 -95 -96 -127 -128 -140 -142 -153 -154 -165 -166 -188 0
-22 -42 -43 -61 -62 -78 -80 -95 -96 -127 -128 -140 -142 -153 -154 -165 -166 -188 0
-22 -42 -43 -61 -62 -79 -80 -95 -97 -127 -128 -140 -142 -153 -154 -165 -166 -188 0
-22 -42 -43 -61 -62 -79 -80 -96 -97 -127 -129 -140 -142 -153 -154 -165 -166 -188 0
-22 -42 -43 -61 -62 -79 -80 -96 -97 -128 -129 -140 -143 -153 -154 -165 -166 -188 0
-21 -41 -42 -60 -61 -78 -79 -95 -96 -127 -128 -141 -142 -153 -155 -165 -166 -188 0
-22 -41 -43 -60 -61 -78 -79 -95 -96 -127 -128 -141 -142 -153 -155 -165 -166 -188 0
-22 -42 -43 -60 -62 -78 -79 -95 -96 -127 -128 -141 -142 -153 -155 -165 -166 -188 0
-22 -42 -43 -61 -62 -78 -80 -95 -96 -127 -128 -141 -142 -153 -155 -165 -166 -188 0
-22 -42 -43 -61 -62 -79 -80 -95 -97 -127 -128 -141 -142 -153 -155 -165 -166 -188 0
-22 -42 -43 -61 -62 -79 -80 -96 -97 -127 -129 -141 -142 -153 -155 -165 -166 -188 0
-22 -42 -43 -61 -62 -79 -80 -96 -97 -128 -129 -141 -143 -153 -155 -165 -166 -188 0
-22 -42 -43 -61 -62 -79 -80 -96 -97 -128 -129 -142 -143 -153 -156 -165 -166 -188 0
-21 -41 -42 -60 -61 -78 -79 -95 -96 -127 -128 -141 -142 -154 -155 -165 -167 -188 0
-22 -41 -43 -60 -61 -78 -79 -95 -96 -127 -128 -141 -142 -154 -155 -165 -167 -188 0
-22 -42 -43 -60 -62 -78 -79 -95 -96 -127 -128 -141 -142 -154 -155 -165 -167 -188 0
-22 -42 -43 -61 -62 -78 -80 -95 -96 -127 -128 -141 -142 -154 -155 -165 -167 -188 0
-22 -42 -43 -61 -62 -79 -80 -95 -97 -127 -128 -141 -142 -154 -155 -165 -167 -188 0
-22 -42 -43 -61 -62 -79 -80 -96 -97 -127 -129 -141 -142 -154 -155 -165 -167 -188 0
-22 -42 -43 -61 -62 -79 -80 -96 -97 -128 -129 -141 -143 -154 -155 -165 -167 -188 0
-22 -42 -43 -61 -62 -79 -80 -96 -97 -128 -129 -142 -143 -154 -156 -165 -167 -188 0
-22 -42 -43 -61 -62 -79 -80 -96 -97 -128 -129 -142 -143 -155 -156 -165 -168 -188 0
-21 -41 -42 -60 -61 -78 -79 -95 -96 -127 -128 -141 -142 -154 -155 -166 -167 -189 0
-22 -41 -43 -60 -61 -78 -79 -95 -96 -127 -128 -141 -142 -154 -155 -166 -167 -189 0
-22 -42 -43 -60 -62 -78 -79 -95 -96 -127 -128 -141 -142 -154 -155 -166 -167 -189 0
-22 -42 -43 -61 -62 -78 -80 -95 -96 -127 -128 -141 -142 -154 -155 -166 -167 -189 0
-22 -42 -43 -61 -62 -79 -80 -95 -97 -127 -128 -141 -142 -154 -155 -166 -167 -189 0
-22 -42 -43 -61 -62 -79 -80 -96 -97 -127 -129 -141 -142 -154 -155 -166 -167 -189 0
-22 -42 -43 -61 -62 -79 -80 -96 -97 -128 -129 -141 -143 -154 -155 -166 -167 -189 0
-22 -42 -43 -61 -62 -79 -80 -96 -97 -128 -129 -142 -143 -154 -156 -166 -167 -189 0
-22 -42 -43 -61 -62 -79 -80 -96 -97 -128 -129 -142 -143 -155 -156 -166 -168 -189 0
-22 -42 -43 -61 -62 -79 -80 -96 -97 -128 -129 -142 -143 -155 -156 -167 -168 -190 0
-21 -41 -42 -60 -61 -78 -79 -95 -96 -127 -128 -141 -142 -154 -155 -166 -167 -199 0
-22 -41 -43 -60 -61 -78 -79 -95 -96 -127 -128 -141 -142 -154 -155 -166 -167 -199 0
-22 -42 -43 -60 -62 -78 -79 -95 -96 -127 -128 -141 -142 -154 -155 -166 -167 -199 0
-22 -42 -43 -61 -62 -78 -80 -95 -96 -127 -128 -141 -142 -154 -155 -166 -167 -199 0
-22 -42 -43 -61 -62 -79 -80 -95 -97 -127 -128 -141 -142 -154 -155 -166 -167 -199 0
-22 -42 -43 -61 -62 -79 -80 -96 -97 -127 -129 -141 -142 -154 -155 -166 -167 -199 0
-22 -42 -43 -61 -62 -79 -80 -96 -97 -128 -129 -141 -143 -154 -155 -166 -167 -199 0
-22 -42 -43 -61 -62 -79 -80 -96 -97 -128 -129 -142 -143 -154 -156 -166 -167 -199 0
-22 -42 -43 -61 -62 -79 -80 -96 -97 -128 -129 -142 -143 -155 -156 -166 -168 -199 0
-22 -42 -43 -61 -62 -79 -80 -96 -97 -128 -129 -142 -143 -155 -156 -167 -168 -200 0
-22 -42 -43 -61 -62 -79 -80 -96 -97 -128 -129 -142 -143 -155 -156 -167 -168 -209 0
-20 -40 -41 -59 -60 -77 -78 -94 -95 -126 -127 -140 -141 -153 -154 -177 -178 -188 0
-21 -40 -42 -59 -60 -77 -78 -94 -95 -126 -127 -140 -141 -153 -154 -177 -178 -188 0
-22 -40 -43 -59 -60 -77 -78 -94 -95 -126 -127 -140 -141 -153 -154 -177 -178 -188 0
-21 -41 -42 -59 -61 -77 -78 -94 -95 -126 -127 -140 -141 -153 -154 -177 -178 -188 0
-22 -41 -43 -59 -61 -77 -78 -94 -95 -126 -127 -140 -141 -153 -154 -177 -178 -188 0
-22 -42 -43 -59 -62 -77 -78 -94 -95 -126 -127 -140 -141 -153 -154 -177 -178 -188 0
-21 -41 -42 -60 -61 -77 -79 -94 -95 -126 -127 -140 -141 -153 -154 -177 -178 -188 0
-22 -41 -43 -60 -61 -77 -79 -94 -95 -126 -127 -140 -141 -153 -154 -177 -178 -188 0
-22 -42 -43 -60 -62 -77 -79 -94 -95 -126 -127 -140 -141 -153 -154 -177 -178 -188 0
-22 -42 -43 -61 -62 -77 -80 -94 -95 -126 -127 -140 -141 -153 -154 -177 -178 -188 0
-21 -41 -42 -60 -61 -78 -79 -94 -96 -126 -127 -140 -141 -153 -154 -177 -178 -188 0
-22 -41 -43 -60 -61 -78 -79 -94 -96 -126 -127 -140 -141 -153 -154 -177 -178 -188 0
-22 -42 -43 -60 -62 -78 -79 -94 -96 -126 -127 -140 -141 -153 -154 -177 -178 -188 0
-22 -42 -43 -61 -62 -78 -80 -94 -96 -126 -127 -140 -141 -153 -154 -177 -178 -188 0
-22 -42 -43 -61 -62 -79 -80 -94 -97 -126 -127 -140 -141 -153 -154 -177 -178 -188 0
-21 -41 -42 -60 -61 -78 -79 -95 -96 -126 -128 -140 -141 -153 -154 -177 -178 -188 0
-22 -41 -43 -60 -61 -78 -79 -95 -96 -126 -128 -140 -141 -153 -154 -177 -178 -188 0
-22 -42 -43 -60 -62 -78 -79 -95 -96 -126 -128 -140 -141 -153 -154 -177 -178 -188 0
-22 -42 -43 -61 -62 -78 -80 -95 -96 -126 -128 -140 -141 -153 -154 -177 -178 -188 0
-22 -42 -43 -61 -62 -79 -80 -95 -97 -126 -128 -140 -141 -153 -154 -177 -178 -188 0
-22 -42 -43 -61 -62 -79 -80 -96 -97 -126 -129 -140 -141 -153 -154 -177 -178 -188 0
-21 -41 -42 -60 -61 -78 -79 -95 -96 -127 -128 -140 -142 -153 -154 -177 -178 -188 0
-22 -41 -43 -60 -61 -78 -79 -95 -96 -127 -128 -140 -142 -153 -154 -177 -178 -188 0
-22 -42 -43 -60 -62 -78 -79 -95 -96 -127 -128 -140 -142 -153 -154 -177 -178 -188 0
-22 -42 -43 -61 -62 -78 -80 -95 -96 -127 -128 -140 -142 -153 -154 -177 -178 -188 0
-22 -42 -43 -61 -62 -79 -80 -95 -97 -127 -128 -140 -142 -153 -154 -177 -178 -188 0
-22 -42 -43 -61 -62 -79 -80 -96 -97 -127 -129 -140 -142 -153 -154 -177 -178 -188 0
-22 -42 -43 -61 -62 -79 -80 -96 -97 -128 -129 -140 -143 -153 -154 -177 -178 -188 0
-21 -41 -42 -60 -61 -78 -79 -95 -96 -127 -128 -141 -142 -153 -155 -177 -178 -188 0
-22 -41 -43 -60 -61 -78 -79 -95 -96 -127 -128 -141 -142 -153 -155 -177 -178 -188 0
-22 -42 -43 -60 -62 -78 -79 -95 -96 -127 -128 -141 -142 -153 -155 -177 -178 -188 0
-22 -42 -43 -61 -62 -78 -80 -95 -96 -127 -128 -141 -142 -153 -155 -177 -178 -188 0
-22 -42 -43 -61 -62 -79 -80 -95 -97 -127 -128 -141 -142 -153 -155 -177 -178 -188 0
-22 -42 -43 -61 -62 -79 -80 -96 -97 -127 -129 -141 -142 -153 -155 -177 -178 -188 0
-22 -42 -43 -61 -62 -79 -80 -96 -97 -128 -129 -141 -143 -153 -155 -177 -178 -188 0
-22 -42 -43 -61 -62 -79 -80 -96 -97 -128 -129 -142 -143 -153 -156 -177 -178 -188 0
-21 -41 -42 -60 -61 -78 -79 -95 -96 -127 -128 -141 -142 -154 -155 -177 -179 -188 0
-22 -41 -43 -60 -61 -78 -79 -95 -96 -127 -128 -141 -142 -154 -155 -177 -179 -188 0
-22 -42 -43 -60 -62 -78 -79 -95 -96 -127 -128 -141 -142 -154 -155 -177 -179 -188 0
-22 -42 -43 -61 -62 -78 -80 -95 -96 -127 -128 -141 -142 -154 -155 -177 -179 -188 0
-22 -42 -43 -61 -62 -79 -80 -95 -97 -127 -128 -141 -142 -154 -155 -177 -179 -188 0
-22 -42 -43 -61 -62 -79 -80 -96 -97 -127 -129 -141 -142 -154 -155 -177 -179 -188 0
-22 -42 -43 -61 -62 -79 -80 -96 -97 -128 -129 -141 -143 -154 -155 -177 -179 -188 0
-22 -42 -43 -61 -62 -79 -80 -96 -97 -128 -129 -142 -143 -154 -156 -177 -179 -188 0
-22 -42 -43 -61 -62 -79 -80 -96 -97 -128 -129 -142 -143 -155 -156 -177 -180 -188 0
-21 -41 -42 -60 -61 -78 -79 -95 -96 -127 -128 -141 -142 -154 -155 -178 -179 -189 0
-22 -41 -43 -60 -61 -78 -79 -95 -96 -127 -128 -141 -142 -154 -155 -178 -179 -189 0
-22 -42 -43 -60 -62 -78 -79 -95 -96 -127 -128 -141 -142 -154 -155 -178 -179 -189 0
-22 -42 -43 -61 -62 -78 -80 -95 -96 -127 -128 -141 -142 -154 -155 -178 -179 -189 0
-22 -42 -43 -61 -62 -79 -80 -95 -97 -127 -128 -141 -142 -154 -155 -178 -179 -189 0
-22 -42 -43 -61 -62 -79 -80 -96 -97 -127 -129 -141 -142 -154 -155 -178 -179 -189 0
-22 -42 -43 -61 -62 -79 -80 -96 -97 -128 -129 -141 -143 -154 -155 -178 -179 -189 0
-22 -42 -43 -61 -62 -79 -80 -96 -97 -128 -129 -142 -143 -154 -156 -178 -179 -189 0
-22 -42 -43 -61 -62 -79 -80 -96 -97 -128 -129 -142 -143 -155 -156 -178 -180 -189 0
-22 -42 -43 -61 -62 -79 -80 -96 -97 -128 -129 -142 -143 -155 -156 -179 -180 -190 0
-21 -41 -42 -60 -61 -78 -79 -95 -96 -127 -128 -141 -142 -154 -155 -178 -179 -199 0
-22 -41 -43 -60 -61 -78 -79 -95 -96 -127 -128 -141 -142 -154 -155 -178 -179 -199 0
-22 -42 -43 -60 -62 -78 -79 -95 -96 -127 -128 -141 -142 -154 -155 -178 -179 -199 0
-22 -42 -43 -61 -62 -78 -80 -95 -96 -127 -128 -141 -142 -154 -155 -178 -179 -199 0
-22 -42 -43 -61 -62 -79 -80 -95 -97 -127 -128 -141 -142 -154 -155 -178 -179 -199 0
-22 -42 -43 -61 -62 -79 -80 -96 -97 -127 -129 -141 -142 -154 -155 -178 -179 -199 0
-22 -42 -43 -61 -62 -79 -80 -96 -97 -128 -129 -141 -143 -154 -155 -178 -179 -199 0
-22 -42 -43 -61 -62 -79 -80 -96 -97 -128 -129 -142 -143 -154 -156 -178 -179 -199 0
-22 -42 -43 -61 -62 -79 -80 -96 -97 -128 -129 -142 -143 -155 -156 -178 -180 -199 0
-22 -42 -43 -61 -62 -79 -80 -96 -97 -128 -129 -142 -143 -155 -156 -179 -180 -200 0
-22 -42 -43 -61 -62 -79 -80 -96 -97 -128 -129 -142 -143 -155 -156 -179 -180 -209 0
-21 -41 -42 -60 -61 -78 -79 -95 -96 -127 -128 -141 -142 -154 -155 -189 -190 -199 0
-22 -41 -43 -60 -61 -78 -79 -95 -96 -127 -128 -141 -142 -154 -155 -189 -190 -199 0
-22 -42 -43 -60 -62 -78 -79 -95 -96 -127 -128 -141 -142 -154 -155 -189 -190 -199 0
-22 -42 -43 -61 -62 -78 -80 -95 -96 -127 -128 -141 -142 -154 -155 -189 -190 -199 0
-22 -42 -43 -61 -62 -79 -80 -95 -97 -127 -128 -141 -142 -154 -155 -189 -190 -199 0
-22 -42 -43 -61 -62 -79 -80 -96 -97 -127 -129 -141 -142 -154 -155 -189 -190 -199 0
-22 -42 -43 -61 -62 -79 -80 -96 -97 -128 -129 -141 -143 -154 -155 -189 -190 -199 0
-22 -42 -43 -61 -62 -79 -80 -96 -97 -128 -129 -142 -143 -154 -156 -189 -190 -199 0
-22 -42 -43 -61 -62 -79 -80 -96 -97 -128 -129 -142 -143 -155 -156 -189 -191 -199 0
-22 -42 -43 -61 -62 -79 -80 -96 -97 -128 -129 -142 -143 -155 -156 -190 -191 -200 0
-22 -42 -43 -61 -62 -79 -80 -96 -97 -128 -129 -142 -143 -155 -156 -190 -191 -209 0
-22 -42 -43 -61 -62 -79 -80 -96 -97 -128 -129 -142 -143 -155 -156 -200 -201 -209 0
-20 -40 -41 -59 -60 -77 -78 -94 -95 -126 -127 -140 -141 -166 -167 -177 -178 -188 0
-21 -40 -42 -59 -60 -77 -78 -94 -95 -126 -127 -140 -141 -166 -167 -177 -178 -188 0
-22 -40 -43 -59 -60 -77 -78 -94 -95 -126 -127 -140 -141 -166 -167 -177 -178 -188 0
-21 -41 -42 -59 -61 -77 -78 -94 -95 -126 -127 -140 -141 -166 -167 -177 -178 -188 0
-22 -41 -43 -59 -61 -77 -78 -94 -95 -126 -127 -140 -141 -166 -167 -177 -178 -188 0
-22 -42 -43 -59 -62 -77 -78 -94 -95 -126 -127 -140 -141 -166 -167 -177 -178 -188 0
-21 -41 -42 -60 -61 -77 -79 -94 -95 -126 -127 -140 -141 -166 -167 -177 -178 -188 0
-22 -41 -43 -60 -61 -77 -79 -94 -95 -126 -127 -140 -141 -166 -167 -177 -178 -188 0
-22 -42 -43 -60 -62 -77 -79 -94 -95 -126 -127 -140 -141 -166 -167 -177 -178 -188 0
-22 -42 -43 -61 -62 -77 -80 -94 -95 -126 -127 -140 -141 -166 -167 -177 -178 -188 0
-21 -41 -42 -60 -61 -78 -79 -94 -96 -126 -127 -140 -141 -166 -167 -177 -178 -188 0
-22 -41 -43 -60 -61 -78 -79 -94 -96 -126 -127 -140 -141 -166 -167 -177 -178 -188 0
-22 -42 -43 -60 -62 -78 -79 -94 -96 -126 -127 -140 -141 -166 -167 -177 -178 -188 0
-22 -42 -43 -61 -62 -78 -80 -94 -96 -126 -127 -140 -141 -166 -167 -177 -178 -188 0
-22 -42 -43 -61 -62 -79 -80 -94 -97 -126 -127 -140 -141 -166 -167 -177 -178 -188 0
-21 -41 -42 -60 -61 -78 -79 -95 -96 -126 -128 -140 -141 -166 -167 -177 -178 -188 0
-22 -41 -43 -60 -61 -78 -79 -95 -96 -126 -128 -140 -141 -166 -167 -177 -178 -188 0
-22 -42 -43 -60 -62 -78 -79 -95 -96 -126 -128 -140 -141 -166 -167 -177 -178 -188 0
-22 -42 -43 -61 -62 -78 -80 -95 -96 -126 -128 -140 -141 -166 -167 -177 -178 -188 0
-22 -42 -43 -61 -62 -79 -80 -95 -97 -126 -128 -140 -141 -166 -167 -177 -178 -188 0
-22 -42 -43 -61 -62 -79 -80 -96 -97 -126 -129 -140 -141 -166 -167 -177 -178 -188 0
-21 -41 -42 -60 -61 -78 -79 -95 -96 -127 -128 -140 -142 -166 -167 -177 -178 -188 0
-22 -41 -43 -60 -61 -78 -79 -95 -96 -127 -128 -140 -142 -166 -167 -177 -178 -188 0
-22 -42 -43 -60 -62 -78 -79 -95 -96 -127 -128 -140 -142 -166 -167 -177 -178 -188 0
-22 -42 -43 -61 -62 -78 -80 -95 -96 -127 -128 -140 -142 -166 -167 -177 -178 -188 0
-22 -42 -43 -61 -62 -79 -80 -95 -97 -127 -128 -140 -142 -166 -167 -177 -178 -188 0
-22 -42 -43 -61 -62 -79 -80 -96 -97 -127 -129 -140 -142 -166 -167 -177 -178 -188 0
-22 -42 -43 -61 -62 -79 -80 -96 -97 -128 -129 -140 -143 -166 -167 -177 -178 -188 0
-21 -41 -42 -60 -61 -78 -79 -95 -96 -127 -128 -141 -142 -166 -168 -177 -178 -188 0
-22 -41 -43 -60 -61 -78 -79 -95 -96 -127 -128 -141 -142 -166 -168 -177 -178 -188 0
-22 -42 -43 -60 -62 -78 -79 -95 -96 -127 -128 -141 -142 -166 -168 -177 -178 -188 0
-22 -42 -43 -61 -62 -78 -80 -95 -96 -127 -128 -141 -142 -166 -168 -177 -178 -188 0
-22 -42 -43 -61 -62 -79 -80 -95 -97 -127 -128 -141 -142 -166 -168 -177 -178 -188 0
-22 -42 -43 -61 -62 -79 -80 -96 -97 -127 -129 -141 -142 -166 -168 -177 -178 -188 0
-22 -42 -43 -61 -62 -79 -80 -96 -97 -128 -129 -141 -143 -166 -168 -177 -178 -188 0
-22 -42 -43 -61 -62 -79 -80 -96 -97 -128 -129 -142 -143 -166 -169 -177 -178 -188 0
-21 -41 -42 -60 -61 -78 -79 -95 -96 -127 -128 -141 -142 -167 -168 -177 -179 -188 0
-22 -41 -43 -60 -61 -78 -79 -95 -96 -127 -128 -141 -142 -167 -168 -177 -179 -188 0
-22 -42 -43 -60 -62 -78 -79 -95 -96 -127 -128 -141 -142 -167 -168 -177 -179 -188 0
-22 -42 -43 -61 -62 -78 -80 -95 -96 -127 -128 -141 -142 -167 -168 -177 -179 -188 0
-22 -42 -43 -61 -62 -79 -80 -95 -97 -127 -128 -141 -142 -167 -168 -177 -179 -188 0
-22 -42 -43 -61 -62 -79 -80 -96 -97 -127 -129 -141 -142 -167 -168 -177 -179 -188 0
-22 -42 -43 -61 -62 -79 -80 -96 -97 -128 -129 -141 -143 -167 -168 -177 -179 -188 0
-22 -42 -43 -61 -62 -79 -80 -96 -97 -128 -129 -142 -143 -167 -169 -177 -179 -188 0
-22 -42 -43 -61 -62 -79 -80 -96 -97 -128 -129 -142 -143 -168 -169 -177 -180 -188 0
-21 -41 -42 -60 -61 -78 -79 -95 -96 -127 -128 -141 -142 -167 -168 -178 -179 -189 0
-22 -41 -43 -60 -61 -78 -79 -95 -96 -127 -128 -141 -142 -167 -168 -178 -179 -189 0
-22 -42 -43 -60 -62 -78 -79 -95 -96 -127 -128 -141 -142 -167 -168 -178 -179 -189 0
-22 -42 -43 -61 -62 -78 -80 -95 -96 -127 -128 -141 -142 -167 -168 -178 -179 -189 0
-22 -42 -43 -61 -62 -79 -80 -95 -97 -127 -128 -141 -142 -167 -168 -178 -179 -189 0
-22 -42 -43 -61 -62 -79 -80 -96 -97 -127 -129 -141 -142 -167 -168 -178 -179 -189 0
-22 -42 -43 -61 -62 -79 -80 -96 -97 -128 -129 -141 -143 -167 -168 -178 -179 -189 0
-22 -42 -43 -61 -62 -79 -80 -96 -97 -128 -129 -142 -143 -167 -169 -178 -179 -189 0
-22 -42 -43 -61 -62 -79 -80 -96 -97 -128 -129 -142 -143 -168 -169 -178 -180 -189 0
-22 -42 -43 -61 -62 -79 -80 -96 -97 -128 -129 -142 -143 -168 -169 -179 -180 -190 0
-21 -41 -42 -60 -61 -78 -79 -95 -96 -127 -128 -141 -142 -167 -168 -178 -179 -199 0
-22 -41 -43 -60 -61 -78 -79 -95 -96 -127 -128 -141 -142 -167 -168 -178 -179 -199 0
-22 -42 -43 -60 -62 -78 -79 -95 -96 -127 -128 -141 -142 -167 -168 -178 -179 -199 0
-22 -42 -43 -61 -62 -78 -80 -95 -96 -127 -128 -141 -142 -167 -168 -178 -179 -199 0
-22 -42 -43 -61 -62 -79 -80 -95 -97 -127 -128 -141 -142 -167 -168 -178 -179 -199 0
-22 -42 -43 -61 -62 -79 -80 -96 -97 -127 -129 -141 -142 -167 -168 -178 -179 -199 0
-22 -42 -43 -61 -62 -79 -80 -96 -97 -128 -129 -141 -143 -167 -168 -178 -179 -199 0
-22 -42 -43 -61 -62 -79 -80 -96 -97 -128 -129 -142 -143 -167 -169 -178 -179 -199 0
-22 -42 -43 -61 -62 -79 -80 -96 -97 -128 -129 -142 -143 -168 -169 -178 -180 -199 0
-22 -42 -43 -61 -62 -79 -80 -96 -97 -128 -129 -142 -143 -168 -169 -179 -180 -200 0
-22 -42 -43 -61 -62 -79 -80 -96 -97 -128 -129 -142 -143 -168 -169 -179 -180 -209 0
-21 -41 -42 -60 -61 -78 -79 -95 -96 -127 -128 -141 -142 -167 -168 -189 -190 -199 0
-22 -41 -43 -60 -61 -78 -79 -95 -96 -127 -128 -141 -142 -167 -168 -189 -190 -199 0
-22 -42 -43 -60 -62 -78 -79 -95 -96 -127 -128 -141 -142 -167 -168 -189 -190 -199 0
-22 -42 -43 -61 -62 -78 -80 -95 -96 -127 -128 -141 -142 -167 -168 -189 -190 -199 0
-22 -42 -43 -61 -62 -79 -80 -95 -97 -127 -128 -141 -142 -167 -168 -189 -190 -199 0
-22 -42 -43 -61 -62 -79 -80 -96 -97 -127 -129 -141 -142 -167 -168 -189 -190 -199 0
-22 -42 -43 -61 -62 -79 -80 -96 -97 -128 -129 -141 -143 -167 -168 -189 -190 -199 0
-22 -42 -43 -61 -62 -79 -80 -96 -97 -128 -129 -142 -143 -167 -169 -189 -190 -199 0
-22 -42 -43 -61 -62 -79 -80 -96 -97 -128 -129 -142 -143 -168 -169 -189 -191 -199 0
-22 -42 -43 -61 -62 -79 -80 -96 -97 -128 -129 -142 -143 -168 -169 -190 -191 -200 0
-22 -42 -43 -61 -62 -79 -80 -96 -97 -128 -129 -142 -143 -168 -169 -190 -191 -209 0
-22 -42 -43 -61 -62 -79 -80 -96 -97 -128 -129 -142 -143 -168 -169 -200 -201 -209 0
-21 -41 -42 -60 -61 -78 -79 -95 -96 -127 -128 -141 -142 -179 -180 -189 -190 -199 0
-22 -41 -43 -60 -61 -78 -79 -95 -96 -127 -128 -141 -142 -179 -180 -189 -190 -199 0
-22 -42 -43 -60 -62 -78 -79 -95 -96 -127 -128 -141 -142 -179 -180 -189 -190 -199 0
-22 -42 -43 -61 -62 -78 -80 -95 -96 -127 -128 -141 -142 -179 -180 -189 -190 -199 0
-22 -42 -43 -61 -62 -79 -80 -95 -97 -127 -128 -141 -142 -179 -180 -189 -190 -199 0
-22 -42 -43 -61 -62 -79 -80 -96 -97 -127 -129 -141 -142 -179 -180 -189 -190 -199 0
-22 -42 -43 -61 -62 -79 -80 -96 -97 -128 -129 -141 -143 -179 -180 -189 -190 -199 0
-22 -42 -43 -61 -62 -79 -80 -96 -97 -128 -129 -142 -143 -179 -181 -189 -190 -199 0
-22 -42 -43 -61 -62 -79 -80 -96 -97 -128 -129 -142 -143 -180 -181 -189 -191 -199 0
-22 -42 -43 -61 -62 -79 -80 -96 -97 -128 -129 -142 -143 -180 -181 -190 -191 -200 0
-22 -42 -43 -61 -62 -79 -80 -96 -97 -128 -129 -142 -143 -180 -181 -190 -191 -209 0
-22 -42 -43 -61 -62 -79 -80 -96 -97 -128 -129 -142 -143 -180 -181 -200 -201 -209 0
-22 -42 -43 -61 -62 -79 -80 -96 -97 -128 -129 -142 -143 -191 -192 -200 -201 -209 0
-20 -40 -41 -59 -60 -77 -78 -94 -95 -126 -127 -154 -155 -166 -167 -177 -178 -188 0
-21 -40 -42 -59 -60 -77 -78 -94 -95 -126 -127 -154 -155 -166 -167 -177 -178 -188 0
-22 -40 -43 -59 -60 -77 -78 -94 -95 -126 -127 -154 -155 -166 -167 -177 -178 -188 0
-21 -41 -42 -59 -61 -77 -78 -94 -95 -126 -127 -154 -155 -166 -167 -177 -178 -188 0
-22 -41 -43 -59 -61 -77 -78 -94 -95 -126 -127 -154 -155 -166 -167 -177 -178 -188 0
-22 -42 -43 -59 -62 -77 -78 -94 -95 -126 -127 -154 -155 -166 -167 -177 -178 -188 0
-21 -41 -42 -60 -61 -77 -79 -94 -95 -126 -127 -154 -155 -166 -167 -177 -178 -188 0
-22 -41 -43 -60 -61 -77 -79 -94 -95 -126 -127 -154 -155 -166 -167 -177 -178 -188 0
-22 -42 -43 -60 -62 -77 -79 -94 -95 -126 -127 -154 -155 -166 -167 -177 -178 -188 0
-22 -42 -43 -61 -62 -77 -80 -94 -95 -126 -127 -154 -155 -166 -167 -177 -178 -188 0
-21 -41 -42 -60 -61 -78 -79 -94 -96 -126 -127 -154 -155 -166 -167 -177 -178 -188 0
-22 -41 -43 -60 -61 -78 -79 -94 -96 -126 -127 -154 -155 -166 -167 -177 -178 -188 0
-22 -42 -43 -60 -62 -78 -79 -94 -96 -126 -127 -154 -155 -166 -167 -177 -178 -188 0
-22 -42 -43 -61 -62 -78 -80 -94 -96 -126 -127 -154 -155 -166 -167 -177 -178 -188 0
-22 -42 -43 -61 -62 -79 -80 -94 -97 -126 -127 -154 -155 -166 -167 -177 -178 -188 0
-21 -41 -42 -60 -61 -78 -79 -95 -96 -126 -128 -154 -155 -166 -167 -177 -178 -188 0
-22 -41 -43 -60 -61 -78 -79 -95 -96 -126 -128 -154 -155 -166 -167 -177 -178 -188 0
-22 -42 -43 -60 -62 -78 -79 -95 -96 -126 -128 -154 -155 -166 -167 -177 -178 -188 0
-22 -42 -43 -61 -62 -78 -80 -95 -96 -126 -128 -154 -155 -166 -167 -177 -178 -188 0
-22 -42 -43 -61 -62 -79 -80 -95 -97 -126 -128 -154 -155 -166 -167 -177 -178 -188 0
-22 -42 -43 -61 -62 -79 -80 -96 -97 -126 -129 -154 -155 -166 -167 -177 -178 -188 0
-21 -41 -42 -60 -61 -78 -79 -95 -96 -127 -128 -154 -156 -166 -167 -177 -178 -188 0
-22 -41 -43 -60 -61 -78 -79 -95 -96 -127 -128 -154 -156 -166 -167 -177 -178 -188 0
-22 -42 -43 -60 -62 -78 -79 -95 -96 -127 -128 -154 -156 -166 -167 -177 -178 -188 0
-22 -42 -43 -61 -62 -78 -80 -95 -96 -127 -128 -154 -156 -166 -167 -177 -178 -188 0
-22 -42 -43 -61 -62 -79 -80 -95 -97 -127 -128 -154 -156 -166 -167 -177 -178 -188 0
-22 -42 -43 -61 -62 -79 -80 -96 -97 -127 -129 -154 -156 -166 -167 -177 -178 -188 0
-22 -42 -43 -61 -62 -79 -80 -96 -97 -128 -129 -154 -157 -166 -167 -177 -178 -188 0
-21 -41 -42 -60 -61 -78 -79 -95 -96 -127 -128 -155 -156 -166 -168 -177 -178 -188 0
-22 -41 -43 -60 -61 -78 -79 -95 -96 -127 -128 -155 -156 -166 -168 -177 -178 -188 0
-22 -42 -43 -60 -62 -78 -79 -95 -96 -127 -128 -155 -156 -166 -168 -177 -178 -188 0
-22 -42 -43 -61 -62 -78 -80 -95 -96 -127 -128 -155 -156 -166 -168 -177 -178 -188 0
-22 -42 -43 -61 -62 -79 -80 -95 -97 -127 -128 -155 -156 -166 -168 -177 -178 -188 0
-22 -42 -43 -61 -62 -79 -80 -96 -97 -127 -129 -155 -156 -166 -168 -177 -178 -188 0
-22 -42 -43 -61 -62 -79 -80 -96 -97 -128 -129 -155 -157 -166 -168 -177 -178 -188 0
-22 -42 -43 -61 -62 -79 -80 -96 -97 -128 -129 -156 -157 -166 -169 -177 -178 -188 0
-21 -41 -42 -60 -61 -78 -79 -95 -96 -127 -128 -155 -156 -167 -168 -177 -179 -188 0
-22 -41 -43 -60 -61 -78 -79 -95 -96 -127 -128 -155 -156 -167 -168 -177 -179 -188 0
-22 -42 -43 -60 -62 -78 -79 -95 -96 -127 -128 -155 -156 -167 -168 -177 -179 -188 0
-22 -42 -43 -61 -62 -78 -80 -95 -96 -127 -128 -155 -156 -167 -168 -177 -179 -188 0
-22 -42 -43 -61 -62 -79 -80 -95 -97 -127 -128 -155 -156 -167 -168 -177 -179 -188 0
-22 -42 -43 -61 -62 -79 -80 -96 -97 -127 -129 -155 -156 -167 -168 -177 -179 -188 0
-22 -42 -43 -61 -62 -79 -80 -96 -97 -128 -129 -155 -157 -167 -168 -177 -179 -188 0
-22 -42 -43 -61 -62 -79 -80 -96 -97 -128 -129 -156 -157 -167 -169 -177 -179 -188 0
-22 -42 -43 -61 -62 -79 -80 -96 -97 -128 -129 -156 -157 -168 -169 -177 -180 -188 0
-21 -41 -42 -60 -61 -78 -79 -95 -96 -127 -128 -155 -156 -167 -168 -178 -179 -189 0
-22 -41 -43 -60 -61 -78 -79 -95 -96 -127 -128 -155 -156 -167 -168 -178 -179 -189 0
-22 -42 -43 -60 -62 -78 -79 -95 -96 -127 -128 -155 -156 -167 -168 -178 -179 -189 0
-22 -42 -43 -61 -62 -78 -80 -95 -96 -127 -128 -155 -156 -167 -168 -178 -179 -189 0
-22 -42 -43 -61 -62 -79 -80 -95 -97 -127 -128 -155 -156 -167 -168 -178 -179 -189 0
-22 -42 -43 -61 -62 -79 -80 -96 -97 -127 -129 -155 -156 -167 -168 -178 -179 -189 0
-22 -42 -43 -61 -62 -79 -80 -96 -97 -128 -129 -155 -157 -167 -168 -178 -179 -189 0
-22 -42 -43 -61 -62 -79 -80 -96 -97 -128 -129 -156 -157 -167 -169 -178 -179 -189 0
-22 -42 -43 -61 -62 -79 -80 -96 -97 -128 -129 -156 -157 -168 -169 -178 -180 -189 0
-22 -42 -43 -61 -62 -79 -80 -96 -97 -128 -129 -156 -157 -168 -169 -179 -180 -190 0
-21 -41 -42 -60 -61 -78 -79 -95 -96 -127 -128 -155 -156 -167 -168 -178 -179 -199 0
-22 -41 -43 -60 -61 -78 -79 -95 -96 -127 -128 -155 -156 -167 -168 -178 -179 -199 0
-22 -42 -43 -60 -62 -78 -79 -95 -96 -127 -128 -155 -156 -167 -168 -178 -179 -199 0
-22 -42 -43 -61 -62 -78 -80 -95 -96 -127 -128 -155 -156 -167 -168 -178 -179 -199 0
-22 -42 -43 -61 -62 -79 -80 -95 -97 -127 -128 -155 -156 -167 -168 -178 -179 -199 0
-22 -42 -43 -61 -62 -79 -80 -96 -97 -127 -129 -155 -156 -167 -168 -178 -179 -199 0
-22 -42 -43 -61 -62 -79 -80 -96 -97 -128 -129 -155 -157 -167 -168 -178 -179 -199 0
-22 -42 -43 -61 -62 -79 -80 -96 -97 -128 -129 -156 -157 -167 -169 -178 -179 -199 0
-22 -42 -43 -61 -62 -79 -80 -96 -97 -128 -129 -156 -157 -168 -169 -178 -180 -199 0
-22 -42 -43 -61 -62 -79 -80 -96 -97 -128 -129 -156 -157 -168 -169 -179 -180 -200 0
-22 -42 -43 -61 -62 -79 -80 -96 -97 -128 -129 -156 -157 -168 -169 -179 -180 -209 0
-21 -41 -42 -60 -61 -78 -79 -95 -96 -127 -128 -155 -156 -167 -168 -189 -190 -199 0
-22 -41 -43 -60 -61 -78 -79 -95 -96 -127 -128 -155 -156 -167 -168 -189 -190 -199 0
-22 -42 -43 -60 -62 -78 -79 -95 -96 -127 -128 -155 -156 -167 -168 -189 -190 -199 0
-22 -42 -43 -61 -62 -78 -80 -95 -96 -127 -128 -155 -156 -167 -168 -189 -190 -199 0
-22 -42 -43 -61 -62 -79 -80 -95 -97 -127 -128 -155 -156 -167 -168 -189 -190 -199 0
-22 -42 -43 -61 -62 -79 -80 -96 -97 -127 -129 -155 -156 -167 -168 -189 -190 -199 0
-22 -42 -43 -61 -62 -79 -80 -96 -97 -128 -129 -155 -157 -167 -168 -189 -190 -199 0
-22 -42 -43 -61 -62 -79 -80 -96 -97 -128 -129 -156 -157 -167 -169 -189 -190 -199 0
-22 -42 -43 -61 -62 -79 -80 -96 -97 -128 -129 -156 -157 -168 -169 -189 -191 -199 0
-22 -42 -43 -61 -62 -79 -80 -96 -97 -128 -129 -156 -157 -168 -169 -190 -191 -200 0
-22 -42 -43 -61 -62 -79 -80 -96 -97 -128 -129 -156 -157 -168 -169 -190 -191 -209 0
-22 -42 -43 -61 -62 -79 -80 -96 -97 -128 -129 -156 -157 -168 -169 -200 -201 -209 0
-21 -41 -42 -60 -61 -78 -79 -95 -96 -127 -128 -155 -156 -179 -180 -189 -190 -199 0
-22 -41 -43 -60 -61 -78 -79 -95 -96 -127 -128 -155 -156 -179 -180 -189 -190 -199 0
-22 -42 -43 -60 -62 -78 -79 -95 -96 -127 -128 -155 -156 -179 -180 -189 -190 -199 0
-22 -42 -43 -61 -62 -78 -80 -95 -96 -127 -128 -155 -156 -179 -180 -189 -190 -199 0
-22 -42 -43 -61 -62 -79 -80 -95 -97 -127 -128 -155 -156 -179 -180 -189 -190 -199 0
-22 -42 -43 -61 -62 -79 -80 -96 -97 -127 -129 -155 -156 -179 -180 -189 -190 -199 0
-22 -42 -43 -61 -62 -79 -80 -96 -97 -128 -129 -155 -157 -179 -180 -189 -190 -199 0
-22 -42 -43 -61 -62 -79 -80 -96 -97 -128 -129 -156 -157 -179 -181 -189 -190 -199 0
-22 -42 -43 -61 -62 -79 -80 -96 -97 -128 -129 -156 -157 -180 -181 -189 -191 -199 0
-22 -42 -43 -61 -62 -79 -80 -96 -97 -128 -129 -156 -157 -180 -181 -190 -191 -200 0
-22 -42 -43 -61 -62 -79 -80 -96 -97 -128 -129 -156 -157 -180 -181 -190 -191 -209 0
-22 -42 -43 -61 -62 -79 -80 -96 -97 -128 -129 -156 -157 -180 -181 -200 -201 -209 0
-22 -42 -43 -61 -62 -79 -80 -96 -97 -128 -129 -156 -157 -191 -192 -200 -201 -209 0
-21 -41 -42 -60 -61 -78 -79 -95 -96 -127 -128 -168 -169 -179 -180 -189 -190 -199 0
-22 -41 -43 -60 -61 -78 -79 -95 -96 -127 -128 -168 -169 -179 -180 -189 -190 -199 0
-22 -42 -43 -60 -62 -78 -79 -95 -96 -127 -128 -168 -169 -179 -180 -189 -190 -199 0
-22 -42 -43 -61 -62 -78 -80 -95 -96 -127 -128 -168 -169 -179 -180 -189 -190 -199 0
-22 -42 -43 -61 -62 -79 -80 -95 -97 -127 -128 -168 -169 -179 -180 -189 -190 -199 0
-22 -42 -43 -61 -62 -79 -80 -96 -97 -127 -129 -168 -169 -179 -180 -189 -190 -199 0
-22 -42 -43 -61 -62 -79 -80 -96 -97 -128 -129 -168 -170 -179 -180 -189 -190 -199 0
-22 -42 -43 -61 -62 -79 -80 -96 -97 -128 -129 -169 -170 -179 -181 -189 -190 -199 0
-22 -42 -43 -61 -62 -79 -80 -96 -97 -128 -129 -169 -170 -180 -181 -189 -191 -199 0
-22 -42 -43 -61 -62 -79 -80 -96 -97 -128 -129 -169 -170 -180 -181 -190 -191 -200 0
-22 -42 -43 -61 -62 -79 -80 -96 -97 -128 -129 -169 -170 -180 -181 -190 -191 -209 0
-22 -42 -43 -61 -62 -79 -80 -96 -97 -128 -129 -169 -170 -180 -181 -200 -201 -209 0
-22 -42 -43 -61 -62 -79 -80 -96 -97 -128 -129 -169 -170 -191 -192 -200 -201 -209 0
-22 -42 -43 -61 -62 -79 -80 -96 -97 -128 -129 -181 -182 -191 -192 -200 -201 -209 0
-20 -40 -41 -59 -60 -77 -78 -94 -95 -141 -142 -154 -155 -166 -167 -177 -178 -188 0
-21 -40 -42 -59 -60 -77 -78 -94 -95 -141 -142 -154 -155 -166 -167 -177 -178 -188 0
-22 -40 -43 -59 -60 -77 -78 -94 -95 -141 -142 -154 -155 -166 -167 -177 -178 -188 0
-21 -41 -42 -59 -61 -77 -78 -94 -95 -141 -142 -154 -155 -166 -167 -177 -178 -188 0
-22 -41 -43 -59 -61 -77 -78 -94 -95 -141 -142 -154 -155 -166 -167 -177 -178 -188 0
-22 -42 -43 -59 -62 -77 -78 -94 -95 -141 -142 -154 -155 -166 -167 -177 -178 -188 0
-21 -41 -42 -60 -61 -77 -79 -94 -95 -141 -142 -154 -155 -166 -167 -177 -178 -188 0
-22 -41 -43 -60 -61 -77 -79 -94 -95 -141 -142 -154 -155 -166 -167 -177 -178 -188 0
-22 -42 -43 -60 -62 -77 -79 -94 -95 -141 -142 -154 -155 -166 -167 -177 -178 -188 0
-22 -42 -43 -61 -62 -77 -80 -94 -95 -141 -142 -154 -155 -166 -167 -177 -178 -188 0
-21 -41 -42 -60 -61 -78 -79 -94 -96 -141 -142 -154 -155 -166 -167 -177 -178 -188 0
-22 -41 -43 -60 -61 -78 -79 -94 -96 -141 -142 -154 -155 -166 -167 -177 -178 -188 0
-22 -42 -43 -60 -62 -78 -79 -94 -96 -141 -142 -154 -155 -166 -167 -177 -178 -188 0
-22 -42 -43 -61 -62 -78 -80 -94 -96 -141 -142 -154 -155 -166 -167 -177 -178 -188 0
-22 -42 -43 -61 -62 -79 -80 -94 -97 -141 -142 -154 -155 -166 -167 -177 -178 -188 0
-21 -41 -42 -60 -61 -78 -79 -95 -96 -141 -143 -154 -155 -166 -167 -177 -178 -188 0
-22 -41 -43 -60 -61 -78 -79 -95 -96 -141 -143 -154 -155 -166 -167 -177 -178 -188 0
-22 -42 -43 -60 -62 -78 -79 -95 -96 -141 -143 -154 -155 -166 -167 -177 -178 -188 0
-22 -42 -43 -61 -62 -78 -80 -95 -96 -141 -143 -154 -155 -166 -167 -177 -178 -188 0
-22 -42 -43 -61 -62 -79 -80 -95 -97 -141 -143 -154 -155 -166 -167 -177 -178 -188 0
-22 -42 -43 -61 -62 -79 -80 -96 -97 -141 -144 -154 -155 -166 -167 -177 -178 -188 0
-21 -41 -42 -60 -61 -78 -79 -95 -96 -142 -143 -154 -156 -166 -167 -177 -178 -188 0
-22 -41 -43 -60 -61 -78 -79 -95 -96 -142 -143 -154 -156 -166 -167 -177 -178 -188 0
-22 -42 -43 -60 -62 -78 -79 -95 -96 -142 -143 -154 -156 -166 -167 -177 -178 -188 0
-22 -42 -43 -61 -62 -78 -80 -95 -96 -142 -143 -154 -156 -166 -167 -177 -178 -188 0
-22 -42 -43 -61 -62 -79 -80 -95 -97 -142 -143 -154 -156 -166 -167 -177 -178 -188 0
-22 -42 -43 -61 -62 -79 -80 -96 -97 -142 -144 -154 -156 -166 -167 -177 -178 -188 0
-22 -42 -43 -61 -62 -79 -80 -96 -97 -143 -144 -154 -157 -166 -167 -177 -178 -188 0
-21 -41 -42 -60 -61 -78 -79 -95 -96 -142 -143 -155 -156 -166 -168 -177 -178 -188 0
-22 -41 -43 -60 -61 -78 -79 -95 -96 -142 -143 -155 -156 -166 -168 -177 -178 -188 0
-22 -42 -43 -60 -62 -78 -79 -95 -96 -142 -143 -155 -156 -166 -168 -177 -178 -188 0
-22 -42 -43 -61 -62 -78 -80 -95 -96 -142 -143 -155 -156 -166 -168 -177 -178 -188 0
-22 -42 -43 -61 -62 -79 -80 -95 -97 -142 -143 -155 -156 -166 -168 -177 -178 -188 0
-22 -42 -43 -61 -62 -79 -80 -96 -97 -142 -144 -155 -156 -166 -168 -177 -178 -188 0
-22 -42 -43 -61 -62 -79 -80 -96 -97 -143 -144 -155 -157 -166 -168 -177 -178 -188 0
-22 -42 -43 -61 -62 -79 -80 -96 -97 -143 -144 -156 -157 -166 -169 -177 -178 -188 0
-21 -41 -42 -60 -61 -78 -79 -95 -96 -142 -143 -155 -156 -167 -168 -177 -179 -188 0
-22 -41 -43 -60 -61 -78 -79 -95 -96 -142 -143 -155 -156 -167 -168 -177 -179 -188 0
-22 -42 -43 -60 -62 -78 -79 -95 -96 -142 -143 -155 -156 -167 -168 -177 -179 -188 0
-22 -42 -43 -61 -62 -78 -80 -95 -96 -142 -143 -155 -156 -167 -168 -177 -179 -188 0
-22 -42 -43 -61 -62 -79 -80 -95 -97 -142 -143 -155 -156 -167 -168 -177 -179 -188 0
-22 -42 -43 -61 -62 -79 -80 -96 -97 -142 -144 -155 -156 -167 -168 -177 -179 -188 0
-22 -42 -43 -61 -62 -79 -80 -96 -97 -143 -144 -155 -157 -167 -168 -177 -179 -188 0
-22 -42 -43 -61 -62 -79 -80 -96 -97 -143 -144 -156 -157 -167 -169 -177 -179 -188 0
-22 -42 -43 -61 -62 -79 -80 -96 -97 -143 -144 -156 -157 -168 -169 -177 -180 -188 0
-21 -41 -42 -60 -61 -78 -79 -95 -96 -142 -143 -155 -156 -167 -168 -178 -179 -189 0
-22 -41 -43 -60 -61 -78 -79 -95 -96 -142 -143 -155 -156 -167 -168 -178 -179 -189 0
-22 -42 -43 -60 -62 -78 -79 -95 -96 -142 -143 -155 -156 -167 -168 -178 -179 -189 0
-22 -42 -43 -61 -62 -78 -80 -95 -96 -142 -143 -155 -156 -167 -168 -178 -179 -189 0
-22 -42 -43 -61 -62 -79 -80 -95 -97 -142 -143 -155 -156 -167 -168 -178 -179 -189 0
-22 -42 -43 -61 -62 -79 -80 -96 -97 -142 -144 -155 -156 -167 -168 -178 -179 -189 0
-22 -42 -43 -61 -62 -79 -80 -96 -97 -143 -144 -155 -157 -167 -168 -178 -179 -189 0
-22 -42 -43 -61 -62 -79 -80 -96 -97 -143 -144 -156 -157 -167 -169 -178 -179 -189 0
-22 -42 -43 -61 -62 -79 -80 -96 -97 -143 -144 -156 -157 -168 -169 -178 -180 -189 0
-22 -42 -43 -61 -62 -79 -80 -96 -97 -143 -144 -156 -157 -168 -169 -179 -180 -190 0
-21 -41 -42 -60 -61 -78 -79 -95 -96 -142 -143 -155 -156 -167 -168 -178 -179 -199 0
-22 -41 -43 -60 -61 -78 -79 -95 -96 -142 -143 -155 -156 -167 -168 -178 -179 -199 0
-22 -42 -43 -60 -62 -78 -79 -95 -96 -142 -143 -155 -156 -167 -168 -178 -179 -199 0
-22 -42 -43 -61 -62 -78 -80 -95 -96 -142 -143 -155 -156 -167 -168 -178 -179 -199 0
-22 -42 -43 -61 -62 -79 -80 -95 -97 -142 -143 -155 -156 -167 -168 -178 -179 -199 0
-22 -42 -43 -61 -62 -79 -80 -96 -97 -142 -144 -155 -156 -167 -168 -178 -179 -199 0
-22 -42 -43 -61 -62 -79 -80 -96 -97 -143 -144 -155 -157 -167 -168 -178 -179 -199 0
-22 -42 -43 -61 -62 -79 -80 -96 -97 -143 -144 -156 -157 -167 -169 -178 -179 -199 0
-22 -42 -43 -61 -62 -79 -80 -96 -97 -143 -144 -156 -157 -168 -169 -178 -180 -199 0
-22 -42 -43 -61 -62 -79 -80 -96 -97 -143 -144 -156 -157 -168 -169 -179 -180 -200 0
-22 -42 -43 -61 -62 -79 -80 -96 -97 -143 -144 -156 -157 -168 -169 -179 -180 -209 0
-21 -41 -42 -60 -61 -78 -79 -95 -96 -142 -143 -155 -156 -167 -168 -189 -190 -199 0
-22 -41 -43 -60 -61 -78 -79 -95 -96 -142 -143 -155 -156 -167 -168 -189 -190 -199 0
-22 -42 -43 -60 -62 -78 -79 -95 -96 -142 -143 -155 -156 -167 -168 -189 -190 -199 0
-22 -42 -43 -61 -62 -78 -80 -95 -96 -142 -143 -155 -156 -167 -168 -189 -190 -199 0
-22 -42 -43 -61 -62 -79 -80 -95 -97 -142 -143 -155 -156 -167 -168 -189 -190 -199 0
-22 -42 -43 -61 -62 -79 -80 -96 -97 -142 -144 -155 -156 -167 -168 -189 -190 -199 0
-22 -42 -43 -61 -62 -79 -80 -96 -97 -143 -144 -155 -157 -167 -168 -189 -190 -199 0
-22 -42 -43 -61 -62 -79 -80 -96 -97 -143 -144 -156 -157 -167 -169 -189 -190 -199 0
-22 -42 -43 -61 -62 -79 -80 -96 -97 -143 -144 -156 -157 -168 -169 -189 -191 -199 0
-22 -42 -43 -61 -62 -79 -80 -96 -97 -143 -144 -156 -157 -168 -169 -190 -191 -200 0
-22 -42 -43 -61 -62 -79 -80 -96 -97 -143 -144 -156 -157 -168 -169 -190 -191 -209 0
-22 -42 -43 -61 -62 -79 -80 -96 -97 -143 -144 -156 -157 -168 -169 -200 -201 -209 0
-21 -41 -42 -60 -61 -78 -79 -95 -96 -142 -143 -155 -156 -179 -180 -189 -190 -199 0
-22 -41 -43 -60 -61 -78 -79 -95 -96 -142 -143 -155 -156 -179 -180 -189 -190 -199 0
-22 -42 -43 -60 -62 -78 -79 -95 -96 -142 -143 -155 -156 -179 -180 -189 -190 -199 0
-22 -42 -43 -61 -62 -78 -80 -95 -96 -142 -143 -155 -156 -179 -180 -189 -190 -199 0
-22 -42 -43 -61 -62 -79 -80 -95 -97 -142 -143 -155 -156 -179 -180 -189 -190 -199 0
-22 -42 -43 -61 -62 -79 -80 -96 -97 -142 -144 -155 -156 -179 -180 -189 -190 -199 0
-22 -42 -43 -61 -62 -79 -80 -96 -97 -143 -144 -155 -157 -179 -180 -189 -190 -199 0
-22 -42 -43 -61 -62 -79 -80 -96 -97 -143 -144 -156 -157 -179 -181 -189 -190 -199 0
-22 -42 -43 -61 -62 -79 -80 -96 -97 -143 -144 -156 -157 -180 -181 -189 -191 -199 0
-22 -42 -43 -61 -62 -79 -80 -96 -97 -143 -144 -156 -157 -180 -181 -190 -191 -200 0
-22 -42 -43 -61 -62 -79 -80 -96 -97 -143 -144 -156 -157 -180 -181 -190 -191 -209 0
-22 -42 -43 -61 -62 -79 -80 -96 -97 -143 -144 -156 -157 -180 -181 -200 -201 -209 0
-22 -42 -43 -61 -62 -79 -80 -96 -97 -143 -144 -156 -157 -191 -192 -200 -201 -209 0
-21 -41 -42 -60 -61 -78 -79 -95 -96 -142 -143 -168 -169 -179 -180 -189 -190 -199 0
-22 -41 -43 -60 -61 -78 -79 -95 -96 -142 -143 -168 -169 -179 -180 -189 -190 -199 0
-22 -42 -43 -60 -62 -78 -79 -95 -96 -142 -143 -168 -169 -179 -180 -189 -190 -199 0
-22 -42 -43 -61 -62 -78 -80 -95 -96 -142 -143 -168 -169 -179 -180 -189 -190 -199 0
-22 -42 -43 -61 -62 -79 -80 -95 -97 -142 -143 -168 -169 -179 -180 -189 -190 -199 0
-22 -42 -43 -61 -62 -79 -80 -96 -97 -142 -144 -168 -169 -179 -180 -189 -190 -199 0
-22 -42 -43 -61 -62 -79 -80 -96 -97 -143 -144 -168 -170 -179 -180 -189 -190 -199 0
-22 -42 -43 -61 -62 -79 -80 -96 -97 -143 -144 -169 -170 -179 -181 -189 -190 -199 0
-22 -42 -43 -61 -62 -79 -80 -96 -97 -143 -144 -169 -170 -180 -181 -189 -191 -199 0
-22 -42 -43 -61 -62 -79 -80 -96 -97 -143 -144 -169 -170 -180 -181 -190 -191 -200 0
-22 -42 -43 -61 -62 -79 -80 -96 -97 -143 -144 -169 -170 -180 -181 -190 -191 -209 0
-22 -42 -43 -61 -62 -79 -80 -96 -97 -143 -144 -169 -170 -180 -181 -200 -201 -209 0
-22 -42 -43 -61 -62 -79 -80 -96 -97 -143 -144 -169 -170 -191 -192 -200 -201 -209 0
-22 -42 -43 -61 -62 -79 -80 -96 -97 -143 -144 -181 -182 -191 -192 -200 -201 -209 0
-21 -41 -42 -60 -61 -78 -79 -95 -96 -156 -157 -168 -169 -179 -180 -189 -190 -199 0
-22 -41 -43 -60 -61 -78 -79 -95 -96 -156 -157 -168 -169 -179 -180 -189 -190 -199 0
-22 -42 -43 -60 -62 -78 -79 -95 -96 -156 -157 -168 -169 -179 -180 -189 -190 -199 0
-22 -42 -43 -61 -62 -78 -80 -95 -96 -156 -157 -168 -169 -179 -180 -189 -190 -199 0
-22 -42 -43 -61 -62 -79 -80 -95 -97 -156 -157 -168 -169 -179 -180 -189 -190 -199 0
-22 -42 -43 -61 -62 -79 -80 -96 -97 -156 -158 -168 -169 -179 -180 -189 -190 -199 0
-22 -42 -43 -61 -62 -79 -80 -96 -97 -157 -158 -168 -170 -179 -180 -189 -190 -199 0
-22 -42 -43 -61 -62 -79 -80 -96 -97 -157 -158 -169 -170 -179 -181 -189 -190 -199 0
-22 -42 -43 -61 -62 -79 -80 -96 -97 -157 -158 -169 -170 -180 -181 -189 -191 -199 0
-22 -42 -43 -61 -62 -79 -80 -96 -97 -157 -158 -169 -170 -180 -181 -190 -191 -200 0
-22 -42 -43 -61 -62 -79 -80 -96 -97 -157 -158 -169 -170 -180 -181 -190 -191 -209 0
-22 -42 -43 -61 -62 -79 -80 -96 -97 -157 -158 -169 -170 -180 -181 -200 -201 -209 0
-22 -42 -43 -61 -62 -79 -80 -96 -97 -157 -158 -169 -170 -191 -192 -200 -201 -209 0
-22 -42 -43 -61 -62 -79 -80 -96 -97 -157 -158 -181 -182 -191 -192 -200 -201 -209 0
-22 -42 -43 -61 -62 -79 -80 -96 -97 -170 -171 -181 -182 -191 -192 -200 -201 -209 0
-19 -39 -40 -58 -59 -76 -77 -110 -111 -125 -126 -139 -140 -152 -153 -164 -165 -176 0
-20 -39 -41 -58 -59 -76 -77 -110 -111 -125 -126 -139 -140 -152 -153 -164 -165 -176 0
-21 -39 -42 -58 -59 -76 -77 -110 -111 -125 -126 -139 -140 -152 -153 -164 -165 -176 0
-22 -39 -43 -58 -59 -76 -77 -110 -111 -125 -126 -139 -140 -152 -153 -164 -165 -176 0
-20 -40 -41 -58 -60 -76 -77 -110 -111 -125 -126 -139 -140 -152 -153 -164 -165 -176 0
-21 -40 -42 -58 -60 -76 -77 -110 -111 -125 -126 -139 -140 -152 -153 -164 -165 -176 0
-22 -40 -43 -58 -60 -76 -77 -110 -111 -125 -126 -139 -140 -152 -153 -164 -165 -176 0
-21 -41 -42 -58 -61 -76 -77 -110 -111 -125 -126 -139 -140 -152 -153 -164 -165 -176 0
-22 -41 -43 -58 -61 -76 -77 -110 -111 -125 -126 -139 -140 -152 -153 -164 -165 -176 0
-22 -42 -43 -58 -62 -76 -77 -110 -111 -125 -126 -139 -140 -152 -153 -164 -165 -176 0
-20 -40 -41 -59 -60 -76 -78 -110 -111 -125 -126 -139 -140 -152 -153 -164 -165 -176 0
-21 -40 -42 -59 -60 -76 -78 -110 -111 -125 -126 -139 -140 -152 -153 -164 -165 -176 0
-22 -40 -43 -59 -60 -76 -78 -110 -111 -125 -126 -139 -140 -152 -153 -164 -165 -176 0
-21 -41 -42 -59 -61 -76 -78 -110 -111 -125 -126 -139 -140 -152 -153 -164 -165 -176 0
-22 -41 -43 -59 -61 -76 -78 -110 -111 -125 -126 -139 -140 -152 -153 -164 -165 -176 0
-22 -42 -43 -59 -62 -76 -78 -110 -111 -125 -126 -139 -140 -152 -153 -164 -165 -176 0
-21 -41 -42 -60 -61 -76 -79 -110 -111 -125 -126 -139 -140 -152 -153 -164 -165 -176 0
-22 -41 -43 -60 -61 -76 -79 -110 -111 -125 -126 -139 -140 -152 -153 -164 -165 -176 0
-22 -42 -43 -60 -62 -76 -79 -110 -111 -125 -126 -139 -140 -152 -153 -164 -165 -176 0
-22 -42 -43 -61 -62 -76 -80 -110 -111 -125 -126 -139 -140 -152 -153 -164 -165 -176 0
-20 -40 -41 -59 -60 -77 -78 -110 -112 -125 -126 -139 -140 -152 -153 -164 -165 -176 0
-21 -40 -42 -59 -60 -77 -78 -110 -112 -125 -126 -139 -140 -152 -153 -164 -165 -176 0
-22 -40 -43 -59 -60 -77 -78 -110 -112 -125 -126 -139 -140 -152 -153 -164 -165 -176 0
-21 -41 -42 -59 -61 -77 -78 -110 -112 -125 -126 -139 -140 -152 -153 -164 -165 -176 0
-22 -41 -43 -59 -61 -77 -78 -110 -112 -125 -126 -139 -140 -152 -153 -164 -165 -176 0
-22 -42 -43 -59 -62 -77 -78 -110 -112 -125 -126 -139 -140 -152 -153 -164 -165 -176 0
-21 -41 -42 -60 -61 -77 -79 -110 -112 -125 -126 -139 -140 -152 -153 -164 -165 -176 0
-22 -41 -43 -60 -61 -77 -79 -110 -112 -125 -126 -139 -140 -152 -153 -164 -165 -176 0
-22 -42 -43 -60 -62 -77 -79 -110 -112 -125 -126 -139 -140 -152 -153 -164 -165 -176 0
-22 -42 -43 -61 -62 -77 -80 -110 -112 -125 -126 -139 -140 -152 -153 -164 -165 -176 0
-21 -41 -42 -60 -61 -78 -79 -110 -113 -125 -126 -139 -140 -152 -153 -164 -165 -176 0
-22 -41 -43 -60 -61 -78 -79 -110 -113 -125 -126 -139 -140 -152 -153 -164 -165 -176 0
-22 -42 -43 -60 -62 -78 -79 -110 -113 -125 -126 -139 -140 -152 -153 -164 -165 -176 0
-22 -42 -43 -61 -62 -78 -80 -110 -113 -125 -126 -139 -140 -152 -153 -164 -165 -176 0
-22 -42 -43 -61 -62 -79 -80 -110 -114 -125 -126 -139 -140 -152 -153 -164 -165 -176 0
-20 -40 -41 -59 -60 -77 -78 -111 -112 -125 -127 -139 -140 -152 -153 -164 -165 -176 0
-21 -40 -42 -59 -60 -77 -78 -111 -112 -125 -127 -139 -140 -152 -153 -164 -165 -176 0
-22 -40 -43 -59 -60 -77 -78 -111 -112 -125 -127 -139 -140 -152 -153 -164 -165 -176 0
-21 -41 -42 -59 -61 -77 -78 -111 -112 -125 -127 -139 -140 -152 -153 -164 -165 -176 0
-22 -41 -43 -59 -61 -77 -78 -111 -112 -125 -127 -139 -140 -152 -153 -164 -165 -176 0
-22 -42 -43 -59 -62 -77 -78 -111 -112 -125 -127 -139 -140 -152 -153 -164 -165 -176 0
-21 -41 -42 -60 -61 -77 -79 -111 -112 -125 -127 -139 -140 -152 -153 -164 -165 -176 0
-22 -41 -43 -60 -61 -77 -79 -111 -112 -125 -127 -139 -140 -152 -153 -164 -165 -176 0
-22 -42 -43 -60 -62 -77 -79 -111 -112 -125 -127 -139 -140 -152 -153 -164 -165 -176 0
-22 -42 -43 -61 -62 -77 -80 -111 -112 -125 -127 -139 -140 -152 -153 -164 -165 -176 0
-21 -41 -42 -60 -61 -78 -79 -111 -113 -125 -127 -139 -140 -152 -153 -164 -165 -176 0
-22 -41 -43 -60 -61 -78 -79 -111 -113 -125 -127 -139 -140 -152 -153 -164 -165 -176 0
-22 -42 -43 -60 -62 -78 -79 -111 -113 -125 -127 -139 -140 -152 -153 -164 -165 -176 0
-22 -42 -43 -61 -62 -78 -80 -111 -113 -125 -127 -139 -140 -152 -153 -164 -165 -176 0
-22 -42 -43 -61 -62 -79 -80 -111 -114 -125 -127 -139 -140 -152 -153 -164 -165 -176 0
-21 -41 -42 -60 -61 -78 -79 -112 -113 -125 -128 -139 -140 -152 -153 -164 -165 -176 0
-22 -41 -43 -60 -61 -78 -79 -112 -113 -125 -128 -139 -140 -152 -153 -164 -165 -176 0
-22 -42 -43 -60 -62 -78 -79 -112 -113 -125 -128 -139 -140 -152 -153 -164 -165 -176 0
-22 -42 -43 -61 -62 -78 -80 -112 -113 -125 -128 -139 -140 -152 -153 -164 -165 -176 0
-22 -42 -43 -61 -62 -79 -80 -112 -114 -125 -128 -139 -140 -152 -153 -164 -165 -176 0
-22 -42 -43 -61 -62 -79 -80 -113 -114 -125 -129 -139 -140 -152 -153 -164 -165 -176 0
-20 -40 -41 -59 -60 -77 -78 -111 -112 -126 -127 -139 -141 -152 -153 -164 -165 -176 0
-21 -40 -42 -59 -60 -77 -78 -111 -112 -126 -127 -139 -141 -152 -153 -164 -165 -176 0
-22 -40 -43 -59 -60 -77 -78 -111 -112 -126 -127 -139 -141 -152 -153 -164 -165 -176 0
-21 -41 -42 -59 -61 -77 -78 -111 -112 -126 -127 -139 -141 -152 -153 -164 -165 -176 0
-22 -41 -43 -59 -61 -77 -78 -111 -112 -126 -127 -139 -141 -152 -153 -164 -165 -176 0
-22 -42 -43 -59 -62 -77 -78 -111 -112 -126 -127 -139 -141 -152 -153 -164 -165 -176 0
-21 -41 -42 -60 -61 -77 -79 -111 -112 -126 -127 -139 -141 -152 -153 -164 -165 -176 0
-22 -41 -43 -60 -61 -77 -79 -111 -112 -126 -127 -139 -141 -152 -153 -164 -165 -176 0
-22 -42 -43 -60 -62 -77 -79 -111 -112 -126 -127 -139 -141 -152 -153 -164 -165 -176 0
-22 -42 -43 -61 -62 -77 -80 -111 -112 -126 -127 -139 -141 -152 -153 -164 -165 -176 0
-21 -41 -42 -60 -61 -78 -79 -111 -113 -126 -127 -139 -141 -152 -153 -164 -165 -176 0
-22 -41 -43 -60 -61 -78 -79 -111 -113 -126 -127 -139 -141 -152 -153 -164 -165 -176 0
-22 -42 -43 -60 -62 -78 -79 -111 -113 -126 -127 -139 -141 -152 -153 -164 -165 -176 0
-22 -42 -43 -61 -62 -78 -80 -111 -113 -126 -127 -139 -141 -152 -153 -164 -165 -176 0
-22 -42 -43 -61 -62 -79 -80 -111 -114 -126 -127 -139 -141 -152 -153 -164 -165 -176 0
-21 -41 -42 -60 -61 -78 -79 -112 -113 -126 -128 -139 -141 -152 -153 -164 -165 -176 0
-22 -41 -43 -60 -61 -78 -79 -112 -113 -126 -128 -139 -141 -152 -153 -164 -165 -176 0
-22 -42 -43 -60 -62 -78 -79 -112 -113 -126 -128 -139 -141 -152 -153 -164 -165 -176 0
-22 -42 -43 -61 -62 -78 -80 -112 -113 -126 -128 -139 -141 -152 -153 -164 -165 -176 0
-22 -42 -43 -61 -62 -79 -80 -112 -114 -126 -128 -139 -141 -152 -153 -164 -165 -176 0
-22 -42 -43 -61 -62 -79 -80 -113 -114 -126 -129 -139 -141 -152 -153 -164 -165 -176 0
-21 -41 -42 -60 -61 -78 -79 -112 -113 -127 -128 -139 -142 -152 -153 -164 -165 -176 0
-22 -41 -43 -60 -61 -78 -79 -112 -113 -127 -128 -139 -142 -152 -153 -164 -165 -176 0
-22 -42 -43 -60 -62 -78 -79 -112 -113 -127 -128 -139 -142 -152 -153 -164 -165 -176 0
-22 -42 -43 -61 -62 -78 -80 -112 -113 -127 -128 -139 -142 -152 -153 -164 -165 -176 0
-22 -42 -43 -61 -62 -79 -80 -112 -114 -127 -128 -139 -142 -152 -153 -164 -165 -176 0
-22 -42 -43 -61 -62 -79 -80 -113 -114 -127 -129 -139 -142 -152 -153 -164 -165 -176 0
-22 -42 -43 -61 -62 -79 -80 -113 -114 -128 -129 -139 -143 -152 -153 -164 -165 -176 0
-20 -40 -41 -59 -60 -77 -78 -111 -112 -126 -127 -140 -141 -152 -154 -164 -165 -176 0
-21 -40 -42 -59 -60 -77 -78 -111 -112 -126 -127 -140 -141 -152 -154 -164 -165 -176 0
-22 -40 -43 -59 -60 -77 -78 -111 -112 -126 -127 -140 -141 -152 -154 -164 -165 -176 0
-21 -41 -42 -59 -61 -77 -78 -111 -112 -126 -127 -140 -141 -152 -154 -164 -165 -176 0
-22 -41 -43 -59 -61 -77 -78 -111 -112 -126 -127 -140 -141 -152 -154 -164 -165 -176 0
-22 -42 -43 -59 -62 -77 -78 -111 -112 -126 -127 -140 -141 -152 -154 -164 -165 -176 0
-21 -41 -42 -60 -61 -77 -79 -111 -112 -126 -127 -140 -141 -152 -154 -164 -165 -176 0
-22 -41 -43 -60 -61 -77 -79 -111 -112 -126 -127 -140 -141 -152 -154 -164 -165 -176 0
-22 -42 -43 -60 -62 -77 -79 -111 -112 -126 -127 -140 -141 -152 -154 -164 -165 -176 0
-22 -42 -43 -61 -62 -77 -80 -111 -112 -126 -127 -140 -141 -152 -154 -164 -165 -176 0
-21 -41 -42 -60 -61 -78 -79 -111 -113 -126 -127 -140 -141 -152 -154 -164 -165 -176 0
-22 -41 -43 -60 -61 -78 -79 -111 -113 -126 -127 -140 -141 -152 -154 -164 -165 -176 0
-22 -42 -43 -60 -62 -78 -79 -111 -113 -126 -127 -140 -141 -152 -154 -164 -165 -176 0
-22 -42 -43 -61 -62 -78 -80 -111 -113 -126 -127 -140 -141 -152 -154 -164 -165 -176 0
-22 -42 -43 -61 -62 -79 -80 -111 -114 -126 -127 -140 -141 -152 -154 -164 -165 -176 0
-21 -41 -42 -60 -61 -78 -79 -112 -113 -126 -128 -140 -141 -152 -154 -164 -165 -176 0
-22 -41 -43 -60 -61 -78 -79 -112 -113 -126 -128 -140 -141 -152 -154 -164 -165 -176 0
-22 -42 -43 -60 -62 -78 -79 -112 -113 -126 -128 -140 -141 -152 -154 -164 -165 -176 0
-22 -42 -43 -61 -62 -78 -80 -112 -113 -126 -128 -140 -141 -152 -154 -164 -165 -176 0
-22 -42 -43 -61 -62 -79 -80 -112 -114 -126 -128 -140 -141 -152 -154 -164 -165 -176 0
-22 -42 -43 -61 -62 -79 -80 -113 -114 -126 -129 -140 -141 -152 -154 -164 -165 -176 0
-21 -41 -42 -60 -61 -78 -79 -112 -113 -127 -128 -140 -142 -152 -154 -164 -165 -176 0
-22 -41 -43 -60 -61 -78 -79 -112 -113 -127 -128 -140 -142 -152 -154 -164 -165 -176 0
-22 -42 -43 -60 -62 -78 -79 -112 -113 -127 -128 -140 -142 -152 -154 -164 -165 -176 0
-22 -42 -43 -61 -62 -78 -80 -112 -113 -127 -128 -140 -142 -152 -154 -164 -165 -176 0
-22 -42 -43 -61 -62 -79 -80 -112 -114 -127 -128 -140 -142 -152 -154 -164 -165 -176 0
-22 -42 -43 -61 -62 -79 -80 -113 -114 -127 -129 -140 -142 -152 -154 -164 -165 -176 0
-22 -42 -43 -61 -62 -79 -80 -113 -114 -128 -129 -140 -143 -152 -154 -164 -165 -176 0
-21 -41 -42 -60 -61 -78 -79 -112 -113 -127 -128 -141 -142 -152 -155 -164 -165 -176 0
-22 -41 -43 -60 -61 -78 -79 -112 -113 -127 -128 -141 -142 -152 -155 -164 -165 -176 0
-22 -42 -43 -60 -62 -78 -79 -112 -113 -127 -128 -141 -142 -152 -155 -164 -165 -176 0
-22 -42 -43 -61 -62 -78 -80 -112 -113 -127 -128 -141 -142 -152 -155 -164 -165 -176 0
-22 -42 -43 -61 -62 -79 -80 -112 -114 -127 -128 -141 -142 -152 -155 -164 -165 -176 0
-22 -42 -43 -61 -62 -79 -80 -113 -114 -127 -129 -141 -142 -152 -155 -164 -165 -176 0
-22 -42 -43 -61 -62 -79 -80 -113 -114 -128 -129 -141 -143 -152 -155 -164 -165 -176 0
-22 -42 -43 -61 -62 -79 -80 -113 -114 -128 -129 -142 -143 -152 -156 -164 -165 -176 0
-20 -40 -41 -59 -60 -77 -78 -111 -112 -126 -127 -140 -141 -153 -154 -164 -166 -176 0
-21 -40 -42 -59 -60 -77 -78 -111 -112 -126 -127 -140 -141 -153 -154 -164 -166 -176 0
-22 -40 -43 -59 -60 -77 -78 -111 -112 -126 -127 -140 -141 -153 -154 -164 -166 -176 0
-21 -41 -42 -59 -61 -77 -78 -111 -112 -126 -127 -140 -141 -153 -154 -164 -166 -176 0
-22 -41 -43 -59 -61 -77 -78 -111 -112 -126 -127 -140 -141 -153 -154 -164 -166 -176 0
-22 -42 -43 -59 -62 -77 -78 -111 -112 -126 -127 -140 -141 -153 -154 -164 -166 -176 0
-21 -41 -42 -60 -61 -77 -79 -111 -112 -126 -127 -140 -141 -153 -154 -164 -166 -176 0
-22 -41 -43 -60 -61 -77 -79 -111 -112 -126 -127 -140 -141 -153 -154 -164 -166 -176 0
-22 -42 -43 -60 -62 -77 -79 -111 -112 -126 -127 -140 -141 -153 -154 -164 -166 -176 0
-22 -42 -43 -61 -62 -77 -80 -111 -112 -126 -127 -140 -141 -153 -154 -164 -166 -176 0
-21 -41 -42 -60 -61 -78 -79 -111 -113 -126 -127 -140 -141 -153 -154 -164 -166 -176 0
-22 -41 -43 -60 -61 -78 -79 -111 -113 -126 -127 -140 -141 -153 -154 -164 -166 -176 0
-22 -42 -43 -60 -62 -78 -79 -111 -113 -126 -127 -140 -141 -153 -154 -164 -166 -176 0
-22 -42 -43 -61 -62 -78 -80 -111 -113 -126 -127 -140 -141 -153 -154 -164 -166 -176 0
-22 -42 -43 -61 -62 -79 -80 -111 -114 -126 -127 -140 -141 -153 -154 -164 -166 -176 0
-21 -41 -42 -60 -61 -78 -79 -112 -113 -126 -128 -140 -141 -153 -154 -164 -166 -176 0
-22 -41 -43 -60 -61 -78 -79 -112 -113 -126 -128 -140 -141 -153 -154 -164 -166 -176 0
-22 -42 -43 -60 -62 -78 -79 -112 -113 -126 -128 -140 -141 -153 -154 -164 -166 -176 0
-22 -42 -43 -61 -62 -78 -80 -112 -113 -126 -128 -140 -141 -153 -154 -164 -166 -176 0
-22 -42 -43 -61 -62 -79 -80 -112 -114 -126 -128 -140 -141 -153 -154 -164 -166 -176 0
-22 -42 -43 -61 -62 -79 -80 -113 -114 -126 -129 -140 -141 -153 -154 -164 -166 -176 0
-21 -41 -42 -60 -61 -78 -79 -112 -113 -127 -128 -140 -142 -153 -154 -164 -166 -176 0
-22 -41 -43 -60 -61 -78 -79 -112 -113 -127 -128 -140 -142 -153 -154 -164 -166 -176 0
-22 -42 -43 -60 -62 -78 -79 -112 -113 -127 -128 -140 -142 -153 -154 -164 -166 -176 0
-22 -42 -43 -61 -62 -78 -80 -112 -113 -127 -128 -140 -142 -153 -154 -164 -166 -176 0
-22 -42 -43 -61 -62 -79 -80 -112 -114 -127 -128 -140 -142 -153 -154 -164 -166 -176 0
-22 -42 -43 -61 -62 -79 -80 -113 -114 -127 -129 -140 -142 -153 -154 -164 -166 -176 0
-22 -42 -43 -61 -62 -79 -80 -113 -114 -128 -129 -140 -143 -153 -154 -164 -166 -176 0
-21 -41 -42 -60 -61 -78 -79 -112 -113 -127 -128 -141 -142 -153 -155 -164 -166 -176 0
-22 -41 -43 -60 -61 -78 -79 -112 -113 -127 -128 -141 -142 -153 -155 -164 -166 -176 0
-22 -42 -43 -60 -62 -78 -79 -112 -113 -127 -128 -141 -142 -153 -155 -164 -166 -176 0
-22 -42 -43 -61 -62 -78 -80 -112 -113 -127 -128 -141 -142 -153 -155 -164 -166 -176 0
-22 -42 -43 -61 -62 -79 -80 -112 -114 -127 -128 -141 -142 -153 -155 -164 -166 -176 0
-22 -42 -43 -61 -62 -79 -80 -113 -114 -127 -129 -141 -142 -153 -155 -164 -166 -176 0
-22 -42 -43 -61 -62 -79 -80 -113 -114 -128 -129 -141 -143 -153 -155 -164 -166 -176 0
-22 -42 -43 -61 -62 -79 -80 -113 -114 -128 -129 -142 -143 -153 -156 -164 -166 -176 0
-21 -41 -42 -60 -61 -78 -79 -112 -113 -127 -128 -141 -142 -154 -155 -164 -167 -176 0
-22 -41 -43 -60 -61 -78 -79 -112 -113 -127 -128 -141 -142 -154 -155 -164 -167 -176 0
-22 -42 -43 -60 -62 -78 -79 -112 -113 -127 -128 -141 -142 -154 -155 -164 -167 -176 0
-22 -42 -43 -61 -62 -78 -80 -112 -113 -127 -128 -141 -142 -154 -155 -164 -167 -176 0
-22 -42 -43 -61 -62 -79 -80 -112 -114 -127 -128 -141 -142 -154 -155 -164 -167 -176 0
-22 -42 -43 -61 -62 -79 -80 -113 -114 -127 -129 -141 -142 -154 -155 -164 -167 -176 0
-22 -42 -43 -61 -62 -79 -80 -113 -114 -128 -129 -141 -143 -154 -155 -164 -167 -176 0
-22 -42 -43 -61 -62 -79 -80 -113 -114 -128 -129 -142 -143 -154 -156 -164 -167 -176 0
-22 -42 -43 -61 -62 -79 -80 -113 -114 -128 -129 -142 -143 -155 -156 -164 -168 -176 0
-20 -40 -41 -59 -60 -77 -78 -111 -112 -126 -127 -140 -141 -153 -154 -165 -166 -177 0
-21 -40 -42 -59 -60 -77 -78 -111 -112 -126 -127 -140 -141 -153 -154 -165 -166 -177 0
-22 -40 -43 -59 -60 -77 -78 -111 -112 -126 -127 -140 -141 -153 -154 -165 -166 -177 0
-21 -41 -42 -59 -61 -77 -78 -111 -112 -126 -127 -140 -141 -153 -154 -165 -166 -177 0
-22 -41 -43 -59 -61 -77 -78 -111 -112 -126 -127 -140 -141 -153 -154 -165 -166 -177 0
-22 -42 -43 -59 -62 -77 -78 -111 -112 -126 -127 -140 -141 -153 -154 -165 -166 -177 0
-21 -41 -42 -60 -61 -77 -79 -111 -112 -126 -127 -140 -141 -153 -154 -165 -166 -177 0
-22 -41 -43 -60 -61 -77 -79 -111 -112 -126 -127 -140 -141 -153 -154 -165 -166 -177 0
-22 -42 -43 -60 -62 -77 -79 -111 -112 -126 -127 -140 -141 -153 -154 -165 -166 -177 0
-22 -42 -43 -61 -62 -77 -80 -111 -112 -126 -127 -140 -141 -153 -154 -165 -166 -177 0
-21 -41 -42 -60 -61 -78 -79 -111 -113 -126 -127 -140 -141 -153 -154 -165 -166 -177 0
-22 -41 -43 -60 -61 -78 -79 -111 -113 -126 -127 -140 -141 -153 -154 -165 -166 -177 0
-22 -42 -43 -60 -62 -78 -79 -111 -113 -126 -127 -140 -141 -153 -154 -165 -166 -177 0
-22 -42 -43 -61 -62 -78 -80 -111 -113 -126 -127 -140 -141 -153 -154 -165 -166 -177 0
-22 -42 -43 -61 -62 -79 -80 -111 -114 -126 -127 -140 -141 -153 -154 -165 -166 -177 0
-21 -41 -42 -60 -61 -78 -79 -112 -113 -126 -128 -140 -141 -153 -154 -165 -166 -177 0
-22 -41 -43 -60 -61 -78 -79 -112 -113 -126 -128 -140 -141 -153 -154 -165 -166 -177 0
-22 -42 -43 -60 -62 -78 -79 -112 -113 -126 -128 -140 -141 -153 -154 -165 -166 -177 0
-22 -42 -43 -61 -62 -78 -80 -112 -113 -126 -128 -140 -141 -153 -154 -165 -166 -177 0
-22 -42 -43 -61 -62 -79 -80 -112 -114 -126 -128 -140 -141 -153 -154 -165 -166 -177 0
-22 -42 -43 -61 -62 -79 -80 -113 -114 -126 -129 -140 -141 -153 -154 -165 -166 -177 0
-21 -41 -42 -60 -61 -78 -79 -112 -113 -127 -128 -140 -142 -153 -154 -165 -166 -177 0
-22 -41 -43 -60 -61 -78 -79 -112 -113 -127 -128 -140 -142 -153 -154 -165 -166 -177 0
-22 -42 -43 -60 -62 -78 -79 -112 -113 -127 -128 -140 -142 -153 -154 -165 -166 -177 0
-22 -42 -43 -61 -62 -78 -80 -112 -113 -127 -128 -140 -142 -153 -154 -165 -166 -177 0
-22 -42 -43 -61 -62 -79 -80 -112 -114 -127 -128 -140 -142 -153 -154 -165 -166 -177 0
-22 -42 -43 -61 -62 -79 -80 -113 -114 -127 -129 -140 -142 -153 -154 -165 -166 -177 0
-22 -42 -43 -61 -62 -79 -80 -113 -114 -128 -129 -140 -143 -153 -154 -165 -166 -177 0
-21 -41 -42 -60 -61 -78 -79 -112 -113 -127 -128 -141 -142 -153 -155 -165 -166 -177 0
-22 -41 -43 -60 -61 -78 -79 -112 -113 -127 -128 -141 -142 -153 -155 -165 -166 -177 0
-22 -42 -43 -60 -62 -78 -79 -112 -113 -127 -128 -141 -142 -153 -155 -165 -166 -177 0
-22 -42 -43 -61 -62 -78 -80 -112 -113 -127 -128 -141 -142 -153 -155 -165 -166 -177 0
-22 -42 -43 -61 -62 -79 -80 -112 -114 -127 -128 -141 -142 -153 -155 -165 -166 -177 0
-22 -42 -43 -61 -62 -79 -80 -113 -114 -127 -129 -141 -142 -153 -155 -165 -166 -177 0
-22 -42 -43 -61 -62 -79 -80 -113 -114 -128 -129 -141 -143 -153 -155 -165 -166 -177 0
-22 -42 -43 -61 -62 -79 -80 -113 -114 -128 -129 -142 -143 -153 -156 -165 -166 -177 0
-21 -41 -42 -60 -61 -78 -79 -112 -113 -127 -128 -141 -142 -154 -155 -165 -167 -177 0
-22 -41 -43 -60 -61 -78 -79 -112 -113 -127 -128 -141 -142 -154 -155 -165 -167 -177 0
-22 -42 -43 -60 -62 -78 -79 -112 -113 -127 -128 -141 -142 -154 -155 -165 -167 -177 0
-22 -42 -43 -61 -62 -78 -80 -112 -113 -127 -128 -141 -142 -154 -155 -165 -167 -177 0
-22 -42 -43 -61 -62 -79 -80 -112 -114 -127 -128 -141 -142 -154 -155 -165 -167 -177 0
-22 -42 -43 -61 -62 -79 -80 -113 -114 -127 -129 -141 -142 -154 -155 -165 -167 -177 0
-22 -42 -43 -61 -62 -79 -80 -113 -114 -128 -129 -141 -143 -154 -155 -165 -167 -177 0
-22 -42 -43 -61 -62 -79 -80 -113 -114 -128 -129 -142 -143 -154 -156 -165 -167 -177 0
-22 -42 -43 -61 -62 -79 -80 -113 -114 -128 -129 -142 -143 -155 -156 -165 -168 -177 0
-21 -41 -42 -60 -61 -78 -79 -112 -113 -127 -128 -141 -142 -154 -155 -166 -167 -178 0
-22 -41 -43 -60 -61 -78 -79 -112 -113 -127 -128 -141 -142 -154 -155 -166 -167 -178 0
-22 -42 -43 -60 -62 -78 -79 -112 -113 -127 -128 -141 -142 -154 -155 -166 -167 -178 0
-22 -42 -43 -61 -62 -78 -80 -112 -113 -127 -128 -141 -142 -154 -155 -166 -167 -178 0
-22 -42 -43 -61 -62 -79 -80 -112 -114 -127 -128 -141 -142 -154 -155 -166 -167 -178 0
-22 -42 -43 -61 -62 -79 -80 -113 -114 -127 -129 -141 -142 -154 -155 -166 -167 -178 0
-22 -42 -43 -61 -62 -79 -80 -113 -114 -128 -129 -141 -143 -154 -155 -166 -167 -178 0
-22 -42 -43 -61 -62 -79 -80 -113 -114 -128 -129 -142 -143 -154 -156 -166 -167 -178 0
-22 -42 -43 -61 -62 -79 -80 -113 -114 -128 -129 -142 -143 -155 -156 -166 -168 -178 0
-22 -42 -43 -61 -62 -79 -80 -113 -114 -128 -129 -142 -143 -155 -156 -167 -168 -179 0
-20 -40 -41 -59 -60 -77 -78 -111 -112 -126 -127 -140 -141 -153 -154 -165 -166 -188 0
-21 -40 -42 -59 -60 -77 -78 -111 -112 -126 -127 -140 -141 -153 -154 -165 -166 -188 0
-22 -40 -43 -59 -60 -77 -78 -111 -112 -126 -127 -140 -141 -153 -154 -165 -166 -188 0
-21 -41 -42 -59 -61 -77 -78 -111 -112 -126 -127 -140 -141 -153 -154 -165 -166 -188 0
-22 -41 -43 -59 -61 -77 -78 -111 -112 -126 -127 -140 -141 -153 -154 -165 -166 -188 0
-22 -42 -43 -59 -62 -77 -78 -111 -112 -126 -127 -140 -141 -153 -154 -165 -166 -188 0
-21 -41 -42 -60 -61 -77 -79 -111 -112 -126 -127 -140 -141 -153 -154 -165 -166 -188 0
-22 -41 -43 -60 -61 -77 -79 -111 -112 -126 -127 -140 -141 -153 -154 -165 -166 -188 0
-22 -42 -43 -60 -62 -77 -79 -111 -112 -126 -127 -140 -141 -153 -154 -165 -166 -188 0
-22 -42 -43 -61 -62 -77 -80 -111 -112 -126 -127 -140 -141 -153 -154 -165 -166 -188 0
-21 -41 -42 -60 -61 -78 -79 -111 -113 -126 -127 -140 -141 -153 -154 -165 -166 -188 0
-22 -41 -43 -60 -61 -78 -79 -111 -113 -126 -127 -140 -141 -153 -154 -165 -166 -188 0
-22 -42 -43 -60 -62 -78 -79 -111 -113 -126 -127 -140 -141 -153 -154 -165 -166 -188 0
-22 -42 -43 -61 -62 -78 -80 -111 -113 -126 -127 -140 -141 -153 -154 -165 -166 -188 0
-22 -42 -43 -61 -62 -79 -80 -111 -114 -126 -127 -140 -141 -153 -154 -165 -166 -188 0
-21 -41 -42 -60 -61 -78 -79 -112 -113 -126 -128 -140 -141 -153 -154 -165 -166 -188 0
-22 -41 -43 -60 -61 -78 -79 -112 -113 -126 -128 -140 -141 -153 -154 -165 -166 -188 0
-22 -42 -43 -60 -62 -78 -79 -112 -113 -126 -128 -140 -141 -153 -154 -165 -166 -188 0
-22 -42 -43 -61 -62 -78 -80 -112 -113 -126 -128 -140 -141 -153 -154 -165 -166 -188 0
-22 -42 -43 -61 -62 -79 -80 -112 -114 -126 -128 -140 -141 -153 -154 -165 -166 -188 0
-22 -42 -43 -61 -62 -79 -80 -113 -114 -126 -129 -140 -141 -153 -154 -165 -166 -188 0
-21 -41 -42 -60 -61 -78 -79 -112 -113 -127 -128 -140 -142 -153 -154 -165 -166 -188 0
-22 -41 -43 -60 -61 -78 -79 -112 -113 -127 -128 -140 -142 -153 -154 -165 -166 -188 0
-22 -42 -43 -60 -62 -78 -79 -112 -113 -127 -128 -140 -142 -153 -154 -165 -166 -188 0
-22 -42 -43 -61 -62 -78 -80 -112 -113 -127 -128 -140 -142 -153 -154 -165 -166 -188 0
-22 -42 -43 -61 -62 -79 -80 -112 -114 -127 -128 -140 -142 -153 -154 -165 -166 -188 0
-22 -42 -43 -61 -62 -79 -80 -113 -114 -127 -129 -140 -142 -153 -154 -165 -166 -188 0
-22 -42 -43 -61 -62 -79 -80 -113 -114 -128 -129 -140 -143 -153 -154 -165 -166 -188 0
-21 -41 -42 -60 -61 -78 -79 -112 -113 -127 -128 -141 -142 -153 -155 -165 -166 -188 0
-22 -41 -43 -60 -61 -78 -79 -112 -113 -127 -128 -141 -142 -153 -155 -165 -166 -188 0
-22 -42 -43 -60 -62 -78 -79 -112 -113 -127 -128 -141 -142 -153 -155 -165 -166 -188 0
-22 -42 -43 -61 -62 -78 -80 -112 -113 -127 -128 -141 -142 -153 -155 -165 -166 -188 0
-22 -42 -43 -61 -62 -79 -80 -112 -114 -127 -128 -141 -142 -153 -155 -165 -166 -188 0
-22 -42 -43 -61 -62 -79 -80 -113 -114 -127 -129 -141 -142 -153 -155 -165 -166 -188 0
-22 -42 -43 -61 -62 -79 -80 -113 -114 -128 -129 -141 -143 -153 -155 -165 -166 -188 0
-22 -42 -43 -61 -62 -79 -80 -113 -114 -128 -129 -142 -143 -153 -156 -165 -166 -188 0
-21 -41 -42 -60 -61 -78 -79 -112 -113 -127 -128 -141 -142 -154 -155 -165 -167 -188 0
-22 -41 -43 -60 -61 -78 -79 -112 -113 -127 -128 -141 -142 -154 -155 -165 -167 -188 0
-22 -42 -43 -60 -62 -78 -79 -112 -113 -127 -128 -141 -142 -154 -155 -165 -167 -188 0
-22 -42 -43 -61 -62 -78 -80 -112 -113 -127 -128 -141 -142 -154 -155 -165 -167 -188 0
-22 -42 -43 -61 -62 -79 -80 -112 -114 -127 -128 -141 -142 -154 -155 -165 -167 -188 0
-22 -42 -43 -61 -62 -79 -80 -113 -114 -127 -129 -141 -142 -154 -155 -165 -167 -188 0
-22 -42 -43 -61 -62 -79 -80 -113 -114 -128 -129 -141 -143 -154 -155 -165 -167 -188 0
-22 -42 -43 -61 -62 -79 -80 -113 -114 -128 -129 -142 -143 -154 -156 -165 -167 -188 0
-22 -42 -43 -61 -62 -79 -80 -113 -114 -128 -129 -142 -143 -155 -156 -165 -168 -188 0
-21 -41 -42 -60 -61 -78 -79 -112 -113 -127 -128 -141 -142 -154 -155 -166 -167 -189 0
-22 -41 -43 -60 -61 -78 -79 -112 -113 -127 -128 -141 -142 -154 -155 -166 -167 -189 0
-22 -42 -43 -60 -62 -78 -79 -112 -113 -127 -128 -141 -142 -154 -155 -166 -167 -189 0
-22 -42 -43 -61 -62 -78 -80 -112 -113 -127 -128 -141 -142 -154 -155 -166 -167 -189 0
-22 -42 -43 -61 -62 -79 -80 -112 -114 -127 -128 -141 -142 -154 -155 -166 -167 -189 0
-22 -42 -43 -61 -62 -79 -80 -113 -114 -127 -129 -141 -142 -154 -155 -166 -167 -189 0
-22 -42 -43 -61 -62 -79 -80 -113 -114 -128 -129 -141 -143 -154 -155 -166 -167 -189 0
-22 -42 -43 -61 -62 -79 -80 -113 -114 -128 -129 -142 -143 -154 -156 -166 -167 -189 0
-22 -42 -43 -61 -62 -79 -80 -113 -114 -128 -129 -142 -143 -155 -156 -166 -168 -189 0
-22 -42 -43 -61 -62 -79 -80 -113 -114 -128 -129 -142 -143 -155 -156 -167 -168 -190 0
-21 -41 -42 -60 -61 -78 -79 -112 -113 -127 -128 -141 -142 -154 -155 -166 -167 -199 0
-22 -41 -43 -60 -61 -78 -79 -112 -113 -127 -128 -141 -142 -154 -155 -166 -167 -199 0
-22 -42 -43 -60 -62 -78 -79 -112 -113 -127 -128 -141 -142 -154 -155 -166 -167 -199 0
-22 -42 -43 -61 -62 -78 -80 -112 -113 -127 -128 -141 -142 -154 -155 -166 -167 -199 0
-22 -42 -43 -61 -62 -79 -80 -112 -114 -127 -128 -141 -142 -154 -155 -166 -167 -199 0
-22 -42 -43 -61 -62 -79 -80 -113 -114 -127 -129 -141 -142 -154 -155 -166 -167 -199 0
-22 -42 -43 -61 -62 -79 -80 -113 -114 -128 -129 -141 -143 -154 -155 -166 -167 -199 0
-22 -42 -43 -61 -62 -79 -80 -113 -114 -128 -129 -142 -143 -154 -156 -166 -167 -199 0
-22 -42 -43 -61 -62 -79 -80 -113 -114 -128 -129 -142 -143 -155 -156 -166 -168 -199 0
-22 -42 -43 -61 -62 -79 -80 -113 -114 -128 -129 -142 -143 -155 -156 -167 -168 -200 0
-22 -42 -43 -61 -62 -79 -80 -113 -114 -128 -129 -142 -143 -155 -156 -167 -168 -209 0
-20 -40 -41 -59 -60 -77 -78 -111 -112 -126 -127 -140 -141 -153 -154 -177 -178 -188 0
-21 -40 -42 -59 -60 -77 -78 -111 -112 -126 -127 -140 -141 -153 -154 -177 -178 -188 0
-22 -40 -43 -59 -60 -77 -78 -111 -112 -126 -127 -140 -141 -153 -154 -177 -178 -188 0
-21 -41 -42 -59 -61 -77 -78 -111 -112 -126 -127 -140 -141 -153 -154 -177 -178 -188 0
-22 -41 -43 -59 -61 -77 -78 -111 -112 -126 -127 -140 -141 -153 -154 -177 -178 -188 0
-22 -42 -43 -59 -62 -77 -78 -111 -112 -126 -127 -140 -141 -153 -154 -177 -178 -188 0
-21 -41 -42 -60 -61 -77 -79 -111 -112 -126 -127 -140 -141 -153 -154 -177 -178 -188 0
-22 -41 -43 -60 -61 -77 -79 -111 -112 -126 -127 -140 -141 -153 -154 -177 -178 -188 0
-22 -42 -43 -60 -62 -77 -79 -111 -112 -126 -127 -140 -141 -153 -154 -177 -178 -188 0
-22 -42 -43 -61 -62 -77 -80 -111 -112 -126 -127 -140 -141 -153 -154 -177 -178 -188 0
-21 -41 -42 -60 -61 -78 -79 -111 -113 -126 -127 -140 -141 -153 -154 -177 -178 -188 0
-22 -41 -43 -60 -61 -78 -79 -111 -113 -126 -127 -140 -141 -153 -154 -177 -178 -188 0
-22 -42 -43 -60 -62 -78 -79 -111 -113 -126 -127 -140 -141 -153 -154 -177 -178 -188 0
-22 -42 -43 -61 -62 -78 -80 -111 -113 -126 -127 -140 -141 -153 -154 -177 -178 -188 0
-22 -42 -43 -61 -62 -79 -80 -111 -114 -126 -127 -140 -141 -153 -154 -177 -178 -188 0
-21 -41 -42 -60 -61 -78 -79 -112 -113 -126 -128 -140 -141 -153 -154 -177 -178 -188 0
-22 -41 -43 -60 -61 -78 -79 -112 -113 -126 -128 -140 -141 -153 -154 -177 -178 -188 0
-22 -42 -43 -60 -62 -78 -79 -112 -113 -126 -128 -140 -141 -153 -154 -177 -178 -188 0
-22 -42 -43 -61 -62 -78 -80 -112 -113 -126 -128 -140 -141 -153 -154 -177 -178 -188 0
-22 -42 -43 -61 -62 -79 -80 -112 -114 -126 -128 -140 -141 -153 -154 -177 -178 -188 0
-22 -42 -43 -61 -62 -79 -80 -113 -114 -126 -129 -140 -141 -153 -154 -177 -178 -188 0
-21 -41 -42 -60 -61 -78 -79 -112 -113 -127 -128 -140 -142 -153 -154 -177 -178 -188 0
-22 -41 -43 -60 -61 -78 -79 -112 -113 -127 -128 -140 -142 -153 -154 -177 -178 -188 0
-22 -42 -43 -60 -62 -78 -79 -112 -113 -127 -128 -140 -142 -153 -154 -177 -178 -188 0
-22 -42 -43 -61 -62 -78 -80 -112 -113 -127 -128 -140 -142 -153 -154 -177 -178 -188 0
-22 -42 -43 -61 -62 -79 -80 -112 -114 -127 -128 -140 -142 -153 -154 -177 -178 -188 0
-22 -42 -43 -61 -62 -79 -80 -113 -114 -127 -129 -140 -142 -153 -154 -177 -178 -188 0
-22 -42 -43 -61 -62 -79 -80 -113 -114 -128 -129 -140 -143 -153 -154 -177 -178 -188 0
-21 -41 -42 -60 -61 -78 -79 -112 -113 -127 -128 -141 -142 -153 -155 -177 -178 -188 0
-22 -41 -43 -60 -61 -78 -79 -112 -113 -127 -128 -141 -142 -153 -155 -177 -178 -188 0
-22 -42 -43 -60 -62 -78 -79 -112 -113 -127 -128 -141 -142 -153 -155 -177 -178 -188 0
-22 -42 -43 -61 -62 -78 -80 -112 -113 -127 -128 -141 -142 -153 -155 -177 -178 -188 0
-22 -42 -43 -61 -62 -79 -80 -112 -114 -127 -128 -141 -142 -153 -155 -177 -178 -188 0
-22 -42 -43 -61 -62 -79 -80 -113 -114 -127 -129 -141 -142 -153 -155 -177 -178 -188 0
-22 -42 -43 -61 -62 -79 -80 -113 -114 -128 -129 -141 -143 -153 -155 -177 -178 -188 0
-22 -42 -43 -61 -62 -79 -80 -113 -114 -128 -129 -142 -143 -153 -156 -177 -178 -188 0
-21 -41 -42 -60 -61 -78 -79 -112 -113 -127 -128 -141 -142 -154 -155 -177 -179 -188 0
-22 -41 -43 -60 -61 -78 -79 -112 -113 -127 -128 -141 -142 -154 -155 -177 -179 -188 0
-22 -42 -43 -60 -62 -78 -79 -112 -113 -127 -128 -141 -142 -154 -155 -177 -179 -188 0
-22 -42 -43 -61 -62 -78 -80 -112 -113 -127 -128 -141 -142 -154 -155 -177 -179 -188 0
-22 -42 -43 -61 -62 -79 -80 -112 -114 -127 -128 -141 -142 -154 -155 -177 -179 -188 0
-22 -42 -43 -61 -62 -79 -80 -113 -114 -127 -129 -141 -142 -154 -155 -177 -179 -188 0
-22 -42 -43 -61 -62 -79 -80 -113 -114 -128 -129 -141 -143 -154 -155 -177 -179 -188 0
-22 -42 -43 -61 -62 -79 -80 -113 -114 -128 -129 -142 -143 -154 -156 -177 -179 -188 0
-22 -42 -43 -61 -62 -79 -80 -113 -114 -128 -129 -142 -143 -155 -156 -177 -180 -188 0
-21 -41 -42 -60 -61 -78 -79 -112 -113 -127 -128 -141 -142 -154 -155 -178 -179 -189 0
-22 -41 -43 -60 -61 -78 -79 -112 -113 -127 -128 -141 -142 -154 -155 -178 -179 -189 0
-22 -42 -43 -60 -62 -78 -79 -112 -113 -127 -128 -141 -142 -154 -155 -178 -179 -189 0
-22 -42 -43 -61 -62 -78 -80 -112 -113 -127 -128 -141 -142 -154 -155 -178 -179 -189 0
-22 -42 -43 -61 -62 -79 -80 -112 -114 -127 -128 -141 -142 -154 -155 -178 -179 -189 0
-22 -42 -43 -61 -62 -79 -80 -113 -114 -127 -129 -141 -142 -154 -155 -178 -179 -189 0
-22 -42 -43 -61 -62 -79 -80 -113 -114 -128 -129 -141 -143 -154 -155 -178 -179 -189 0
-22 -42 -43 -61 -62 -79 -80 -113 -114 -128 -129 -142 -143 -154 -156 -178 -179 -189 0
-22 -42 -43 -61 -62 -79 -80 -113 -114 -128 -129 -142 -143 -155 -156 -178 -180 -189 0
-22 -42 -43 -61 -62 -79 -80 -113 -114 -128 -129 -142 -143 -155 -156 -179 -180 -190 0
-21 -41 -42 -60 -61 -78 -79 -112 -113 -127 -128 -141 -142 -154 -155 -178 -179 -199 0
-22 -41 -43 -60 -61 -78 -79 -112 -113 -127 -128 -141 -142 -154 -155 -178 -179 -199 0
-22 -42 -43 -60 -62 -78 -79 -112 -113 -127 -128 -141 -142 -154 -155 -178 -179 -199 0
-22 -42 -43 -61 -62 -78 -80 -112 -113 -127 -128 -141 -142 -154 -155 -178 -179 -199 0
-22 -42 -43 -61 -62 -79 -80 -112 -114 -127 -128 -141 -142 -154 -155 -178 -179 -199 0
-22 -42 -43 -61 -62 -79 -80 -113 -114 -127 -129 -141 -142 -154 -155 -178 -179 -199 0
-22 -42 -43 -61 -62 -79 -80 -113 -114 -128 -129 -141 -143 -154 -155 -178 -179 -199 0
-22 -42 -43 -61 -62 -79 -80 -113 -114 -128 -129 -142 -143 -154 -156 -178 -179 -199 0
-22 -42 -43 -61 -62 -79 -80 -113 -114 -128 -129 -142 -143 -155 -156 -178 -180 -199 0
-22 -42 -43 -61 -62 -79 -80 -113 -114 -128 -129 -142 -143 -155 -156 -179 -180 -200 0
-22 -42 -43 -61 -62 -79 -80 -113 -114 -128 -129 -142 -143 -155 -156 -179 -180 -209 0
-21 -41 -42 -60 -61 -78 -79 -112 -113 -127 -128 -141 -142 -154 -155 -189 -190 -199 0
-22 -41 -43 -60 -61 -78 -79 -112 -113 -127 -128 -141 -142 -154 -155 -189 -190 -199 0
-22 -42 -43 -60 -62 -78 -79 -112 -113 -127 -128 -141 -142 -154 -155 -189 -190 -199 0
-22 -42 -43 -61 -62 -78 -80 -112 -113 -127 -128 -141 -142 -154 -155 -189 -190 -199 0
-22 -42 -43 -61 -62 -79 -80 -112 -114 -127 -128 -141 -142 -154 -155 -189 -190 -199 0
-22 -42 -43 -61 -62 -79 -80 -113 -114 -127 -129 -141 -142 -154 -155 -189 -190 -199 0
-22 -42 -43 -61 -62 -79 -80 -113 -114 -128 -129 -141 -143 -154 -155 -189 -190 -199 0
-22 -42 -43 -61 -62 -79 -80 -113 -114 -128 -129 -142 -143 -154 -156 -189 -190 -199 0
-22 -42 -43 -61 -62 -79 -80 -113 -114 -128 -129 -142 -143 -155 -156 -189 -191 -199 0
-22 -42 -43 -61 -62 -79 -80 -113 -114 -128 -129 -142 -143 -155 -156 -190 -191 -200 0
-22 -42 -43 -61 -62 -79 -80 -113 -114 -128 -129 -142 -143 -155 -156 -190 -191 -209 0
-22 -42 -43 -61 -62 -79 -80 -113 -114 -128 -129 -142 -143 -155 -156 -200 -201 -209 0
-20 -40 -41 -59 -60 -77 -78 -111 -112 -126 -127 -140 -141 -166 -167 -177 -178 -188 0
-21 -40 -42 -59 -60 -77 -78 -111 -112 -126 -127 -140 -141 -166 -167 -177 -178 -188 0
-22 -40 -43 -59 -60 -77 -78 -111 -112 -126 -127 -140 -141 -166 -167 -177 -178 -188 0
-21 -41 -42 -59 -61 -77 -78 -111 -112 -126 -127 -140 -141 -166 -167 -177 -178 -188 0
-22 -41 -43 -59 -61 -77 -78 -111 -112 -126 -127 -140 -141 -166 -167 -177 -178 -188 0
-22 -42 -43 -59 -62 -77 -78 -111 -112 -126 -127 -140 -141 -166 -167 -177 -178 -188 0
-21 -41 -42 -60 -61 -77 -79 -111 -112 -126 -127 -140 -141 -166 -167 -177 -178 -188 0
-22 -41 -43 -60 -61 -77 -79 -111 -112 -126 -127 -140 -141 -166 -167 -177 -178 -188 0
-22 -42 -43 -60 -62 -77 -79 -111 -112 -126 -127 -140 -141 -166 -167 -177 -178 -188 0
-22 -42 -43 -61 -62 -77 -80 -111 -112 -126 -127 -140 -141 -166 -167 -177 -178 -188 0
-21 -41 -42 -60 -61 -78 -79 -111 -113 -126 -127 -140 -141 -166 -167 -177 -178 -188 0
-22 -41 -43 -60 -61 -78 -79 -111 -113 -126 -127 -140 -141 -166 -167 -177 -178 -188 0
-22 -42 -43 -60 -62 -78 -79 -111 -113 -126 -127 -140 -141 -166 -167 -177 -178 -188 0
-22 -42 -43 -61 -62 -78 -80 -111 -113 -126 -127 -140 -141 -166 -167 -177 -178 -188 0
-22 -42 -43 -61 -62 -79 -80 -111 -114 -126 -127 -140 -141 -166 -167 -177 -178 -188 0
-21 -41 -42 -60 -61 -78 -79 -112 -113 -126 -128 -140 -141 -166 -167 -177 -178 -188 0
-22 -41 -43 -60 -61 -78 -79 -112 -113 -126 -128 -140 -141 -166 -167 -177 -178 -188 0
-22 -42 -43 -60 -62 -78 -79 -112 -113 -126 -128 -140 -141 -166 -167 -177 -178 -188 0
-22 -42 -43 -61 -62 -78 -80 -112 -113 -126 -128 -140 -141 -166 -167 -177 -178 -188 0
-22 -42 -43 -61 -62 -79 -80 -112 -114 -126 -128 -140 -141 -166 -167 -177 -178 -188 0
-22 -42 -43 -61 -62 -79 -80 -113 -114 -126 -129 -140 -141 -166 -167 -177 -178 -188 0
-21 -41 -42 -60 -61 -78 -79 -112 -113 -127 -128 -140 -142 -166 -167 -177 -178 -188 0
-22 -41 -43 -60 -61 -78 -79 -112 -113 -127 -128 -140 -142 -166 -167 -177 -178 -188 0
-22 -42 -43 -60 -62 -78 -79 -112 -113 -127 -128 -140 -142 -166 -167 -177 -178 -188 0
-22 -42 -43 -61 -62 -78 -80 -112 -113 -127 -128 -140 -142 -166 -167 -177 -178 -188 0
-22 -42 -43 -61 -62 -79 -80 -112 -114 -127 -128 -140 -142 -166 -167 -177 -178 -188 0
-22 -42 -43 -61 -62 -79 -80 -113 -114 -127 -129 -140 -142 -166 -167 -177 -178 -188 0
-22 -42 -43 -61 -62 -79 -80 -113 -114 -128 -129 -140 -143 -166 -167 -177 -178 -188 0
-21 -41 -42 -60 -61 -78 -79 -112 -113 -127 -128 -141 -142 -166 -168 -177 -178 -188 0
-22 -41 -43 -60 -61 -78 -79 -112 -113 -127 -128 -141 -142 -166 -168 -177 -178 -188 0
-22 -42 -43 -60 -62 -78 -79 -112 -113 -127 -128 -141 -142 -166 -168 -177 -178 -188 0
-22 -42 -43 -61 -62 -78 -80 -112 -113 -127 -128 -141 -142 -166 -168 -177 -178 -188 0
-22 -42 -43 -61 -62 -79 -80 -112 -114 -127 -128 -141 -142 -166 -168 -177 -178 -188 0
-22 -42 -43 -61 -62 -79 -80 -113 -114 -127 -129 -141 -142 -166 -168 -177 -178 -188 0
-22 -42 -43 -61 -62 -79 -80 -113 -114 -128 -129 -141 -143 -166 -168 -177 -178 -188 0
-22 -42 -43 -61 -62 -79 -80 -113 -114 -128 -129 -142 -143 -166 -169 -177 -178 -188 0
-21 -41 -42 -60 -61 -78 -79 -112 -113 -127 -128 -141 -142 -167 -168 -177 -179 -188 0
-22 -41 -43 -60 -61 -78 -79 -112 -113 -127 -128 -141 -142 -167 -168 -177 -179 -188 0
-22 -42 -43 -60 -62 -78 -79 -112 -113 -127 -128 -141 -142 -167 -168 -177 -179 -188 0
-22 -42 -43 -61 -62 -78 -80 -112 -113 -127 -128 -141 -142 -167 -168 -177 -179 -188 0
-22 -42 -43 -61 -62 -79 -80 -112 -114 -127 -128 -141 -142 -167 -168 -177 -179 -188 0
-22 -42 -43 -61 -62 -79 -80 -113 -114 -127 -129 -141 -142 -167 -168 -177 -179 -188 0
-22 -42 -43 -61 -62 -79 -80 -113 -114 -128 -129 -141 -143 -167 -168 -177 -179 -188 0
-22 -42 -43 -61 -62 -79 -80 -113 -114 -128 -129 -142 -143 -167 -169 -177 -179 -188 0
-22 -42 -43 -61 -62 -79 -80 -113 -114 -128 -129 -142 -143 -168 -169 -177 -180 -188 0
-21 -41 -42 -60 -61 -78 -79 -112 -113 -127 -128 -141 -142 -167 -168 -178 -179 -189 0
-22 -41 -43 -60 -61 -78 -79 -112 -113 -127 -128 -141 -142 -167 -168 -178 -179 -189 0
-22 -42 -43 -60 -62 -78 -79 -112 -113 -127 -128 -141 -142 -167 -168 -178 -179 -189 0
-22 -42 -43 -61 -62 -78 -80 -112 -113 -127 -128 -141 -142 -167 -168 -178 -179 -189 0
-22 -42 -43 -61 -62 -79 -80 -112 -114 -127 -128 -141 -142 -167 -168 -178 -179 -189 0
-22 -42 -43 -61 -62 -79 -80 -113 -114 -127 -129 -141 -142 -167 -168 -178 -179 -189 0
-22 -42 -43 -61 -62 -79 -80 -113 -114 -128 -129 -141 -143 -167 -168 -178 -179 -189 0
-22 -42 -43 -61 -62 -79 -80 -113 -114 -128 -129 -142 -143 -167 -169 -178 -179 -189 0
-22 -42 -43 -61 -62 -79 -80 -113 -114 -128 -129 -142 -143 -168 -169 -178 -180 -189 0
-22 -42 -43 -61 -62 -79 -80 -113 -114 -128 -129 -142 -143 -168 -169 -179 -180 -190 0
-21 -41 -42 -60 -61 -78 -79 -112 -113 -127 -128 -141 -142 -167 -168 -178 -179 -199 0
-22 -41 -43 -60 -61 -78 -79 -112 -113 -127 -128 -141 -142 -167 -168 -178 -179 -199 0
-22 -42 -43 -60 -62 -78 -79 -112 -113 -127 -128 -141 -142 -167 -168 -178 -179 -199 0
-22 -42 -43 -61 -62 -78 -80 -112 -113 -127 -128 -141 -142 -167 -168 -178 -179 -199 0
-22 -42 -43 -61 -62 -79 -80 -112 -114 -127 -128 -141 -142 -167 -168 -178 -179 -199 0
-22 -42 -43 -61 -62 -79 -80 -113 -114 -127 -129 -141 -142 -167 -168 -178 -179 -199 0
-22 -42 -43 -61 -62 -79 -80 -113 -114 -128 -129 -141 -143 -167 -168 -178 -179 -199 0
-22 -42 -43 -61 -62 -79 -80 -113 -114 -128 -129 -142 -143 -167 -169 -178 -179 -199 0
-22 -42 -43 -61 -62 -79 -80 -113 -114 -128 -129 -142 -143 -168 -169 -178 -180 -199 0
-22 -42 -43 -61 -62 -79 -80 -113 -114 -128 -129 -142 -143 -168 -169 -179 -180 -200 0
-22 -42 -43 -61 -62 -79 -80 -113 -114 -128 -129 -142 -143 -168 -169 -179 -180 -209 0
-21 -41 -42 -60 -61 -78 -79 -112 -113 -127 -128 -141 -142 -167 -168 -189 -190 -199 0
-22 -41 -43 -60 -61 -78 -79 -112 -113 -127 -128 -141 -142 -167 -168 -189 -190 -199 0
-22 -42 -43 -60 -62 -78 -79 -112 -113 -127 -128 -141 -142 -167 -168 -189 -190 -199 0
-22 -42 -43 -61 -62 -78 -80 -112 -113 -127 -128 -141 -142 -167 -168 -189 -190 -199 0
-22 -42 -43 -61 -62 -79 -80 -112 -114 -127 -128 -141 -142 -167 -168 -189 -190 -199 0
-22 -42 -43 -61 -62 -79 -80 -113 -114 -127 -129 -141 -142 -167 -168 -189 -190 -199 0
-22 -42 -43 -61 -62 -79 -80 -113 -114 -128 -129 -141 -143 -167 -168 -189 -190 -199 0
-22 -42 -43 -61 -62 -79 -80 -113 -114 -128 -129 -142 -143 -167 -169 -189 -190 -199 0
-22 -42 -43 -61 -62 -79 -80 -113 -114 -128 -129 -142 -143 -168 -169 -189 -191 -199 0
-22 -42 -43 -61 -62 -79 -80 -113 -114 -128 -129 -142 -143 -168 -169 -190 -191 -200 0
-22 -42 -43 -61 -62 -79 -80 -113 -114 -128 -129 -142 -143 -168 -169 -190 -191 -209 0
-22 -42 -43 -61 -62 -79 -80 -113 -114 -128 -129 -142 -143 -168 -169 -200 -201 -209 0
-21 -41 -42 -60 -61 -78 -79 -112 -113 -127 -128 -141 -142 -179 -180 -189 -190 -199 0
-22 -41 -43 -60 -61 -78 -79 -112 -113 -127 -128 -141 -142 -179 -180 -189 -190 -199 0
-22 -42 -43 -60 -62 -78 -79 -112 -113 -127 -128 -141 -142 -179 -180 -189 -190 -199 0
-22 -42 -43 -61 -62 -78 -80 -112 -113 -127 -128 -141 -142 -179 -180 -189 -190 -199 0
-22 -42 -43 -61 -62 -79 -80 -112 -114 -127 -128 -141 -142 -179 -180 -189 -190 -199 0
-22 -42 -43 -61 -62 -79 -80 -113 -114 -127 -129 -141 -142 -179 -180 -189 -190 -199 0
-22 -42 -43 -61 -62 -79 -80 -113 -114 -128 -129 -141 -143 -179 -180 -189 -190 -199 0
-22 -42 -43 -61 -62 -79 -80 -113 -114 -128 -129 -142 -143 -179 -181 -189 -190 -199 0
-22 -42 -43 -61 -62 -79 -80 -113 -114 -128 -129 -142 -143 -180 -181 -189 -191 -199 0
-22 -42 -43 -61 -62 -79 -80 -113 -114 -128 -129 -142 -143 -180 -181 -190 -191 -200 0
-22 -42 -43 -61 -62 -79 -80 -113 -114 -128 -129 -142 -143 -180 -181 -190 -191 -209 0
-22 -42 -43 -61 -62 -79 -80 -113 -114 -128 -129 -142 -143 -180 -181 -200 -201 -209 0
-22 -42 -43 -61 -62 -79 -80 -113 -114 -128 -129 -142 -143 -191 -192 -200 -201 -209 0
-20 -40 -41 -59 -60 -77 -78 -111 -112 -126 -127 -154 -155 -166 -167 -177 -178 -188 0
-21 -40 -42 -59 -60 -77 -78 -111 -112 -126 -127 -154 -155 -166 -167 -177 -178 -188 0
-22 -40 -43 -59 -60 -77 -78 -111 -112 -126 -127 -154 -155 -166 -167 -177 -178 -188 0
-21 -41 -42 -59 -61 -77 -78 -111 -112 -126 -127 -154 -155 -166 -167 -177 -178 -188 0
-22 -41 -43 -59 -61 -77 -78 -111 -112 -126 -127 -154 -155 -166 -167 -177 -178 -188 0
-22 -42 -43 -59 -62 -77 -78 -111 -112 -126 -127 -154 -155 -166 -167 -177 -178 -188 0
-21 -41 -42 -60 -61 -77 -79 -111 -112 -126 -127 -154 -155 -166 -167 -177 -178 -188 0
-22 -41 -43 -60 -61 -77 -79 -111 -112 -126 -127 -154 -155 -166 -167 -177 -178 -188 0
-22 -42 -43 -60 -62 -77 -79 -111 -112 -126 -127 -154 -155 -166 -167 -177 -178 -188 0
-22 -42 -43 -61 -62 -77 -80 -111 -112 -126 -127 -154 -155 -166 -167 -177 -178 -188 0
-21 -41 -42 -60 -61 -78 -79 -111 -113 -126 -127 -154 -155 -166 -167 -177 -178 -188 0
-22 -41 -43 -60 -61 -78 -79 -111 -113 -126 -127 -154 -155 -166 -167 -177 -178 -188 0
-22 -42 -43 -60 -62 -78 -79 -111 -113 -126 -127 -154 -155 -166 -167 -177 -178 -188 0
-22 -42 -43 -61 -62 -78 -80 -111 -113 -126 -127 -154 -155 -166 -167 -177 -178 -188 0
-22 -42 -43 -61 -62 -79 -80 -111 -114 -126 -127 -154 -155 -166 -167 -177 -178 -188 0
-21 -41 -42 -60 -61 -78 -79 -112 -113 -126 -128 -154 -155 -166 -167 -177 -178 -188 0
-22 -41 -43 -60 -61 -78 -79 -112 -113 -126 -128 -154 -155 -166 -167 -177 -178 -188 0
-22 -42 -43 -60 -62 -78 -79 -112 -113 -126 -128 -154 -155 -166 -167 -177 -178 -188 0
-22 -42 -43 -61 -62 -78 -80 -112 -113 -126 -128 -154 -155 -166 -167 -177 -178 -188 0
-22 -42 -43 -61 -62 -79 -80 -112 -114 -126 -128 -154 -155 -166 -167 -177 -178 -188 0
-22 -42 -43 -61 -62 -79 -80 -113 -114 -126 -129 -154 -155 -166 -167 -177 -178 -188 0
-21 -41 -42 -60 -61 -78 -79 -112 -113 -127 -128 -154 -156 -166 -167 -177 -178 -188 0
-22 -41 -43 -60 -61 -78 -79 -112 -113 -127 -128 -154 -156 -166 -167 -177 -178 -188 0
-22 -42 -43 -60 -62 -78 -79 -112 -113 -127 -128 -154 -156 -166 -167 -177 -178 -188 0
-22 -42 -43 -61 -62 -78 -80 -112 -113 -127 -128 -154 -156 -166 -167 -177 -178 -188 0
-22 -42 -43 -61 -62 -79 -80 -112 -114 -127 -128 -154 -156 -166 -167 -177 -178 -188 0
-22 -42 -43 -61 -62 -79 -80 -113 -114 -127 -129 -154 -156 -166 -167 -177 -178 -188 0
-22 -42 -43 -61 -62 -79 -80 -113 -114 -128 -129 -154 -157 -166 -167 -177 -178 -188 0
-21 -41 -42 -60 -61 -78 -79 -112 -113 -127 -128 -155 -156 -166 -168 -177 -178 -188 0
-22 -41 -43 -60 -61 -78 -79 -112 -113 -127 -128 -155 -156 -166 -168 -177 -178 -188 0
-22 -42 -43 -60 -62 -78 -79 -112 -113 -127 -128 -155 -156 -166 -168 -177 -178 -188 0
-22 -42 -43 -61 -62 -78 -80 -112 -113 -127 -128 -155 -156 -166 -168 -177 -178 -188 0
-22 -42 -43 -61 -62 -79 -80 -112 -114 -127 -128 -155 -156 -166 -168 -177 -178 -188 0
-22 -42 -43 -61 -62 -79 -80 -113 -114 -127 -129 -155 -156 -166 -168 -177 -178 -188 0
-22 -42 -43 -61 -62 -79 -80 -113 -114 -128 -129 -155 -157 -166 -168 -177 -178 -188 0
-22 -42 -43 -61 -62 -79 -80 -113 -114 -128 -129 -156 -157 -166 -169 -177 -178 -188 0
-21 -41 -42 -60 -61 -78 -79 -112 -113 -127 -128 -155 -156 -167 -168 -177 -179 -188 0
-22 -41 -43 -60 -61 -78 -79 -112 -113 -127 -128 -155 -156 -167 -168 -177 -179 -188 0
-22 -42 -43 -60 -62 -78 -79 -112 -113 -127 -128 -155 -156 -167 -168 -177 -179 -188 0
-22 -42 -43 -61 -62 -78 -80 -112 -113 -127 -128 -155 -156 -167 -168 -177 -179 -188 0
-22 -42 -43 -61 -62 -79 -80 -112 -114 -127 -128 -155 -156 -167 -168 -177 -179 -188 0
-22 -42 -43 -61 -62 -79 -80 -113 -114 -127 -129 -155 -156 -167 -168 -177 -179 -188 0
-22 -42 -43 -61 -62 -79 -80 -113 -114 -128 -129 -155 -157 -167 -168 -177 -179 -188 0
-22 -42 -43 -61 -62 -79 -80 -113 -114 -128 -129 -156 -157 -167 -169 -177 -179 -188 0
-22 -42 -43 -61 -62 -79 -80 -113 -114 -128 -129 -156 -157 -168 -169 -177 -180 -188 0
-21 -41 -42 -60 -61 -78 -79 -112 -113 -127 -128 -155 -156 -167 -168 -178 -179 -189 0
-22 -41 -43 -60 -61 -78 -79 -112 -113 -127 -128 -155 -156 -167 -168 -178 -179 -189 0
-22 -42 -43 -60 -62 -78 -79 -112 -113 -127 -128 -155 -156 -167 -168 -178 -179 -189 0
-22 -42 -43 -61 -62 -78 -80 -112 -113 -127 -128 -155 -156 -167 -168 -178 -179 -189 0
-22 -42 -43 -61 -62 -79 -80 -112 -114 -127 -128 -155 -156 -167 -168 -178 -179 -189 0
-22 -42 -43 -61 -62 -79 -80 -113 -114 -127 -129 -155 -156 -167 -168 -178 -179 -189 0
-22 -42 -43 -61 -62 -79 -80 -113 -114 -128 -129 -155 -157 -167 -168 -178 -179 -189 0
-22 -42 -43 -61 -62 -79 -80 -113 -114 -128 -129 -156 -157 -167 -169 -178 -179 -189 0
-22 -42 -43 -61 -62 -79 -80 -113 -114 -128 -129 -156 -157 -168 -169 -178 -180 -189 0
-22 -42 -43 -61 -62 -79 -80 -113 -114 -128 -129 -156 -157 -168 -169 -179 -180 -190 0
-21 -41 -42 -60 -61 -78 -79 -112 -113 -127 -128 -155 -156 -167 -168 -178 -179 -199 0
-22 -41 -43 -60 -61 -78 -79 -112 -113 -127 -128 -155 -156 -167 -168 -178 -179 -199 0
-22 -42 -43 -60 -62 -78 -79 -112 -113 -127 -128 -155 -156 -167 -168 -178 -179 -199 0
-22 -42 -43 -61 -62 -78 -80 -112 -113 -127 -128 -155 -156 -167 -168 -178 -179 -199 0
-22 -42 -43 -61 -62 -79 -80 -112 -114 -127 -128 -155 -156 -167 -168 -178 -179 -199 0
-22 -42 -43 -61 -62 -79 -80 -113 -114 -127 -129 -155 -156 -167 -168 -178 -179 -199 0
-22 -42 -43 -61 -62 -79 -80 -113 -114 -128 -129 -155 -157 -167 -168 -178 -179 -199 0
-22 -42 -43 -61 -62 -79 -80 -113 -114 -128 -129 -156 -157 -167 -169 -178 -179 -199 0
-22 -42 -43 -61 -62 -79 -80 -113 -114 -128 -129 -156 -157 -168 -169 -178 -180 -199 0
-22 -42 -43 -61 -62 -79 -80 -113 -114 -128 -129 -156 -157 -168 -169 -179 -180 -200 0
-22 -42 -43 -61 -62 -79 -80 -113 -114 -128 -129 -156 -157 -168 -169 -179 -180 -209 0
-21 -41 -42 -60 -61 -78 -79 -112 -113 -127 -128 -155 -156 -167 -168 -189 -190 -199 0
-22 -41 -43 -60 -61 -78 -79 -112 -113 -127 -128 -155 -156 -167 -168 -189 -190 -199 0
-22 -42 -43 -60 -62 -78 -79 -112 -113 -127 -128 -155 -156 -167 -168 -189 -190 -199 0
-22 -42 -43 -61 -62 -78 -80 -112 -113 -127 -128 -155 -156 -167 -168 -189 -190 -199 0
-22 -42 -43 -61 -62 -79 -80 -112 -114 -127 -128 -155 -156 -167 -168 -189 -190 -199 0
-22 -42 -43 -61 -62 -79 -80 -113 -114 -127 -129 -155 -156 -167 -168 -189 -190 -199 0
-22 -42 -43 -61 -62 -79 -80 -113 -114 -128 -129 -155 -157 -167 -168 -189 -190 -199 0
-22 -42 -43 -61 -62 -79 -80 -113 -114 -128 -129 -156 -157 -167 -169 -189 -190 -199 0
-22 -42 -43 -61 -62 -79 -80 -113 -114 -128 -129 -156 -157 -168 -169 -189 -191 -199 0
-22 -42 -43 -61 -62 -79 -80 -113 -114 -128 -129 -156 -157 -168 -169 -190 -191 -200 0
-22 -42 -43 -61 -62 -79 -80 -113 -114 -128 -129 -156 -157 -168 -169 -190 -191 -209 0
-22 -42 -43 -61 -62 -79 -80 -113 -114 -128 -129 -156 -157 -168 -169 -200 -201 -209 0
-21 -41 -42 -60 -61 -78 -79 -112 -113 -127 -128 -155 -156 -179 -180 -189 -190 -199 0
-22 -41 -43 -60 -61 -78 -79 -112 -113 -127 -128 -155 -156 -179 -180 -189 -190 -199 0
-22 -42 -43 -60 -62 -78 -79 -112 -113 -127 -128 -155 -156 -179 -180 -189 -190 -199 0
-22 -42 -43 -61 -62 -78 -80 -112 -113 -127 -128 -155 -156 -179 -180 -189 -190 -199 0
-22 -42 -43 -61 -62 -79 -80 -112 -114 -127 -128 -155 -156 -179 -180 -189 -190 -199 0
-22 -42 -43 -61 -62 -79 -80 -113 -114 -127 -129 -155 -156 -179 -180 -189 -190 -199 0
-22 -42 -43 -61 -62 -79 -80 -113 -114 -128 -129 -155 -157 -179 -180 -189 -190 -199 0
-22 -42 -43 -61 -62 -79 -80 -113 -114 -128 -129 -156 -157 -179 -181 -189 -190 -199 0
-22 -42 -43 -61 -62 -79 -80 -113 -114 -128 -129 -156 -157 -180 -181 -189 -191 -199 0
-22 -42 -43 -61 -62 -79 -80 -113 -114 -128 -129 -156 -157 -180 -181 -190 -191 -200 0
-22 -42 -43 -61 -62 -79 -80 -113 -114 -128 -129 -156 -157 -180 -181 -190 -191 -209 0
-22 -42 -43 -61 -62 -79 -80 -113 -114 -128 -129 -156 -157 -180 -181 -200 -201 -209 0
-22 -42 -43 -61 -62 -79 -80 -113 -114 -128 -129 -156 -157 -191 -192 -200 -201 -209 0
-21 -41 -42 -60 -61 -78 -79 -112 -113 -127 -128 -168 -169 -179 -180 -189 -190 -199 0
-22 -41 -43 -60 -61 -78 -79 -112 -113 -127 -128 -168 -169 -179 -180 -189 -190 -199 0
-22 -42 -43 -60 -62 -78 -79 -112 -113 -127 -128 -168 -169 -179 -180 -189 -190 -199 0
-22 -42 -43 -61 -62 -78 -80 -112 -113 -127 -128 -168 -169 -179 -180 -189 -190 -199 0
-22 -42 -43 -61 -62 -79 -80 -112 -114 -127 -128 -168 -169 -179 -180 -189 -190 -199 0
-22 -42 -43 -61 -62 -79 -80 -113 -114 -127 -129 -168 -169 -179 -180 -189 -190 -199 0
-22 -42 -43 -61 -62 -79 -80 -113 -114 -128 -129 -168 -170 -179 -180 -189 -190 -199 0
-22 -42 -43 -61 -62 -79 -80 -113 -114 -128 -129 -169 -170 -179 -181 -189 -190 -199 0
-22 -42 -43 -61 -62 -79 -80 -113 -114 -128 -129 -169 -170 -180 -181 -189 -191 -199 0
-22 -42 -43 -61 -62 -79 -80 -113 -114 -128 -129 -169 -170 -180 -181 -190 -191 -200 0
-22 -42 -43 -61 -62 -79 -80 -113 -114 -128 -129 -169 -170 -180 -181 -190 -191 -209 0
-22 -42 -43 -61 -62 -79 -80 -113 -114 -128 -129 -169 -170 -180 -181 -200 -201 -209 0
-22 -42 -43 -61 -62 -79 -80 -113 -114 -128 -129 -169 -170 -191 -192 -200 -201 -209 0
-22 -42 -43 -61 -62 -79 -80 -113 -114 -128 -129 -181 -182 -191 -192 -200 -201 -209 0
-20 -40 -41 -59 -60 -77 -78 -111 -112 -141 -142 -154 -155 -166 -167 -177 -178 -188 0
-21 -40 -42 -59 -60 -77 -78 -111 -112 -141 -142 -154 -155 -166 -167 -177 -178 -188 0
-22 -40 -43 -59 -60 -77 -78 -111 -112 -141 -142 -154 -155 -166 -167 -177 -178 -188 0
-21 -41 -42 -59 -61 -77 -78 -111 -112 -141 -142 -154 -155 -166 -167 -177 -178 -188 0
-22 -41 -43 -59 -61 -77 -78 -111 -112 -141 -142 -154 -155 -166 -167 -177 -178 -188 0
-22 -42 -43 -59 -62 -77 -78 -111 -112 -141 -142 -154 -155 -166 -167 -177 -178 -188 0
-21 -41 -42 -60 -61 -77 -79 -111 -112 -141 -142 -154 -155 -166 -167 -177 -178 -188 0
-22 -41 -43 -60 -61 -77 -79 -111 -112 -141 -142 -154 -155 -166 -167 -177 -178 -188 0
-22 -42 -43 -60 -62 -77 -79 -111 -112 -141 -142 -154 -155 -166 -167 -177 -178 -188 0
-22 -42 -43 -61 -62 -77 -80 -111 -112 -141 -142 -154 -155 -166 -167 -177 -178 -188 0
-21 -41 -42 -60 -61 -78 -79 -111 -113 -141 -142 -154 -155 -166 -167 -177 -178 -188 0
-22 -41 -43 -60 -61 -78 -79 -111 -113 -141 -142 -154 -155 -166 -167 -177 -178 -188 0
-22 -42 -43 -60 -62 -78 -79 -111 -113 -141 -142 -154 -155 -166 -167 -177 -178 -188 0
-22 -42 -43 -61 -62 -78 -80 -111 -113 -141 -142 -154 -155 -166 -167 -177 -178 -188 0
-22 -42 -43 -61 -62 -79 -80 -111 -114 -141 -142 -154 -155 -166 -167 -177 -178 -188 0
-21 -41 -42 -60 -61 -78 -79 -112 -113 -141 -143 -154 -155 -166 -167 -177 -178 -188 0
-22 -41 -43 -60 -61 -78 -79 -112 -113 -141 -143 -154 -155 -166 -167 -177 -178 -188 0
-22 -42 -43 -60 -62 -78 -79 -112 -113 -141 -143 -154 -155 -166 -167 -177 -178 -188 0
-22 -42 -43 -61 -62 -78 -80 -112 -113 -141 -143 -154 -155 -166 -167 -177 -178 -188 0
-22 -42 -43 -61 -62 -79 -80 -112 -114 -141 -143 -154 -155 -166 -167 -177 -178 -188 0
-22 -42 -43 -61 -62 -79 -80 -113 -114 -141 -144 -154 -155 -166 -167 -177 -178 -188 0
-21 -41 -42 -60 -61 -78 -79 -112 -113 -142 -143 -154 -156 -166 -167 -177 -178 -188 0
-22 -41 -43 -60 -61 -78 -79 -112 -113 -142 -143 -154 -156 -166 -167 -177 -178 -188 0
-22 -42 -43 -60 -62 -78 -79 -112 -113 -142 -143 -154 -156 -166 -167 -177 -178 -188 0
-22 -42 -43 -61 -62 -78 -80 -112 -113 -142 -143 -154 -156 -166 -167 -177 -178 -188 0
-22 -42 -43 -61 -62 -79 -80 -112 -114 -142 -143 -154 -156 -166 -167 -177 -178 -188 0
-22 -42 -43 -61 -62 -79 -80 -113 -114 -142 -144 -154 -156 -166 -167 -177 -178 -188 0
-22 -42 -43 -61 -62 -79 -80 -113 -114 -143 -144 -154 -157 -166 -167 -177 -178 -188 0
-21 -41 -42 -60 -61 -78 -79 -112 -113 -142 -143 -155 -156 -166 -168 -177 -178 -188 0
-22 -41 -43 -60 -61 -78 -79 -112 -113 -142 -143 -155 -156 -166 -168 -177 -178 -188 0
-22 -42 -43 -60 -62 -78 -79 -112 -113 -142 -143 -155 -156 -166 -168 -177 -178 -188 0
-22 -42 -43 -61 -62 -78 -80 -112 -113 -142 -143 -155 -156 -166 -168 -177 -178 -188 0
-22 -42 -43 -61 -62 -79 -80 -112 -114 -142 -143 -155 -156 -166 -168 -177 -178 -188 0
-22 -42 -43 -61 -62 -79 -80 -113 -114 -142 -144 -155 -156 -166 -168 -177 -178 -188 0
-22 -42 -43 -61 -62 -79 -80 -113 -114 -143 -144 -155 -157 -166 -168 -177 -178 -188 0
-22 -42 -43 -61 -62 -79 -80 -113 -114 -143 -144 -156 -157 -166 -169 -177 -178 -188 0
-21 -41 -42 -60 -61 -78 -79 -112 -113 -142 -143 -155 -156 -167 -168 -177 -179 -188 0
-22 -41 -43 -60 -61 -78 -79 -112 -113 -142 -143 -155 -156 -167 -168 -177 -179 -188 0
-22 -42 -43 -60 -62 -78 -79 -112 -113 -142 -143 -155 -156 -167 -168 -177 -179 -188 0
-22 -42 -43 -61 -62 -78 -80 -112 -113 -142 -143 -155 -156 -167 -168 -177 -179 -188 0
-22 -42 -43 -61 -62 -79 -80 -112 -114 -142 -143 -155 -156 -167 -168 -177 -179 -188 0
-22 -42 -43 -61 -62 -79 -80 -113 -114 -142 -144 -155 -156 -167 -168 -177 -179 -188 0
-22 -42 -43 -61 -62 -79 -80 -113 -114 -143 -144 -155 -157 -167 -168 -177 -179 -188 0
-22 -42 -43 -61 -62 -79 -80 -113 -114 -143 -144 -156 -157 -167 -169 -177 -179 -188 0
-22 -42 -43 -61 -62 -79 -80 -113 -114 -143 -144 -156 -157 -168 -169 -177 -180 -188 0
-21 -41 -42 -60 -61 -78 -79 -112 -113 -142 -143 -155 -156 -167 -168 -178 -179 -189 0
-22 -41 -43 -60 -61 -78 -79 -112 -113 -142 -143 -155 -156 -167 -168 -178 -179 -189 0
-22 -42 -43 -60 -62 -78 -79 -112 -113 -142 -143 -155 -156 -167 -168 -178 -179 -189 0
-22 -42 -43 -61 -62 -78 -80 -112 -113 -142 -143 -155 -156 -167 -168 -178 -179 -189 0
-22 -42 -43 -61 -62 -79 -80 -112 -114 -142 -143 -155 -156 -167 -168 -178 -179 -189 0
-22 -42 -43 -61 -62 -79 -80 -113 -114 -142 -144 -155 -156 -167 -168 -178 -179 -189 0
-22 -42 -43 -61 -62 -79 -80 -113 -114 -143 -144 -155 -157 -167 -168 -178 -179 -189 0
-22 -42 -43 -61 -62 -79 -80 -113 -114 -143 -144 -156 -157 -167 -169 -178 -179 -189 0
-22 -42 -43 -61 -62 -79 -80 -113 -114 -143 -144 -156 -157 -168 -169 -178 -180 -189 0
-22 -42 -43 -61 -62 -79 -80 -113 -114 -143 -144 -156 -157 -168 -169 -179 -180 -190 0
-21 -41 -42 -60 -61 -78 -79 -112 -113 -142 -143 -155 -156 -167 -168 -178 -179 -199 0
-22 -41 -43 -60 -61 -78 -79 -112 -113 -142 -143 -155 -156 -167 -168 -178 -179 -199 0
-22 -42 -43 -60 -62 -78 -79 -112 -113 -142 -143 -155 -156 -167 -168 -178 -179 -199 0
-22 -42 -43 -61 -62 -78 -80 -112 -113 -142 -143 -155 -156 -167 -168 -178 -179 -199 0
-22 -42 -43 -61 -62 -79 -80 -112 -114 -142 -143 -155 -156 -167 -168 -178 -179 -199 0
-22 -42 -43 -61 -62 -79 -80 -113 -114 -142 -144 -155 -156 -167 -168 -178 -179 -199 0
-22 -42 -43 -61 -62 -79 -80 -113 -114 -143 -144 -155 -157 -167 -168 -178 -179 -199 0
-22 -42 -43 -61 -62 -79 -80 -113 -114 -143 -144 -156 -157 -167 -169 -178 -179 -199 0
-22 -42 -43 -61 -62 -79 -80 -113 -114 -143 -144 -156 -157 -168 -169 -178 -180 -199 0
-22 -42 -43 -61 -62 -79 -80 -113 -114 -143 -144 -156 -157 -168 -169 -179 -180 -200 0
-22 -42 -43 -61 -62 -79 -80 -113 -114 -143 -144 -156 -157 -168 -169 -179 -180 -209 0
-21 -41 -42 -60 -61 -78 -79 -112 -113 -142 -143 -155 -156 -167 -168 -189 -190 -199 0
-22 -41 -43 -60 -61 -78 -79 -112 -113 -142 -143 -155 -156 -167 -168 -189 -190 -199 0
-22 -42 -43 -60 -62 -78 -79 -112 -113 -142 -143 -155 -156 -167 -168 -189 -190 -199 0
-22 -42 -43 -61 -62 -78 -80 -112 -113 -142 -143 -155 -156 -167 -168 -189 -190 -199 0
-22 -42 -43 -61 -62 -79 -80 -112 -114 -142 -143 -155 -156 -167 -168 -189 -190 -199 0
-22 -42 -43 -61 -62 -79 -80 -113 -114 -142 -144 -155 -156 -167 -168 -189 -190 -199 0
-22 -42 -43 -61 -62 -79 -80 -113 -114 -143 -144 -155 -157 -167 -168 -189 -190 -199 0
-22 -42 -43 -61 -62 -79 -80 -113 -114 -143 -144 -156 -157 -167 -169 -189 -190 -199 0
-22 -42 -43 -61 -62 -79 -80 -113 -114 -143 -144 -156 -157 -168 -169 -189 -191 -199 0
-22 -42 -43 -61 -62 -79 -80 -113 -114 -143 -144 -156 -157 -168 -169 -190 -191 -200 0
-22 -42 -43 -61 -62 -79 -80 -113 -114 -143 -144 -156 -157 -168 -169 -190 -191 -209 0
-22 -42 -43 -61 -62 -79 -80 -113 -114 -143 -144 -156 -157 -168 -169 -200 -201 -209 0
-21 -41 -42 -60 -61 -78 -79 -112 -113 -142 -143 -155 -156 -179 -180 -189 -190 -199 0
-22 -41 -43 -60 -61 -78 -79 -112 -113 -142 -143 -155 -156 -179 -180 -189 -190 -199 0
-22 -42 -43 -60 -62 -78 -79 -112 -113 -142 -143 -155 -156 -179 -180 -189 -190 -199 0
-22 -42 -43 -61 -62 -78 -80 -112 -113 -142 -143 -155 -156 -179 -180 -189 -190 -199 0
-22 -42 -43 -61 -62 -79 -80 -112 -114 -142 -143 -155 -156 -179 -180 -189 -190 -199 0
-22 -42 -43 -61 -62 -79 -80 -113 -114 -142 -144 -155 -156 -179 -180 -189 -190 -199 0
-22 -42 -43 -61 -62 -79 -80 -113 -114 -143 -144 -155 -157 -179 -180 -189 -190 -199 0
-22 -42 -43 -61 -62 -79 -80 -113 -114 -143 -144 -156 -157 -179 -181 -189 -190 -199 0
-22 -42 -43 -61 -62 -79 -80 -113 -114 -143 -144 -156 -157 -180 -181 -189 -191 -199 0
-22 -42 -43 -61 -62 -79 -80 -113 -114 -143 -144 -156 -157 -180 -181 -190 -191 -200 0
-22 -42 -43 -61 -62 -79 -80 -113 -114 -143 -144 -156 -157 -180 -181 -190 -191 -209 0
-22 -42 -43 -61 -62 -79 -80 -113 -114 -143 -144 -156 -157 -180 -181 -200 -201 -209 0
-22 -42 -43 -61 -62 -79 -80 -113 -114 -143 -144 -156 -157 -191 -192 -200 -201 -209 0
-21 -41 -42 -60 -61 -78 -79 -112 -113 -142 -143 -168 -169 -179 -180 -189 -190 -199 0
-22 -41 -43 -60 -61 -78 -79 -112 -113 -142 -143 -168 -169 -179 -180 -189 -190 -199 0
-22 -42 -43 -60 -62 -78 -79 -112 -113 -142 -143 -168 -169 -179 -180 -189 -190 -199 0
-22 -42 -43 -61 -62 -78 -80 -112 -113 -142 -143 -168 -169 -179 -180 -189 -190 -199 0
-22 -42 -43 -61 -62 -79 -80 -112 -114 -142 -143 -168 -169 -179 -180 -189 -190 -199 0
-22 -42 -43 -61 -62 -79 -80 -113 -114 -142 -144 -168 -169 -179 -180 -189 -190 -199 0
-22 -42 -43 -61 -62 -79 -80 -113 -114 -143 -144 -168 -170 -179 -180 -189 -190 -199 0
-22 -42 -43 -61 -62 -79 -80 -113 -114 -143 -144 -169 -170 -179 -181 -189 -190 -199 0
-22 -42 -43 -61 -62 -79 -80 -113 -114 -143 -144 -169 -170 -180 -181 -189 -191 -199 0
-22 -42 -43 -61 -62 -79 -80 -113 -114 -143 -144 -169 -170 -180 -181 -190 -191 -200 0
-22 -42 -43 -61 -62 -79 -80 -113 -114 -143 -144 -169 -170 -180 -181 -190 -191 -209 0
-22 -42 -43 -61 -62 -79 -80 -113 -114 -143 -144 -169 -170 -180 -181 -200 -201 -209 0
-22 -42 -43 -61 -62 -79 -80 -113 -114 -143 -144 -169 -170 -191 -192 -200 -201 -209 0
-22 -42 -43 -61 -62 -79 -80 -113 -114 -143 -144 -181 -182 -191 -192 -200 -201 -209 0
-21 -41 -42 -60 -61 -78 -79 -112 -113 -156 -157 -168 -169 -179 -180 -189 -190 -199 0
-22 -41 -43 -60 -61 -78 -79 -112 -113 -156 -157 -168 -169 -179 -180 -189 -190 -199 0
-22 -42 -43 -60 -62 -78 -79 -112 -113 -156 -157 -168 -169 -179 -180 -189 -190 -199 0
-22 -42 -43 -61 -62 -78 -80 -112 -113 -156 -157 -168 -169 -179 -180 -189 -190 -199 0
-22 -42 -43 -61 -62 -79 -80 -112 -114 -156 -157 -168 -169 -179 -180 -189 -190 -199 0
-22 -42 -43 -61 -62 -79 -80 -113 -114 -156 -158 -168 -169 -179 -180 -189 -190 -199 0
-22 -42 -43 -61 -62 -79 -80 -113 -114 -157 -158 -168 -170 -179 -180 -189 -190 -199 0
-22 -42 -43 -61 -62 -79 -80 -113 -114 -157 -158 -169 -170 -179 -181 -189 -190 -199 0
-22 -42 -43 -61 -62 -79 -80 -113 -114 -157 -158 -169 -170 -180 -181 -189 -191 -199 0
-22 -42 -43 -61 -62 -79 -80 -113 -114 -157 -158 -169 -170 -180 -181 -190 -191 -200 0
-22 -42 -43 -61 -62 -79 -80 -113 -114 -157 -158 -169 -170 -180 -181 -190 -191 -209 0
-22 -42 -43 -61 -62 -79 -80 -113 -114 -157 -158 -169 -170 -180 -181 -200 -201 -209 0
-22 -42 -43 -61 -62 -79 -80 -113 -114 -157 -158 -169 -170 -191 -192 -200 -201 -209 0
-22 -42 -43 -61 -62 -79 -80 -113 -114 -157 -158 -181 -182 -191 -192 -200 -201 -209 0
-22 -42 -43 -61 -62 -79 -80 -113 -114 -170 -171 -181 -182 -191 -192 -200 -201 -209 0
-20 -40 -41 -59 -60 -77 -78 -127 -128 -141 -142 -154 -155 -166 -167 -177 -178 -188 0
-21 -40 -42 -59 -60 -77 -78 -127 -128 -141 -142 -154 -155 -166 -167 -177 -178 -188 0
-22 -40 -43 -59 -60 -77 -78 -127 -128 -141 -142 -154 -155 -166 -167 -177 -178 -188 0
-21 -41 -42 -59 -61 -77 -78 -127 -128 -141 -142 -154 -155 -166 -167 -177 -178 -188 0
-22 -41 -43 -59 -61 -77 -78 -127 -128 -141 -142 -154 -155 -166 -167 -177 -178 -188 0
-22 -42 -43 -59 -62 -77 -78 -127 -128 -141 -142 -154 -155 -166 -167 -177 -178 -188 0
-21 -41 -42 -60 -61 -77 -79 -127 -128 -141 -142 -154 -155 -166 -167 -177 -178 -188 0
-22 -41 -43 -60 -61 -77 -79 -127 -128 -141 -142 -154 -155 -166 -167 -177 -178 -188 0
-22 -42 -43 -60 -62 -77 -79 -127 -128 -141 -142 -154 -155 -166 -167 -177 -178 -188 0
-22 -42 -43 -61 -62 -77 -80 -127 -128 -141 -142 -154 -155 -166 -167 -177 -178 -188 0
-21 -41 -42 -60 -61 -78 -79 -127 -129 -141 -142 -154 -155 -166 -167 -177 -178 -188 0
-22 -41 -43 -60 -61 -78 -79 -127 -129 -141 -142 -154 -155 -166 -167 -177 -178 -188 0
-22 -42 -43 -60 -62 -78 -79 -127 -129 -141 -142 -154 -155 -166 -167 -177 -178 -188 0
-22 -42 -43 -61 -62 -78 -80 -127 -129 -141 -142 -154 -155 -166 -167 -177 -178 -188 0
-22 -42 -43 -61 -62 -79 -80 -127 -130 -141 -142 -154 -155 -166 -167 -177 -178 -188 0
-21 -41 -42 -60 -61 -78 -79 -128 -129 -141 -143 -154 -155 -166 -167 -177 -178 -188 0
-22 -41 -43 -60 -61 -78 -79 -128 -129 -141 -143 -154 -155 -166 -167 -177 -178 -188 0
-22 -42 -43 -60 -62 -78 -79 -128 -129 -141 -143 -154 -155 -166 -167 -177 -178 -188 0
-22 -42 -43 -61 -62 -78 -80 -128 -129 -141 -143 -154 -155 -166 -167 -177 -178 -188 0
-22 -42 -43 -61 -62 -79 -80 -128 -130 -141 -143 -154 -155 -166 -167 -177 -178 -188 0
-22 -42 -43 -61 -62 -79 -80 -129 -130 -141 -144 -154 -155 -166 -167 -177 -178 -188 0
-21 -41 -42 -60 -61 -78 -79 -128 -129 -142 -143 -154 -156 -166 -167 -177 -178 -188 0
-22 -41 -43 -60 -61 -78 -79 -128 -129 -142 -143 -154 -156 -166 -167 -177 -178 -188 0
-22 -42 -43 -60 -62 -78 -79 -128 -129 -142 -143 -154 -156 -166 -167 -177 -178 -188 0
-22 -42 -43 -61 -62 -78 -80 -128 -129 -142 -143 -154 -156 -166 -167 -177 -178 -188 0
-22 -42 -43 -61 -62 -79 -80 -128 -130 -142 -143 -154 -156 -166 -167 -177 -178 -188 0
-22 -42 -43 -61 -62 -79 -80 -129 -130 -142 -144 -154 -156 -166 -167 -177 -178 -188 0
-22 -42 -43 -61 -62 -79 -80 -129 -130 -143 -144 -154 -157 -166 -167 -177 -178 -188 0
-21 -41 -42 -60 -61 -78 -79 -128 -129 -142 -143 -155 -156 -166 -168 -177 -178 -188 0
-22 -41 -43 -60 -61 -78 -79 -128 -129 -142 -143 -155 -156 -166 -168 -177 -178 -188 0
-22 -42 -43 -60 -62 -78 -79 -128 -129 -142 -143 -155 -156 -166 -168 -177 -178 -188 0
-22 -42 -43 -61 -62 -78 -80 -128 -129 -142 -143 -155 -156 -166 -168 -177 -178 -188 0
-22 -42 -43 -61 -62 -79 -80 -128 -130 -142 -143 -155 -156 -166 -168 -177 -178 -188 0
-22 -42 -43 -61 -62 -79 -80 -129 -130 -142 -144 -155 -156 -166 -168 -177 -178 -188 0
-22 -42 -43 -61 -62 -79 -80 -129 -130 -143 -144 -155 -157 -166 -168 -177 -178 -188 0
-22 -42 -43 -61 -62 -79 -80 -129 -130 -143 -144 -156 -157 -166 -169 -177 -178 -188 0
-21 -41 -42 -60 -61 -78 -79 -128 -129 -142 -143 -155 -156 -167 -168 -177 -179 -188 0
-22 -41 -43 -60 -61 -78 -79 -128 -129 -142 -143 -155 -156 -167 -168 -177 -179 -188 0
-22 -42 -43 -60 -62 -78 -79 -128 -129 -142 -143 -155 -156 -167 -168 -177 -179 -188 0
-22 -42 -43 -61 -62 -78 -80 -128 -129 -142 -143 -155 -156 -167 -168 -177 -179 -188 0
-22 -42 -43 -61 -62 -79 -80 -128 -130 -142 -143 -155 -156 -167 -168 -177 -179 -188 0
-22 -42 -43 -61 -62 -79 -80 -129 -130 -142 -144 -155 -156 -167 -168 -177 -179 -188 0
-22 -42 -43 -61 -62 -79 -80 -129 -130 -143 -144 -155 -157 -167 -168 -177 -179 -188 0
-22 -42 -43 -61 -62 -79 -80 -129 -130 -143 -144 -156 -157 -167 -169 -177 -179 -188 0
-22 -42 -43 -61 -62 -79 -80 -129 -130 -143 -144 -156 -157 -168 -169 -177 -180 -188 0
-21 -41 -42 -60 -61 -78 -79 -128 -129 -142 -143 -155 -156 -167 -168 -178 -179 -189 0
-22 -41 -43 -60 -61 -78 -79 -128 -129 -142 -143 -155 -156 -167 -168 -178 -179 -189 0
-22 -42 -43 -60 -62 -78 -79 -128 -129 -142 -143 -155 -156 -167 -168 -178 -179 -189 0
-22 -42 -43 -61 -62 -78 -80 -128 -129 -142 -143 -155 -156 -167 -168 -178 -179 -189 0
-22 -42 -43 -61 -62 -79 -80 -128 -130 -142 -143 -155 -156 -167 -168 -178 -179 -189 0
-22 -42 -43 -61 -62 -79 -80 -129 -130 -142 -144 -155 -156 -167 -168 -178 -179 -189 0
-22 -42 -43 -61 -62 -79 -80 -129 -130 -143 -144 -155 -157 -167 -168 -178 -179 -189 0
-22 -42 -43 -61 -62 -79 -80 -129 -130 -143 -144 -156 -157 -167 -169 -178 -179 -189 0
-22 -42 -43 -61 -62 -79 -80 -129 -130 -143 -144 -156 -157 -168 -169 -178 -180 -189 0
-22 -42 -43 -61 -62 -79 -80 -129 -130 -143 -144 -156 -157 -168 -169 -179 -180 -190 0
-21 -41 -42 -60 -61 -78 -79 -128 -129 -142 -143 -155 -156 -167 -168 -178 -179 -199 0
-22 -41 -43 -60 -61 -78 -79 -128 -129 -142 -143 -155 -156 -167 -168 -178 -179 -199 0
-22 -42 -43 -60 -62 -78 -79 -128 -129 -142 -143 -155 -156 -167 -168 -178 -179 -199 0
-22 -42 -43 -61 -62 -78 -80 -128 -129 -142 -143 -155 -156 -167 -168 -178 -179 -199 0
-22 -42 -43 -61 -62 -79 -80 -128 -130 -142 -143 -155 -156 -167 -168 -178 -179 -199 0
-22 -42 -43 -61 -62 -79 -80 -129 -130 -142 -144 -155 -156 -167 -168 -178 -179 -199 0
-22 -42 -43 -61 -62 -79 -80 -129 -130 -143 -144 -155 -157 -167 -168 -178 -179 -199 0
-22 -42 -43 -61 -62 -79 -80 -129 -130 -143 -144 -156 -157 -167 -169 -178 -179 -199 0
-22 -42 -43 -61 -62 -79 -80 -129 -130 -143 -144 -156 -157 -168 -169 -178 -180 -199 0
-22 -42 -43 -61 -62 -79 -80 -129 -130 -143 -144 -156 -157 -168 -169 -179 -180 -200 0
-22 -42 -43 -61 -62 -79 -80 -129 -130 -143 -144 -156 -157 -168 -169 -179 -180 -209 0
-21 -41 -42 -60 -61 -78 -79 -128 -129 -142 -143 -155 -156 -167 -168 -189 -190 -199 0
-22 -41 -43 -60 -61 -78 -79 -128 -129 -142 -143 -155 -156 -167 -168 -189 -190 -199 0
-22 -42 -43 -60 -62 -78 -79 -128 -129 -142 -143 -155 -156 -167 -168 -189 -190 -199 0
-22 -42 -43 -61 -62 -78 -80 -128 -129 -142 -143 -155 -156 -167 -168 -189 -190 -199 0
-22 -42 -43 -61 -62 -79 -80 -128 -130 -142 -143 -155 -156 -167 -168 -189 -190 -199 0
-22 -42 -43 -61 -62 -79 -80 -129 -130 -142 -144 -155 -156 -167 -168 -189 -190 -199 0
-22 -42 -43 -61 -62 -79 -80 -129 -130 -143 -144 -155 -157 -167 -168 -189 -190 -199 0
-22 -42 -43 -61 -62 -79 -80 -129 -130 -143 -144 -156 -157 -167 -169 -189 -190 -199 0
-22 -42 -43 -61 -62 -79 -80 -129 -130 -143 -144 -156 -157 -168 -169 -189 -191 -199 0
-22 -42 -43 -61 -62 -79 -80 -129 -130 -143 -144 -156 -157 -168 -169 -190 -191 -200 0
-22 -42 -43 -61 -62 -79 -80 -129 -130 -143 -144 -156 -157 -168 -169 -190 -191 -209 0
-22 -42 -43 -61 -62 -79 -80 -129 -130 -143 -144 -156 -157 -168 -169 -200 -201 -209 0
-21 -41 -42 -60 -61 -78 -79 -128 -129 -142 -143 -155 -156 -179 -180 -189 -190 -199 0
-22 -41 -43 -60 -61 -78 -79 -128 -129 -142 -143 -155 -156 -179 -180 -189 -190 -199 0
-22 -42 -43 -60 -62 -78 -79 -128 -129 -142 -143 -155 -156 -179 -180 -189 -190 -199 0
-22 -42 -43 -61 -62 -78 -80 -128 -129 -142 -143 -155 -156 -179 -180 -189 -190 -199 0
-22 -42 -43 -61 -62 -79 -80 -128 -130 -142 -143 -155 -156 -179 -180 -189 -190 -199 0
-22 -42 -43 -61 -62 -79 -80 -129 -130 -142 -144 -155 -156 -179 -180 -189 -190 -199 0
-22 -42 -43 -61 -62 -79 -80 -129 -130 -143 -144 -155 -157 -179 -180 -189 -190 -199 0
-22 -42 -43 -61 -62 -79 -80 -129 -130 -143 -144 -156 -157 -179 -181 -189 -190 -199 0
-22 -42 -43 -61 -62 -79 -80 -129 -130 -143 -144 -156 -157 -180 -181 -189 -191 -199 0
-22 -42 -43 -61 -62 -79 -80 -129 -130 -143 -144 -156 -157 -180 -181 -190 -191 -200 0
-22 -42 -43 -61 -62 -79 -80 -129 -130 -143 -144 -156 -157 -180 -181 -190 -191 -209 0
-22 -42 -43 -61 -62 -79 -80 -129 -130 -143 -144 -156 -157 -180 -181 -200 -201 -209 0
-22 -42 -43 -61 -62 -79 -80 -129 -130 -143 -144 -156 -157 -191 -192 -200 -201 -209 0
-21 -41 -42 -60 -61 -78 -79 -128 -129 -142 -143 -168 -169 -179 -180 -189 -190 -199 0
-22 -41 -43 -60 -61 -78 -79 -128 -129 -142 -143 -168 -169 -179 -180 -189 -190 -199 0
-22 -42 -43 -60 -62 -78 -79 -128 -129 -142 -143 -168 -169 -179 -180 -189 -190 -199 0
-22 -42 -43 -61 -62 -78 -80 -128 -129 -142 -143 -168 -169 -179 -180 -189 -190 -199 0
-22 -42 -43 -61 -62 -79 -80 -128 -130 -142 -143 -168 -169 -179 -180 -189 -190 -199 0
-22 -42 -43 -61 -62 -79 -80 -129 -130 -142 -144 -168 -169 -179 -180 -189 -190 -199 0
-22 -42 -43 -61 -62 -79 -80 -129 -130 -143 -144 -168 -170 -179 -180 -189 -190 -199 0
-22 -42 -43 -61 -62 -79 -80 -129 -130 -143 -144 -169 -170 -179 -181 -189 -190 -199 0
-22 -42 -43 -61 -62 -79 -80 -129 -130 -143 -144 -169 -170 -180 -181 -189 -191 -199 0
-22 -42 -43 -61 -62 -79 -80 -129 -130 -143 -144 -169 -170 -180 -181 -190 -191 -200 0
-22 -42 -43 -61 -62 -79 -80 -129 -130 -143 -144 -169 -170 -180 -181 -190 -191 -209 0
-22 -42 -43 -61 -62 -79 -80 -129 -130 -143 -144 -169 -170 -180 -181 -200 -201 -209 0
-22 -42 -43 -61 -62 -79 -80 -129 -130 -143 -144 -169 -170 -191 -192 -200 -201 -209 0
-22 -42 -43 -61 -62 -79 -80 -129 -130 -143 -144 -181 -182 -191 -192 -200 -201 -209 0
-21 -41 -42 -60 -61 -78 -79 -128 -129 -156 -157 -168 -169 -179 -180 -189 -190 -199 0
-22 -41 -43 -60 -61 -78 -79 -128 -129 -156 -157 -168 -169 -179 -180 -189 -190 -199 0
-22 -42 -43 -60 -62 -78 -79 -128 -129 -156 -157 -168 -169 -179 -180 -189 -190 -199 0
-22 -42 -43 -61 -62 -78 -80 -128 -129 -156 -157 -168 -169 -179 -180 -189 -190 -199 0
-22 -42 -43 -61 -62 -79 -80 -128 -130 -156 -157 -168 -169 -179 -180 -189 -190 -199 0
-22 -42 -43 -61 -62 -79 -80 -129 -130 -156 -158 -168 -169 -179 -180 -189 -190 -199 0
-22 -42 -43 -61 -62 -79 -80 -129 -130 -157 -158 -168 -170 -179 -180 -189 -190 -199 0
-22 -42 -43 -61 -62 -79 -80 -129 -130 -157 -158 -169 -170 -179 -181 -189 -190 -199 0
-22 -42 -43 -61 -62 -79 -80 -129 -130 -157 -158 -169 -170 -180 -181 -189 -191 -199 0
-22 -42 -43 -61 -62 -79 -80 -129 -130 -157 -158 -169 -170 -180 -181 -190 -191 -200 0
-22 -42 -43 -61 -62 -79 -80 -129 -130 -157 -158 -169 -170 -180 -181 -190 -191 -209 0
-22 -42 -43 -61 -62 -79 -80 -129 -130 -157 -158 -169 -170 -180 -181 -200 -201 -209 0
-22 -42 -43 -61 -62 -79 -80 -129 -130 -157 -158 -169 -170 -191 -192 -200 -201 -209 0
-22 -42 -43 -61 -62 -79 -80 -129 -130 -157 -158 -181 -182 -191 -192 -200 -201 -209 0
-22 -42 -43 -61 -62 -79 -80 -129 -130 -170 -171 -181 -182 -191 -192 -200 -201 -209 0
-21 -41 -42 -60 -61 -78 -79 -143 -144 -156 -157 -168 -169 -179 -180 -189 -190 -199 0
-22 -41 -43 -60 -61 -78 -79 -143 -144 -156 -157 -168 -169 -179 -180 -189 -190 -199 0
-22 -42 -43 -60 -62 -78 -79 -143 -144 -156 -157 -168 -169 -179 -180 -189 -190 -199 0
-22 -42 -43 -61 -62 -78 -80 -143 -144 -156 -157 -168 -169 -179 -180 -189 -190 -199 0
-22 -42 -43 -61 -62 -79 -80 -143 -145 -156 -157 -168 -169 -179 -180 -189 -190 -199 0
-22 -42 -43 -61 -62 -79 -80 -144 -145 -156 -158 -168 -169 -179 -180 -189 -190 -199 0
-22 -42 -43 -61 -62 -79 -80 -144 -145 -157 -158 -168 -170 -179 -180 -189 -190 -199 0
-22 -42 -43 -61 -62 -79 -80 -144 -145 -157 -158 -169 -170 -179 -181 -189 -190 -199 0
-22 -42 -43 -61 -62 -79 -80 -144 -145 -157 -158 -169 -170 -180 -181 -189 -191 -199 0
-22 -42 -43 -61 -62 -79 -80 -144 -145 -157 -158 -169 -170 -180 -181 -190 -191 -200 0
-22 -42 -43 -61 -62 -79 -80 -144 -145 -157 -158 -169 -170 -180 -181 -190 -191 -209 0
-22 -42 -43 -61 -62 -79 -80 -144 -145 -157 -158 -169 -170 -180 -181 -200 -201 -209 0
-22 -42 -43 -61 -62 -79 -80 -144 -145 -157 -158 -169 -170 -191 -192 -200 -201 -209 0
-22 -42 -43 -61 -62 -79 -80 -144 -145 -157 -158 -181 -182 -191 -192 -200 -201 -209 0
-22 -42 -43 -61 -62 -79 -80 -144 -145 -170 -171 -181 -182 -191 -192 -200 -201 -209 0
-22 -42 -43 -61 -62 -79 -80 -158 -159 -170 -171 -181 -182 -191 -192 -200 -201 -209 0
-19 -39 -40 -58 -59 -94 -95 -110 -111 -125 -126 -139 -140 -152 -153 -164 -165 -176 0
-20 -39 -41 -58 -59 -94 -95 -110 -111 -125 -126 -139 -140 -152 -153 -164 -165 -176 0
-21 -39 -42 -58 -59 -94 -95 -110 -111 -125 -126 -139 -140 -152 -153 -164 -165 -176 0
-22 -39 -43 -58 -59 -94 -95 -110 -111 -125 -126 -139 -140 -152 -153 -164 -165 -176 0
-20 -40 -41 -58 -60 -94 -95 -110 -111 -125 -126 -139 -140 -152 -153 -164 -165 -176 0
-21 -40 -42 -58 -60 -94 -95 -110 -111 -125 -126 -139 -140 -152 -153 -164 -165 -176 0
-22 -40 -43 -58 -60 -94 -95 -110 -111 -125 -126 -139 -140 -152 -153 -164 -165 -176 0
-21 -41 -42 -58 -61 -94 -95 -110 -111 -125 -126 -139 -140 -152 -153 -164 -165 -176 0
-22 -41 -43 -58 -61 -94 -95 -110 -111 -125 -126 -139 -140 -152 -153 -164 -165 -176 0
-22 -42 -43 -58 -62 -94 -95 -110 -111 -125 -126 -139 -140 -152 -153 -164 -165 -176 0
-20 -40 -41 -59 -60 -94 -96 -110 -111 -125 -126 -139 -140 -152 -153 -164 -165 -176 0
-21 -40 -42 -59 -60 -94 -96 -110 -111 -125 -126 -139 -140 -152 -153 -164 -165 -176 0
-22 -40 -43 -59 -60 -94 -96 -110 -111 -125 -126 -139 -140 -152 -153 -164 -165 -176 0
-21 -41 -42 -59 -61 -94 -96 -110 -111 -125 -126 -139 -140 -152 -153 -164 -165 -176 0
-22 -41 -43 -59 -61 -94 -96 -110 -111 -125 -126 -139 -140 -152 -153 -164 -165 -176 0
-22 -42 -43 -59 -62 -94 -96 -110 -111 -125 -126 -139 -140 -152 -153 -164 -165 -176 0
-21 -41 -42 -60 -61 -94 -97 -110 -111 -125 -126 -139 -140 -152 -153 -164 -165 -176 0
-22 -41 -43 -60 -61 -94 -97 -110 -111 -125 -126 -139 -140 -152 -153 -164 -165 -176 0
-22 -42 -43 -60 -62 -94 -97 -110 -111 -125 -126 -139 -140 -152 -153 -164 -165 -176 0
-22 -42 -43 -61 -62 -94 -98 -110 -111 -125 -126 -139 -140 -152 -153 -164 -165 -176 0
-20 -40 -41 -59 -60 -95 -96 -110 -112 -125 -126 -139 -140 -152 -153 -164 -165 -176 0
-21 -40 -42 -59 -60 -95 -96 -110 -112 -125 -126 -139 -140 -152 -153 -164 -165 -176 0
-22 -40 -43 -59 -60 -95 -96 -110 -112 -125 -126 -139 -140 -152 -153 -164 -165 -176 0
-21 -41 -42 -59 -61 -95 -96 -110 -112 -125 -126 -139 -140 -152 -153 -164 -165 -176 0
-22 -41 -43 -59 -61 -95 -96 -110 -112 -125 -126 -139 -140 -152 -153 -164 -165 -176 0
-22 -42 -43 -59 -62 -95 -96 -110 -112 -125 -126 -139 -140 -152 -153 -164 -165 -176 0
-21 -41 -42 -60 -61 -95 -97 -110 -112 -125 -126 -139 -140 -152 -153 -164 -165 -176 0
-22 -41 -43 -60 -61 -95 -97 -110 -112 -125 -126 -139 -140 -152 -153 -164 -165 -176 0
-22 -42 -43 -60 -62 -95 -97 -110 -112 -125 -126 -139 -140 -152 -153 -164 -165 -176 0
-22 -42 -43 -61 -62 -95 -98 -110 -112 -125 -126 -139 -140 -152 -153 -164 -165 -176 0
-21 -41 -42 -60 -61 -96 -97 -110 -113 -125 -126 -139 -140 -152 -153 -164 -165 -176 0
-22 -41 -43 -60 -61 -96 -97 -110 -113 -125 -126 -139 -140 -152 -153 -164 -165 -176 0
-22 -42 -43 -60 -62 -96 -97 -110 -113 -125 -126 -139 -140 -152 -153 -164 -165 -176 0
-22 -42 -43 -61 -62 -96 -98 -110 -113 -125 -126 -139 -140 -152 -153 -164 -165 -176 0
-22 -42 -43 -61 -62 -97 -98 -110 -114 -125 -126 -139 -140 -152 -153 -164 -165 -176 0
-20 -40 -41 -59 -60 -95 -96 -111 -112 -125 -127 -139 -140 -152 -153 -164 -165 -176 0
-21 -40 -42 -59 -60 -95 -96 -111 -112 -125 -127 -139 -140 -152 -153 -164 -165 -176 0
-22 -40 -43 -59 -60 -95 -96 -111 -112 -125 -127 -139 -140 -152 -153 -164 -165 -176 0
-21 -41 -42 -59 -61 -95 -96 -111 -112 -125 -127 -139 -140 -152 -153 -164 -165 -176 0
-22 -41 -43 -59 -61 -95 -96 -111 -112 -125 -127 -139 -140 -152 -153 -164 -165 -176 0
-22 -42 -43 -59 -62 -95 -96 -111 -112 -125 -127 -139 -140 -152 -153 -164 -165 -176 0
-21 -41 -42 -60 -61 -95 -97 -111 -112 -125 -127 -139 -140 -152 -153 -164 -165 -176 0
-22 -41 -43 -60 -61 -95 -97 -111 -112 -125 -127 -139 -140 -152 -153 -164 -165 -176 0
-22 -42 -43 -60 -62 -95 -97 -111 -112 -125 -127 -139 -140 -152 -153 -164 -165 -176 0
-22 -42 -43 -61 -62 -95 -98 -111 -112 -125 -127 -139 -140 -152 -153 -164 -165 -176 0
-21 -41 -42 -60 -61 -96 -97 -111 -113 -125 -127 -139 -140 -152 -153 -164 -165 -176 0
-22 -41 -43 -60 -61 -96 -97 -111 -113 -125 -127 -139 -140 -152 -153 -164 -165 -176 0
-22 -42 -43 -60 -62 -96 -97 -111 -113 -125 -127 -139 -140 -152 -153 -164 -165 -176 0
-22 -42 -43 -61 -62 -96 -98 -111 -113 -125 -127 -139 -140 -152 -153 -164 -165 -176 0
-22 -42 -43 -61 -62 -97 -98 -111 -114 -125 -127 -139 -140 -152 -153 -164 -165 -176 0
-21 -41 -42 -60 -61 -96 -97 -112 -113 -125 -128 -139 -140 -152 -153 -164 -165 -176 0
-22 -41 -43 -60 -61 -96 -97 -112 -113 -125 -128 -139 -140 -152 -153 -164 -165 -176 0
-22 -42 -43 -60 -62 -96 -97 -112 -113 -125 -128 -139 -140 -152 -153 -164 -165 -176 0
-22 -42 -43 -61 -62 -96 -98 -112 -113 -125 -128 -139 -140 -152 -153 -164 -165 -176 0
-22 -42 -43 -61 -62 -97 -98 -112 -114 -125 -128 -139 -140 -152 -153 -164 -165 -176 0
-22 -42 -43 -61 -62 -97 -98 -113 -114 -125 -129 -139 -140 -152 -153 -164 -165 -176 0
-20 -40 -41 -59 -60 -95 -96 -111 -112 -126 -127 -139 -141 -152 -153 -164 -165 -176 0
-21 -40 -42 -59 -60 -95 -96 -111 -112 -126 -127 -139 -141 -152 -153 -164 -165 -176 0
-22 -40 -43 -59 -60 -95 -96 -111 -112 -126 -127 -139 -141 -152 -153 -164 -165 -176 0
-21 -41 -42 -59 -61 -95 -96 -111 -112 -126 -127 -139 -141 -152 -153 -164 -165 -176 0
-22 -41 -43 -59 -61 -95 -96 -111 -112 -126 -127 -139 -141 -152 -153 -164 -165 -176 0
-22 -42 -43 -59 -62 -95 -96 -111 -112 -126 -127 -139 -141 -152 -153 -164 -165 -176 0
-21 -41 -42 -60 -61 -95 -97 -111 -112 -126 -127 -139 -141 -152 -153 -164 -165 -176 0
-22 -41 -43 -60 -61 -95 -97 -111 -112 -126 -127 -139 -141 -152 -153 -164 -165 -176 0
-22 -42 -43 -60 -62 -95 -97 -111 -112 -126 -127 -139 -141 -152 -153 -164 -165 -176 0
-22 -42 -43 -61 -62 -95 -98 -111 -112 -126 -127 -139 -141 -152 -153 -164 -165 -176 0
-21 -41 -42 -60 -61 -96 -97 -111 -113 -126 -127 -139 -141 -152 -153 -164 -165 -176 0
-22 -41 -43 -60 -61 -96 -97 -111 -113 -126 -127 -139 -141 -152 -153 -164 -165 -176 0
-22 -42 -43 -60 -62 -96 -97 -111 -113 -126 -127 -139 -141 -152 -153 -164 -165 -176 0
-22 -42 -43 -61 -62 -96 -98 -111 -113 -126 -127 -139 -141 -152 -153 -164 -165 -176 0
-22 -42 -43 -61 -62 -97 -98 -111 -114 -126 -127 -139 -141 -152 -153 -164 -165 -176 0
-21 -41 -42 -60 -61 -96 -97 -112 -113 -126 -128 -139 -141 -152 -153 -164 -165 -176 0
-22 -41 -43 -60 -61 -96 -97 -112 -113 -126 -128 -139 -141 -152 -153 -164 -165 -176 0
-22 -42 -43 -60 -62 -96 -97 -112 -113 -126 -128 -139 -141 -152 -153 -164 -165 -176 0
-22 -42 -43 -61 -62 -96 -98 -112 -113 -126 -128 -139 -141 -152 -153 -164 -165 -176 0
-22 -42 -43 -61 -62 -97 -98 -112 -114 -126 -128 -139 -141 -152 -153 -164 -165 -176 0
-22 -42 -43 -61 -62 -97 -98 -113 -114 -126 -129 -139 -141 -152 -153 -164 -165 -176 0
-21 -41 -42 -60 -61 -96 -97 -112 -113 -127 -128 -139 -142 -152 -153 -164 -165 -176 0
-22 -41 -43 -60 -61 -96 -97 -112 -113 -127 -128 -139 -142 -152 -153 -164 -165 -176 0
-22 -42 -43 -60 -62 -96 -97 -112 -113 -127 -128 -139 -142 -152 -153 -164 -165 -176 0
-22 -42 -43 -61 -62 -96 -98 -112 -113 -127 -128 -139 -142 -152 -153 -164 -165 -176 0
-22 -42 -43 -61 -62 -97 -98 -112 -114 -127 -128 -139 -142 -152 -153 -164 -165 -176 0
-22 -42 -43 -61 -62 -97 -98 -113 -114 -127 -129 -139 -142 -152 -153 -164 -165 -176 0
-22 -42 -43 -61 -62 -97 -98 -113 -114 -128 -129 -139 -143 -152 -153 -164 -165 -176 0
-20 -40 -41 -59 -60 -95 -96 -111 -112 -126 -127 -140 -141 -152 -154 -164 -165 -176 0
-21 -40 -42 -59 -60 -95 -96 -111 -112 -126 -127 -140 -141 -152 -154 -164 -165 -176 0
-22 -40 -43 -59 -60 -95 -96 -111 -112 -126 -127 -140 -141 -152 -154 -164 -165 -176 0
-21 -41 -42 -59 -61 -95 -96 -111 -112 -126 -127 -140 -141 -152 -154 -164 -165 -176 0
-22 -41 -43 -59 -61 -95 -96 -111 -112 -126 -127 -140 -141 -152 -154 -164 -165 -176 0
-22 -42 -43 -59 -62 -95 -96 -111 -112 -126 -127 -140 -141 -152 -154 -164 -165 -176 0
-21 -41 -42 -60 -61 -95 -97 -111 -112 -126 -127 -140 -141 -152 -154 -164 -165 -176 0
-22 -41 -43 -60 -61 -95 -97 -111 -112 -126 -127 -140 -141 -152 -154 -164 -165 -176 0
-22 -42 -43 -60 -62 -95 -97 -111 -112 -126 -127 -140 -141 -152 -154 -164 -165 -176 0
-22 -42 -43 -61 -62 -95 -98 -111 -112 -126 -127 -140 -141 -152 -154 -164 -165 -176 0
-21 -41 -42 -60 -61 -96 -97 -111 -113 -126 -127 -140 -141 -152 -154 -164 -165 -176 0
-22 -41 -43 -60 -61 -96 -97 -111 -113 -126 -127 -140 -141 -152 -154 -164 -165 -176 0
-22 -42 -43 -60 -62 -96 -97 -111 -113 -126 -127 -140 -141 -152 -154 -164 -165 -176 0
-22 -42 -43 -61 -62 -96 -98 -111 -113 -126 -127 -140 -141 -152 -154 -164 -165 -176 0
-22 -42 -43 -61 -62 -97 -98 -111 -114 -126 -127 -140 -141 -152 -154 -164 -165 -176 0
-21 -41 -42 -60 -61 -96 -97 -112 -113 -126 -128 -140 -141 -152 -154 -164 -165 -176 0
-22 -41 -43 -60 -61 -96 -97 -112 -113 -126 -128 -140 -141 -152 -154 -164 -165 -176 0
-22 -42 -43 -60 -62 -96 -97 -112 -113 -126 -128 -140 -141 -152 -154 -164 -165 -176 0
-22 -42 -43 -61 -62 -96 -98 -112 -113 -126 -128 -140 -141 -152 -154 -164 -165 -176 0
-22 -42 -43 -61 -62 -97 -98 -112 -114 -126 -128 -140 -141 -152 -154 -164 -165 -176 0
-22 -42 -43 -61 -62 -97 -98 -113 -114 -126 -129 -140 -141 -152 -154 -164 -165 -176 0
-21 -41 -42 -60 -61 -96 -97 -112 -113 -127 -128 -140 -142 -152 -154 -164 -165 -176 0
-22 -41 -43 -60 -61 -96 -97 -112 -113 -127 -128 -140 -142 -152 -154 -164 -165 -176 0
-22 -42 -43 -60 -62 -96 -97 -112 -113 -127 -128 -140 -142 -152 -154 -164 -165 -176 0
-22 -42 -43 -61 -62 -96 -98 -112 -113 -127 -128 -140 -142 -152 -154 -164 -165 -176 0
-22 -42 -43 -61 -62 -97 -98 -112 -114 -127 -128 -140 -142 -152 -154 -164 -165 -176 0
-22 -42 -43 -61 -62 -97 -98 -113 -114 -127 -129 -140 -142 -152 -154 -164 -165 -176 0
-22 -42 -43 -61 -62 -97 -98 -113 -114 -128 -129 -140 -143 -152 -154 -164 -165 -176 0
-21 -41 -42 -60 -61 -96 -97 -112 -113 -127 -128 -141 -142 -152 -155 -164 -165 -176 0
-22 -41 -43 -60 -61 -96 -97 -112 -113 -127 -128 -141 -142 -152 -155 -164 -165 -176 0
-22 -42 -43 -60 -62 -96 -97 -112 -113 -127 -128 -141 -142 -152 -155 -164 -165 -176 0
-22 -42 -43 -61 -62 -96 -98 -112 -113 -127 -128 -141 -142 -152 -155 -164 -165 -176 0
-22 -42 -43 -61 -62 -97 -98 -112 -114 -127 -128 -141 -142 -152 -155 -164 -165 -176 0
-22 -42 -43 -61 -62 -97 -98 -113 -114 -127 -129 -141 -142 -152 -155 -164 -165 -176 0
-22 -42 -43 -61 -62 -97 -98 -113 -114 -128 -129 -141 -143 -152 -155 -164 -165 -176 0
-22 -42 -43 -61 -62 -97 -98 -113 -114 -128 -129 -142 -143 -152 -156 -164 -165 -176 0
-20 -40 -41 -59 -60 -95 -96 -111 -112 -126 -127 -140 -141 -153 -154 -164 -166 -176 0
-21 -40 -42 -59 -60 -95 -96 -111 -112 -126 -127 -140 -141 -153 -154 -164 -166 -176 0
-22 -40 -43 -59 -60 -95 -96 -111 -112 -126 -127 -140 -141 -153 -154 -164 -166 -176 0
-21 -41 -42 -59 -61 -95 -96 -111 -112 -126 -127 -140 -141 -153 -154 -164 -166 -176 0
-22 -41 -43 -59 -61 -95 -96 -111 -112 -126 -127 -140 -141 -153 -154 -164 -166 -176 0
-22 -42 -43 -59 -62 -95 -96 -111 -112 -126 -127 -140 -141 -153 -154 -164 -166 -176 0
-21 -41 -42 -60 -61 -95 -97 -111 -112 -126 -127 -140 -141 -153 -154 -164 -166 -176 0
-22 -41 -43 -60 -61 -95 -97 -111 -112 -126 -127 -140 -141 -153 -154 -164 -166 -176 0
-22 -42 -43 -60 -62 -95 -97 -111 -112 -126 -127 -140 -141 -153 -154 -164 -166 -176 0
-22 -42 -43 -61 -62 -95 -98 -111 -112 -126 -127 -140 -141 -153 -154 -164 -166 -176 0
-21 -41 -42 -60 -61 -96 -97 -111 -113 -126 -127 -140 -141 -153 -154 -164 -166 -176 0
-22 -41 -43 -60 -61 -96 -97 -111 -113 -126 -127 -140 -141 -153 -154 -164 -166 -176 0
-22 -42 -43 -60 -62 -96 -97 -111 -113 -126 -127 -140 -141 -153 -154 -164 -166 -176 0
-22 -42 -43 -61 -62 -96 -98 -111 -113 -126 -127 -140 -141 -153 -154 -164 -166 -176 0
-22 -42 -43 -61 -62 -97 -98 -111 -114 -126 -127 -140 -141 -153 -154 -164 -166 -176 0
-21 -41 -42 -60 -61 -96 -97 -112 -113 -126 -128 -140 -141 -153 -154 -164 -166 -176 0
-22 -41 -43 -60 -61 -96 -97 -112 -113 -126 -128 -140 -141 -153 -154 -164 -166 -176 0
-22 -42 -43 -60 -62 -96 -97 -112 -113 -126 -128 -140 -141 -153 -154 -164 -166 -176 0
-22 -42 -43 -61 -62 -96 -98 -112 -113 -126 -128 -140 -141 -153 -154 -164 -166 -176 0
-22 -42 -43 -61 -62 -97 -98 -112 -114 -126 -128 -140 -141 -153 -154 -164 -166 -176 0
-22 -42 -43 -61 -62 -97 -98 -113 -114 -126 -129 -140 -141 -153 -154 -164 -166 -176 0
-21 -41 -42 -60 -61 -96 -97 -112 -113 -127 -128 -140 -142 -153 -154 -164 -166 -176 0
-22 -41 -43 -60 -61 -96 -97 -112 -113 -127 -128 -140 -142 -153 -154 -164 -166 -176 0
-22 -42 -43 -60 -62 -96 -97 -112 -113 -127 -128 -140 -142 -153 -154 -164 -166 -176 0
-22 -42 -43 -61 -62 -96 -98 -112 -113 -127 -128 -140 -142 -153 -154 -164 -166 -176 0
-22 -42 -43 -61 -62 -97 -98 -112 -114 -127 -128 -140 -142 -153 -154 -164 -166 -176 0
-22 -42 -43 -61 -62 -97 -98 -113 -114 -127 -129 -140 -142 -153 -154 -164 -166 -176 0
-22 -42 -43 -61 -62 -97 -98 -113 -114 -128 -129 -140 -143 -153 -154 -164 -166 -176 0
-21 -41 -42 -60 -61 -96 -97 -112 -113 -127 -128 -141 -142 -153 -155 -164 -166 -176 0
-22 -41 -43 -60 -61 -96 -97 -112 -113 -127 -128 -141 -142 -153 -155 -164 -166 -176 0
-22 -42 -43 -60 -62 -96 -97 -112 -113 -127 -128 -141 -142 -153 -155 -164 -166 -176 0
-22 -42 -43 -61 -62 -96 -98 -112 -113 -127 -128 -141 -142 -153 -155 -164 -166 -176 0
-22 -42 -43 -61 -62 -97 -98 -112 -114 -127 -128 -141 -142 -153 -155 -164 -166 -176 0
-22 -42 -43 -61 -62 -97 -98 -113 -114 -127 -129 -141 -142 -153 -155 -164 -166 -176 0
-22 -42 -43 -61 -62 -97 -98 -113 -114 -128 -129 -141 -143 -153 -155 -164 -166 -176 0
-22 -42 -43 -61 -62 -97 -98 -113 -114 -128 -129 -142 -143 -153 -156 -164 -166 -176 0
-21 -41 -42 -60 -61 -96 -97 -112 -113 -127 -128 -141 -142 -154 -155 -164 -167 -176 0
-22 -41 -43 -60 -61 -96 -97 -112 -113 -127 -128 -141 -142 -154 -155 -164 -167 -176 0
-22 -42 -43 -60 -62 -96 -97 -112 -113 -127 -128 -141 -142 -154 -155 -164 -167 -176 0
-22 -42 -43 -61 -62 -96 -98 -112 -113 -127 -128 -141 -142 -154 -155 -164 -167 -176 0
-22 -42 -43 -61 -62 -97 -98 -112 -114 -127 -128 -141 -142 -154 -155 -164 -167 -176 0
-22 -42 -43 -61 -62 -97 -98 -113 -114 -127 -129 -141 -142 -154 -155 -164 -167 -176 0
-22 -42 -43 -61 -62 -97 -98 -113 -114 -128 -129 -141 -143 -154 -155 -164 -167 -176 0
-22 -42 -43 -61 -62 -97 -98 -113 -114 -128 -129 -142 -143 -154 -156 -164 -167 -176 0
-22 -42 -43 -61 -62 -97 -98 -113 -114 -128 -129 -142 -143 -155 -156 -164 -168 -176 0
-20 -40 -41 -59 -60 -95 -96 -111 -112 -126 -127 -140 -141 -153 -154 -165 -166 -177 0
-21 -40 -42 -59 -60 -95 -96 -111 -112 -126 -127 -140 -141 -153 -154 -165 -166 -177 0
-22 -40 -43 -59 -60 -95 -96 -111 -112 -126 -127 -140 -141 -153 -154 -165 -166 -177 0
-21 -41 -42 -59 -61 -95 -96 -111 -112 -126 -127 -140 -141 -153 -154 -165 -166 -177 0
-22 -41 -43 -59 -61 -95 -96 -111 -112 -126 -127 -140 -141 -153 -154 -165 -166 -177 0
-22 -42 -43 -59 -62 -95 -96 -111 -112 -126 -127 -140 -141 -153 -154 -165 -166 -177 0
-21 -41 -42 -60 -61 -95 -97 -111 -112 -126 -127 -140 -141 -153 -154 -165 -166 -177 0
-22 -41 -43 -60 -61 -95 -97 -111 -112 -126 -127 -140 -141 -153 -154 -165 -166 -177 0
-22 -42 -43 -60 -62 -95 -97 -111 -112 -126 -127 -140 -141 -153 -154 -165 -166 -177 0
-22 -42 -43 -61 -62 -95 -98 -111 -112 -126 -127 -140 -141 -153 -154 -165 -166 -177 0
-21 -41 -42 -60 -61 -96 -97 -111 -113 -126 -127 -140 -141 -153 -154 -165 -166 -177 0
-22 -41 -43 -60 -61 -96 -97 -111 -113 -126 -127 -140 -141 -153 -154 -165 -166 -177 0
-22 -42 -43 -60 -62 -96 -97 -111 -113 -126 -127 -140 -141 -153 -154 -165 -166 -177 0
-22 -42 -43 -61 -62 -96 -98 -111 -113 -126 -127 -140 -141 -153 -154 -165 -166 -177 0
-22 -42 -43 -61 -62 -97 -98 -111 -114 -126 -127 -140 -141 -153 -154 -165 -166 -177 0
-21 -41 -42 -60 -61 -96 -97 -112 -113 -126 -128 -140 -141 -153 -154 -165 -166 -177 0
-22 -41 -43 -60 -61 -96 -97 -112 -113 -126 -128 -140 -141 -153 -154 -165 -166 -177 0
-22 -42 -43 -60 -62 -96 -97 -112 -113 -126 -128 -140 -141 -153 -154 -165 -166 -177 0
-22 -42 -43 -61 -62 -96 -98 -112 -113 -126 -128 -140 -141 -153 -154 -165 -166 -177 0
-22 -42 -43 -61 -62 -97 -98 -112 -114 -126 -128 -140 -141 -153 -154 -165 -166 -177 0
-22 -42 -43 -61 -62 -97 -98 -113 -114 -126 -129 -140 -141 -153 -154 -165 -166 -177 0
-21 -41 -42 -60 -61 -96 -97 -112 -113 -127 -128 -140 -142 -153 -154 -165 -166 -177 0
-22 -41 -43 -60 -61 -96 -97 -112 -113 -127 -128 -140 -142 -153 -154 -165 -166 -177 0
-22 -42 -43 -60 -62 -96 -97 -112 -113 -127 -128 -140 -142 -153 -154 -165 -166 -177 0
-22 -42 -43 -61 -62 -96 -98 -112 -113 -127 -128 -140 -142 -153 -154 -165 -166 -177 0
-22 -42 -43 -61 -62 -97 -98 -112 -114 -127 -128 -140 -142 -153 -154 -165 -166 -177 0
-22 -42 -43 -61 -62 -97 -98 -113 -114 -127 -129 -140 -142 -153 -154 -165 -166 -177 0
-22 -42 -43 -61 -62 -97 -98 -113 -114 -128 -129 -140 -143 -153 -154 -165 -166 -177 0
-21 -41 -42 -60 -61 -96 -97 -112 -113 -127 -128 -141 -142 -153 -155 -165 -166 -177 0
-22 -41 -43 -60 -61 -96 -97 -112 -113 -127 -128 -141 -142 -153 -155 -165 -166 -177 0
-22 -42 -43 -60 -62 -96 -97 -112 -113 -127 -128 -141 -142 -153 -155 -165 -166 -177 0
-22 -42 -43 -61 -62 -96 -98 -112 -113 -127 -128 -141 -142 -153 -155 -165 -166 -177 0
-22 -42 -43 -61 -62 -97 -98 -112 -114 -127 -128 -141 -142 -153 -155 -165 -166 -177 0
-22 -42 -43 -61 -62 -97 -98 -113 -114 -127 -129 -141 -142 -153 -155 -165 -166 -177 0
-22 -42 -43 -61 -62 -97 -98 -113 -114 -128 -129 -141 -143 -153 -155 -165 -166 -177 0
-22 -42 -43 -61 -62 -97 -98 -113 -114 -128 -129 -142 -143 -153 -156 -165 -166 -177 0
-21 -41 -42 -60 -61 -96 -97 -112 -113 -127 -128 -141 -142 -154 -155 -165 -167 -177 0
-22 -41 -43 -60 -61 -96 -97 -112 -113 -127 -128 -141 -142 -154 -155 -165 -167 -177 0
-22 -42 -43 -60 -62 -96 -97 -112 -113 -127 -128 -141 -142 -154 -155 -165 -167 -177 0
-22 -42 -43 -61 -62 -96 -98 -112 -113 -127 -128 -141 -142 -154 -155 -165 -167 -177 0
-22 -42 -43 -61 -62 -97 -98 -112 -114 -127 -128 -141 -142 -154 -155 -165 -167 -177 0
-22 -42 -43 -61 -62 -97 -98 -113 -114 -127 -129 -141 -142 -154 -155 -165 -167 -177 0
-22 -42 -43 -61 -62 -97 -98 -113 -114 -128 -129 -141 -143 -154 -155 -165 -167 -177 0
-22 -42 -43 -61 -62 -97 -98 -113 -114 -128 -129 -142 -143 -154 -156 -165 -167 -177 0
-22 -42 -43 -61 -62 -97 -98 -113 -114 -128 -129 -142 -143 -155 -156 -165 -168 -177 0
-21 -41 -42 -60 -61 -96 -97 -112 -113 -127 -128 -141 -142 -154 -155 -166 -167 -178 0
-22 -41 -43 -60 -61 -96 -97 -112 -113 -127 -128 -141 -142 -154 -155 -166 -167 -178 0
-22 -42 -43 -60 -62 -96 -97 -112 -113 -127 -128 -141 -142 -154 -155 -166 -167 -178 0
-22 -42 -43 -61 -62 -96 -98 -112 -113 -127 -128 -141 -142 -154 -155 -166 -167 -178 0
-22 -42 -43 -61 -62 -97 -98 -112 -114 -127 -128 -141 -142 -154 -155 -166 -167 -178 0
-22 -42 -43 -61 -62 -97 -98 -113 -114 -127 -129 -141 -142 -154 -155 -166 -167 -178 0
-22 -42 -43 -61 -62 -97 -98 -113 -114 -128 -129 -141 -143 -154 -155 -166 -167 -178 0
-22 -42 -43 -61 -62 -97 -98 -113 -114 -128 -129 -142 -143 -154 -156 -166 -167 -178 0
-22 -42 -43 -61 -62 -97 -98 -113 -114 -128 -129 -142 -143 -155 -156 -166 -168 -178 0
-22 -42 -43 -61 -62 -97 -98 -113 -114 -128 -129 -142 -143 -155 -156 -167 -168 -179 0
-20 -40 -41 -59 -60 -95 -96 -111 -112 -126 -127 -140 -141 -153 -154 -165 -166 -188 0
-21 -40 -42 -59 -60 -95 -96 -111 -112 -126 -127 -140 -141 -153 -154 -165 -166 -188 0
-22 -40 -43 -59 -60 -95 -96 -111 -112 -126 -127 -140 -141 -153 -154 -165 -166 -188 0
-21 -41 -42 -59 -61 -95 -96 -111 -112 -126 -127 -140 -141 -153 -154 -165 -166 -188 0
-22 -41 -43 -59 -61 -95 -96 -111 -112 -126 -127 -140 -141 -153 -154 -165 -166 -188 0
-22 -42 -43 -59 -62 -95 -96 -111 -112 -126 -127 -140 -141 -153 -154 -165 -166 -188 0
-21 -41 -42 -60 -61 -95 -97 -111 -112 -126 -127 -140 -141 -153 -154 -165 -166 -188 0
-22 -41 -43 -60 -61 -95 -97 -111 -112 -126 -127 -140 -141 -153 -154 -165 -166 -188 0
-22 -42 -43 -60 -62 -95 -97 -111 -112 -126 -127 -140 -141 -153 -154 -165 -166 -188 0
-22 -42 -43 -61 -62 -95 -98 -111 -112 -126 -127 -140 -141 -153 -154 -165 -166 -188 0
-21 -41 -42 -60 -61 -96 -97 -111 -113 -126 -127 -140 -141 -153 -154 -165 -166 -188 0
-22 -41 -43 -60 -61 -96 -97 -111 -113 -126 -127 -140 -141 -153 -154 -165 -166 -188 0
-22 -42 -43 -60 -62 -96 -97 -111 -113 -126 -127 -140 -141 -153 -154 -165 -166 -188 0
-22 -42 -43 -61 -62 -96 -98 -111 -113 -126 -127 -140 -141 -153 -154 -165 -166 -188 0
-22 -42 -43 -61 -62 -97 -98 -111 -114 -126 -127 -140 -141 -153 -154 -165 -166 -188 0
-21 -41 -42 -60 -61 -96 -97 -112 -113 -126 -128 -140 -141 -153 -154 -165 -166 -188 0
-22 -41 -43 -60 -61 -96 -97 -112 -113 -126 -128 -140 -141 -153 -154 -165 -166 -188 0
-22 -42 -43 -60 -62 -96 -97 -112 -113 -126 -128 -140 -141 -153 -154 -165 -166 -188 0
-22 -42 -43 -61 -62 -96 -98 -112 -113 -126 -128 -140 -141 -153 -154 -165 -166 -188 0
-22 -42 -43 -61 -62 -97 -98 -112 -114 -126 -128 -140 -141 -153 -154 -165 -166 -188 0
-22 -42 -43 -61 -62 -97 -98 -113 -114 -126 -129 -140 -141 -153 -154 -165 -166 -188 0
-21 -41 -42 -60 -61 -96 -97 -112 -113 -127 -128 -140 -142 -153 -154 -165 -166 -188 0
-22 -41 -43 -60 -61 -96 -97 -112 -113 -127 -128 -140 -142 -153 -154 -165 -166 -188 0
-22 -42 -43 -60 -62 -96 -97 -112 -113 -127 -128 -140 -142 -153 -154 -165 -166 -188 0
-22 -42 -43 -61 -62 -96 -98 -112 -113 -127 -128 -140 -142 -153 -154 -165 -166 -188 0
-22 -42 -43 -61 -62 -97 -98 -112 -114 -127 -128 -140 -142 -153 -154 -165 -166 -188 0
-22 -42 -43 -61 -62 -97 -98 -113 -114 -127 -129 -140 -142 -153 -154 -165 -166 -188 0
-22 -42 -43 -61 -62 -97 -98 -113 -114 -128 -129 -140 -143 -153 -154 -165 -166 -188 0
-21 -41 -42 -60 -61 -96 -97 -112 -113 -127 -128 -141 -142 -153 -155 -165 -166 -188 0
-22 -41 -43 -60 -61 -96 -97 -112 -113 -127 -128 -141 -142 -153 -155 -165 -166 -188 0
-22 -42 -43 -60 -62 -96 -97 -112 -113 -127 -128 -141 -142 -153 -155 -165 -166 -188 0
-22 -42 -43 -61 -62 -96 -98 -112 -113 -127 -128 -141 -142 -153 -155 -165 -166 -188 0
-22 -42 -43 -61 -62 -97 -98 -112 -114 -127 -128 -141 -142 -153 -155 -165 -166 -188 0
-22 -42 -43 -61 -62 -97 -98 -113 -114 -127 -129 -141 -142 -153 -155 -165 -166 -188 0
-22 -42 -43 -61 -62 -97 -98 -113 -114 -128 -129 -141 -143 -153 -155 -165 -166 -188 0
-22 -42 -43 -61 -62 -97 -98 -113 -114 -128 -129 -142 -143 -153 -156 -165 -166 -188 0
-21 -41 -42 -60 -61 -96 -97 -112 -113 -127 -128 -141 -142 -154 -155 -165 -167 -188 0
-22 -41 -43 -60 -61 -96 -97 -112 -113 -127 -128 -141 -142 -154 -155 -165 -167 -188 0
-22 -42 -43 -60 -62 -96 -97 -112 -113 -127 -128 -141 -142 -154 -155 -165 -167 -188 0
-22 -42 -43 -61 -62 -96 -98 -112 -113 -127 -128 -141 -142 -154 -155 -165 -167 -188 0
-22 -42 -43 -61 -62 -97 -98 -112 -114 -127 -128 -141 -142 -154 -155 -165 -167 -188 0
-22 -42 -43 -61 -62 -97 -98 -113 -114 -127 -129 -141 -142 -154 -155 -165 -167 -188 0
-22 -42 -43 -61 -62 -97 -98 -113 -114 -128 -129 -141 -143 -154 -155 -165 -167 -188 0
-22 -42 -43 -61 -62 -97 -98 -113 -114 -128 -129 -142 -143 -154 -156 -165 -167 -188 0
-22 -42 -43 -61 -62 -97 -98 -113 -114 -128 -129 -142 -143 -155 -156 -165 -168 -188 0
-21 -41 -42 -60 -61 -96 -97 -112 -113 -127 -128 -141 -142 -154 -155 -166 -167 -189 0
-22 -41 -43 -60 -61 -96 -97 -112 -113 -127 -128 -141 -142 -154 -155 -166 -167 -189 0
-22 -42 -43 -60 -62 -96 -97 -112 -113 -127 -128 -141 -142 -154 -155 -166 -167 -189 0
-22 -42 -43 -61 -62 -96 -98 -112 -113 -127 -128 -141 -142 -154 -155 -166 -167 -189 0
-22 -42 -43 -61 -62 -97 -98 -112 -114 -127 -128 -141 -142 -154 -155 -166 -167 -189 0
-22 -42 -43 -61 -62 -97 -98 -113 -114 -127 -129 -141 -142 -154 -155 -166 -167 -189 0
-22 -42 -43 -61 -62 -97 -98 -113 -114 -128 -129 -141 -143 -154 -155 -166 -167 -189 0
-22 -42 -43 -61 -62 -97 -98 -113 -114 -128 -129 -142 -143 -154 -156 -166 -167 -189 0
-22 -42 -43 -61 -62 -97 -98 -113 -114 -128 -129 -142 -143 -155 -156 -166 -168 -189 0
-22 -42 -43 -61 -62 -97 -98 -113 -114 -128 -129 -142 -143 -155 -156 -167 -168 -190 0
-21 -41 -42 -60 -61 -96 -97 -112 -113 -127 -128 -141 -142 -154 -155 -166 -167 -199 0
-22 -41 -43 -60 -61 -96 -97 -112 -113 -127 -128 -141 -142 -154 -155 -166 -167 -199 0
-22 -42 -43 -60 -62 -96 -97 -112 -113 -127 -128 -141 -142 -154 -155 -166 -167 -199 0
-22 -42 -43 -61 -62 -96 -98 -112 -113 -127 -128 -141 -142 -154 -155 -166 -167 -199 0
-22 -42 -43 -61 -62 -97 -98 -112 -114 -127 -128 -141 -142 -154 -155 -166 -167 -199 0
-22 -42 -43 -61 -62 -97 -98 -113 -114 -127 -129 -141 -142 -154 -155 -166 -167 -199 0
-22 -42 -43 -61 -62 -97 -98 -113 -114 -128 -129 -141 -143 -154 -155 -166 -167 -199 0
-22 -42 -43 -61 -62 -97 -98 -113 -114 -128 -129 -142 -143 -154 -156 -166 -167 -199 0
-22 -42 -43 -61 -62 -97 -98 -113 -114 -128 -129 -142 -143 -155 -156 -166 -168 -199 0
-22 -42 -43 -61 -62 -97 -98 -113 -114 -128 -129 -142 -143 -155 -156 -167 -168 -200 0
-22 -42 -43 -61 -62 -97 -98 -113 -114 -128 -129 -142 -143 -155 -156 -167 -168 -209 0
-20 -40 -41 -59 -60 -95 -96 -111 -112 -126 -127 -140 -141 -153 -154 -177 -178 -188 0
-21 -40 -42 -59 -60 -95 -96 -111 -112 -126 -127 -140 -141 -153 -154 -177 -178 -188 0
-22 -40 -43 -59 -60 -95 -96 -111 -112 -126 -127 -140 -141 -153 -154 -177 -178 -188 0
-21 -41 -42 -59 -61 -95 -96 -111 -112 -126 -127 -140 -141 -153 -154 -177 -178 -188 0
-22 -41 -43 -59 -61 -95 -96 -111 -112 -126 -127 -140 -141 -153 -154 -177 -178 -188 0
-22 -42 -43 -59 -62 -95 -96 -111 -112 -126 -127 -140 -141 -153 -154 -177 -178 -188 0
-21 -41 -42 -60 -61 -95 -97 -111 -112 -126 -127 -140 -141 -153 -154 -177 -178 -188 0
-22 -41 -43 -60 -61 -95 -97 -111 -112 -126 -127 -140 -141 -153 -154 -177 -178 -188 0
-22 -42 -43 -60 -62 -95 -97 -111 -112 -126 -127 -140 -141 -153 -154 -177 -178 -188 0
-22 -42 -43 -61 -62 -95 -98 -111 -112 -126 -127 -140 -141 -153 -154 -177 -178 -188 0
-21 -41 -42 -60 -61 -96 -97 -111 -113 -126 -127 -140 -141 -153 -154 -177 -178 -188 0
-22 -41 -43 -60 -61 -96 -97 -111 -113 -126 -127 -140 -141 -153 -154 -177 -178 -188 0
-22 -42 -43 -60 -62 -96 -97 -111 -113 -126 -127 -140 -141 -153 -154 -177 -178 -188 0
-22 -42 -43 -61 -62 -96 -98 -111 -113 -126 -127 -140 -141 -153 -154 -177 -178 -188 0
-22 -42 -43 -61 -62 -97 -98 -111 -114 -126 -127 -140 -141 -153 -154 -177 -178 -188 0
-21 -41 -42 -60 -61 -96 -97 -112 -113 -126 -128 -140 -141 -153 -154 -177 -178 -188 0
-22 -41 -43 -60 -61 -96 -97 -112 -113 -126 -128 -140 -141 -153 -154 -177 -178 -188 0
-22 -42 -43 -60 -62 -96 -97 -112 -113 -126 -128 -140 -141 -153 -154 -177 -178 -188 0
-22 -42 -43 -61 -62 -96 -98 -112 -113 -126 -128 -140 -141 -153 -154 -177 -178 -188 0
-22 -42 -43 -61 -62 -97 -98 -112 -114 -126 -128 -140 -141 -153 -154 -177 -178 -188 0
-22 -42 -43 -61 -62 -97 -98 -113 -114 -126 -129 -140 -141 -153 -154 -177 -178 -188 0
-21 -41 -42 -60 -61 -96 -97 -112 -113 -127 -128 -140 -142 -153 -154 -177 -178 -188 0
-22 -41 -43 -60 -61 -96 -97 -112 -113 -127 -128 -140 -142 -153 -154 -177 -178 -188 0
-22 -42 -43 -60 -62 -96 -97 -112 -113 -127 -128 -140 -142 -153 -154 -177 -178 -188 0
-22 -42 -43 -61 -62 -96 -98 -112 -113 -127 -128 -140 -142 -153 -154 -177 -178 -188 0
-22 -42 -43 -61 -62 -97 -98 -112 -114 -127 -128 -140 -142 -153 -154 -177 -178 -188 0
-22 -42 -43 -61 -62 -97 -98 -113 -114 -127 -129 -140 -142 -153 -154 -177 -178 -188 0
-22 -42 -43 -61 -62 -97 -98 -113 -114 -128 -129 -140 -143 -153 -154 -177 -178 -188 0
-21 -41 -42 -60 -61 -96 -97 -112 -113 -127 -128 -141 -142 -153 -155 -177 -178 -188 0
-22 -41 -43 -60 -61 -96 -97 -112 -113 -127 -128 -141 -142 -153 -155 -177 -178 -188 0
-22 -42 -43 -60 -62 -96 -97 -112 -113 -127 -128 -141 -142 -153 -155 -177 -178 -188 0
-22 -42 -43 -61 -62 -96 -98 -112 -113 -127 -128 -141 -142 -153 -155 -177 -178 -188 0
-22 -42 -43 -61 -62 -97 -98 -112 -114 -127 -128 -141 -142 -153 -155 -177 -178 -188 0
-22 -42 -43 -61 -62 -97 -98 -113 -114 -127 -129 -141 -142 -153 -155 -177 -178 -188 0
-22 -42 -43 -61 -62 -97 -98 -113 -114 -128 -129 -141 -143 -153 -155 -177 -178 -188 0
-22 -42 -43 -61 -62 -97 -98 -113 -114 -128 -129 -142 -143 -153 -156 -177 -178 -188 0
-21 -41 -42 -60 -61 -96 -97 -112 -113 -127 -128 -141 -142 -154 -155 -177 -179 -188 0
-22 -41 -43 -60 -61 -96 -97 -112 -113 -127 -128 -141 -142 -154 -155 -177 -179 -188 0
-22 -42 -43 -60 -62 -96 -97 -112 -113 -127 -128 -141 -142 -154 -155 -177 -179 -188 0
-22 -42 -43 -61 -62 -96 -98 -112 -113 -127 -128 -141 -142 -154 -155 -177 -179 -188 0
-22 -42 -43 -61 -62 -97 -98 -112 -114 -127 -128 -141 -142 -154 -155 -177 -179 -188 0
-22 -42 -43 -61 -62 -97 -98 -113 -114 -127 -129 -141 -142 -154 -155 -177 -179 -188 0
-22 -42 -43 -61 -62 -97 -98 -113 -114 -128 -129 -141 -143 -154 -155 -177 -179 -188 0
-22 -42 -43 -61 -62 -97 -98 -113 -114 -128 -129 -142 -143 -154 -156 -177 -179 -188 0
-22 -42 -43 -61 -62 -97 -98 -113 -114 -128 -129 -142 -143 -155 -156 -177 -180 -188 0
-21 -41 -42 -60 -61 -96 -97 -112 -113 -127 -128 -141 -142 -154 -155 -178 -179 -189 0
-22 -41 -43 -60 -61 -96 -97 -112 -113 -127 -128 -141 -142 -154 -155 -178 -179 -189 0
-22 -42 -43 -60 -62 -96 -97 -112 -113 -127 -128 -141 -142 -154 -155 -178 -179 -189 0
-22 -42 -43 -61 -62 -96 -98 -112 -113 -127 -128 -141 -142 -154 -155 -178 -179 -189 0
-22 -42 -43 -61 -62 -97 -98 -112 -114 -127 -128 -141 -142 -154 -155 -178 -179 -189 0
-22 -42 -43 -61 -62 -97 -98 -113 -114 -127 -129 -141 -142 -154 -155 -178 -179 -189 0
-22 -42 -43 -61 -62 -97 -98 -113 -114 -128 -129 -141 -143 -154 -155 -178 -179 -189 0
-22 -42 -43 -61 -62 -97 -98 -113 -114 -128 -129 -142 -143 -154 -156 -178 -179 -189 0
-22 -42 -43 -61 -62 -97 -98 -113 -114 -128 -129 -142 -143 -155 -156 -178 -180 -189 0
-22 -42 -43 -61 -62 -97 -98 -113 -114 -128 -129 -142 -143 -155 -156 -179 -180 -190 0
-21 -41 -42 -60 -61 -96 -97 -112 -113 -127 -128 -141 -142 -154 -155 -178 -179 -199 0
-22 -41 -43 -60 -61 -96 -97 -112 -113 -127 -128 -141 -142 -154 -155 -178 -179 -199 0
-22 -42 -43 -60 -62 -96 -97 -112 -113 -127 -128 -141 -142 -154 -155 -178 -179 -199 0
-22 -42 -43 -61 -62 -96 -98 -112 -113 -127 -128 -141 -142 -154 -155 -178 -179 -199 0
-22 -42 -43 -61 -62 -97 -98 -112 -114 -127 -128 -141 -142 -154 -155 -178 -179 -199 0
-22 -42 -43 -61 -62 -97 -98 -113 -114 -127 -129 -141 -142 -154 -155 -178 -179 -199 0
-22 -42 -43 -61 -62 -97 -98 -113 -114 -128 -129 -141 -143 -154 -155 -178 -179 -199 0
-22 -42 -43 -61 -62 -97 -98 -113 -114 -128 -129 -142 -143 -154 -156 -178 -179 -199 0
-22 -42 -43 -61 -62 -97 -98 -113 -114 -128 -129 -142 -143 -155 -156 -178 -180 -199 0
-22 -42 -43 -61 -62 -97 -98 -113 -114 -128 -129 -142 -143 -155 -156 -179 -180 -200 0
-22 -42 -43 -61 -62 -97 -98 -113 -114 -128 -129 -142 -143 -155 -156 -179 -180 -209 0
-21 -41 -42 -60 -61 -96 -97 -112 -113 -127 -128 -141 -142 -154 -155 -189 -190 -199 0
-22 -41 -43 -60 -61 -96 -97 -112 -113 -127 -128 -141 -142 -154 -155 -189 -190 -199 0
-22 -42 -43 -60 -62 -96 -97 -112 -113 -127 -128 -141 -142 -154 -155 -189 -190 -199 0
-22 -42 -43 -61 -62 -96 -98 -112 -113 -127 -128 -141 -142 -154 -155 -189 -190 -199 0
-22 -42 -43 -61 -62 -97 -98 -112 -114 -127 -128 -141 -142 -154 -155 -189 -190 -199 0
-22 -42 -43 -61 -62 -97 -98 -113 -114 -127 -129 -141 -142 -154 -155 -189 -190 -199 0
-22 -42 -43 -61 -62 -97 -98 -113 -114 -128 -129 -141 -143 -154 -155 -189 -190 -199 0
-22 -42 -43 -61 -62 -97 -98 -113 -114 -128 -129 -142 -143 -154 -156 -189 -190 -199 0
-22 -42 -43 -61 -62 -97 -98 -113 -114 -128 -129 -142 -143 -155 -156 -189 -191 -199 0
-22 -42 -43 -61 -62 -97 -98 -113 -114 -128 -129 -142 -143 -155 -156 -190 -191 -200 0
-22 -42 -43 -61 -62 -97 -98 -113 -114 -128 -129 -142 -143 -155 -156 -190 -191 -209 0
-22 -42 -43 -61 -62 -97 -98 -113 -114 -128 -129 -142 -143 -155 -156 -200 -201 -209 0
-20 -40 -41 -59 -60 -95 -96 -111 -112 -126 -127 -140 -141 -166 -167 -177 -178 -188 0
-21 -40 -42 -59 -60 -95 -96 -111 -112 -126 -127 -140 -141 -166 -167 -177 -178 -188 0
-22 -40 -43 -59 -60 -95 -96 -111 -112 -126 -127 -140 -141 -166 -167 -177 -178 -188 0
-21 -41 -42 -59 -61 -95 -96 -111 -112 -126 -127 -140 -141 -166 -167 -177 -178 -188 0
-22 -41 -43 -59 -61 -95 -96 -111 -112 -126 -127 -140 -141 -166 -167 -177 -178 -188 0
-22 -42 -43 -59 -62 -95 -96 -111 -112 -126 -127 -140 -141 -166 -167 -177 -178 -188 0
-21 -41 -42 -60 -61 -95 -97 -111 -112 -126 -127 -140 -141 -166 -167 -177 -178 -188 0
-22 -41 -43 -60 -61 -95 -97 -111 -112 -126 -127 -140 -141 -166 -167 -177 -178 -188 0
-22 -42 -43 -60 -62 -95 -97 -111 -112 -126 -127 -140 -141 -166 -167 -177 -178 -188 0
-22 -42 -43 -61 -62 -95 -98 -111 -112 -126 -127 -140 -141 -166 -167 -177 -178 -188 0
-21 -41 -42 -60 -61 -96 -97 -111 -113 -126 -127 -140 -141 -166 -167 -177 -178 -188 0
-22 -41 -43 -60 -61 -96 -97 -111 -113 -126 -127 -140 -141 -166 -167 -177 -178 -188 0
-22 -42 -43 -60 -62 -96 -97 -111 -113 -126 -127 -140 -141 -166 -167 -177 -178 -188 0
-22 -42 -43 -61 -62 -96 -98 -111 -113 -126 -127 -140 -141 -166 -167 -177 -178 -188 0
-22 -42 -43 -61 -62 -97 -98 -111 -114 -126 -127 -140 -141 -166 -167 -177 -178 -188 0
-21 -41 -42 -60 -61 -96 -97 -112 -113 -126 -128 -140 -141 -166 -167 -177 -178 -188 0
-22 -41 -43 -60 -61 -96 -97 -112 -113 -126 -128 -140 -141 -166 -167 -177 -178 -188 0
-22 -42 -43 -60 -62 -96 -97 -112 -113 -126 -128 -140 -141 -166 -167 -177 -178 -188 0
-22 -42 -43 -61 -62 -96 -98 -112 -113 -126 -128 -140 -141 -166 -167 -177 -178 -188 0
-22 -42 -43 -61 -62 -97 -98 -112 -114 -126 -128 -140 -141 -166 -167 -177 -178 -188 0
-22 -42 -43 -61 -62 -97 -98 -113 -114 -126 -129 -140 -141 -166 -167 -177 -178 -188 0
-21 -41 -42 -60 -61 -96 -97 -112 -113 -127 -128 -140 -142 -166 -167 -177 -178 -188 0
-22 -41 -43 -60 -61 -96 -97 -112 -113 -127 -128 -140 -142 -166 -167 -177 -178 -188 0
-22 -42 -43 -60 -62 -96 -97 -112 -113 -127 -128 -140 -142 -166 -167 -177 -178 -188 0
-22 -42 -43 -61 -62 -96 -98 -112 -113 -127 -128 -140 -142 -166 -167 -177 -178 -188 0
-22 -42 -43 -61 -62 -97 -98 -112 -114 -127 -128 -140 -142 -166 -167 -177 -178 -188 0
-22 -42 -43 -61 -62 -97 -98 -113 -114 -127 -129 -140 -142 -166 -167 -177 -178 -188 0
-22 -42 -43 -61 -62 -97 -98 -113 -114 -128 -129 -140 -143 -166 -167 -177 -178 -188 0
-21 -41 -42 -60 -61 -96 -97 -112 -113 -127 -128 -141 -142 -166 -168 -177 -178 -188 0
-22 -41 -43 -60 -61 -96 -97 -112 -113 -127 -128 -141 -142 -166 -168 -177 -178 -188 0
-22 -42 -43 -60 -62 -96 -97 -112 -113 -127 -128 -141 -142 -166 -168 -177 -178 -188 0
-22 -42 -43 -61 -62 -96 -98 -112 -113 -127 -128 -141 -142 -166 -168 -177 -178 -188 0
-22 -42 -43 -61 -62 -97 -98 -112 -114 -127 -128 -141 -142 -166 -168 -177 -178 -188 0
-22 -42 -43 -61 -62 -97 -98 -113 -114 -127 -129 -141 -142 -166 -168 -177 -178 -188 0
-22 -42 -43 -61 -62 -97 -98 -113 -114 -128 -129 -141 -143 -166 -168 -177 -178 -188 0
-22 -42 -43 -61 -62 -97 -98 -113 -114 -128 -129 -142 -143 -166 -169 -177 -178 -188 0
-21 -41 -42 -60 -61 -96 -97 -112 -113 -127 -128 -141 -142 -167 -168 -177 -179 -188 0
-22 -41 -43 -60 -61 -96 -97 -112 -113 -127 -128 -141 -142 -167 -168 -177 -179 -188 0
-22 -42 -43 -60 -62 -96 -97 -112 -113 -127 -128 -141 -142 -167 -168 -177 -179 -188 0
-22 -42 -43 -61 -62 -96 -98 -112 -113 -127 -128 -141 -142 -167 -168 -177 -179 -188 0
-22 -42 -43 -61 -62 -97 -98 -112 -114 -127 -128 -141 -142 -167 -168 -177 -179 -188 0
-22 -42 -43 -61 -62 -97 -98 -113 -114 -127 -129 -141 -142 -167 -168 -177 -179 -188 0
-22 -42 -43 -61 -62 -97 -98 -113 -114 -128 -129 -141 -143 -167 -168 -177 -179 -188 0
-22 -42 -43 -61 -62 -97 -98 -113 -114 -128 -129 -142 -143 -167 -169 -177 -179 -188 0
-22 -42 -43 -61 -62 -97 -98 -113 -114 -128 -129 -142 -143 -168 -169 -177 -180 -188 0
-21 -41 -42 -60 -61 -96 -97 -112 -113 -127 -128 -141 -142 -167 -168 -178 -179 -189 0
-22 -41 -43 -60 -61 -96 -97 -112 -113 -127 -128 -141 -142 -167 -168 -178 -179 -189 0
-22 -42 -43 -60 -62 -96 -97 -112 -113 -127 -128 -141 -142 -167 -168 -178 -179 -189 0
-22 -42 -43 -61 -62 -96 -98 -112 -113 -127 -128 -141 -142 -167 -168 -178 -179 -189 0
-22 -42 -43 -61 -62 -97 -98 -112 -114 -127 -128 -141 -142 -167 -168 -178 -179 -189 0
-22 -42 -43 -61 -62 -97 -98 -113 -114 -127 -129 -141 -142 -167 -168 -178 -179 -189 0
-22 -42 -43 -61 -62 -97 -98 -113 -114 -128 -129 -141 -143 -167 -168 -178 -179 -189 0
-22 -42 -43 -61 -62 -97 -98 -113 -114 -128 -129 -142 -143 -167 -169 -178 -179 -189 0
-22 -42 -43 -61 -62 -97 -98 -113 -114 -128 -129 -142 -143 -168 -169 -178 -180 -189 0
-22 -42 -43 -61 -62 -97 -98 -113 -114 -128 -129 -142 -143 -168 -169 -179 -180 -190 0
-21 -41 -42 -60 -61 -96 -97 -112 -113 -127 -128 -141 -142 -167 -168 -178 -179 -199 0
-22 -41 -43 -60 -61 -96 -97 -112 -113 -127 -128 -141 -142 -167 -168 -178 -179 -199 0
-22 -42 -43 -60 -62 -96 -97 -112 -113 -127 -128 -141 -142 -167 -168 -178 -179 -199 0
-22 -42 -43 -61 -62 -96 -98 -112 -113 -127 -128 -141 -142 -167 -168 -178 -179 -199 0
-22 -42 -43 -61 -62 -97 -98 -112 -114 -127 -128 -141 -142 -167 -168 -178 -179 -199 0
-22 -42 -43 -61 -62 -97 -98 -113 -114 -127 -129 -141 -142 -167 -168 -178 -179 -199 0
-22 -42 -43 -61 -62 -97 -98 -113 -114 -128 -129 -141 -143 -167 -168 -178 -179 -199 0
-22 -42 -43 -61 -62 -97 -98 -113 -114 -128 -129 -142 -143 -167 -169 -178 -179 -199 0
-22 -42 -43 -61 -62 -97 -98 -113 -114 -128 -129 -142 -143 -168 -169 -178 -180 -199 0
-22 -42 -43 -61 -62 -97 -98 -113 -114 -128 -129 -142 -143 -168 -169 -179 -180 -200 0
-22 -42 -43 -61 -62 -97 -98 -113 -114 -128 -129 -142 -143 -168 -169 -179 -180 -209 0
-21 -41 -42 -60 -61 -96 -97 -112 -113 -127 -128 -141 -142 -167 -168 -189 -190 -199 0
-22 -41 -43 -60 -61 -96 -97 -112 -113 -127 -128 -141 -142 -167 -168 -189 -190 -199 0
-22 -42 -43 -60 -62 -96 -97 -112 -113 -127 -128 -141 -142 -167 -168 -189 -190 -199 0
-22 -42 -43 -61 -62 -96 -98 -112 -113 -127 -128 -141 -142 -167 -168 -189 -190 -199 0
-22 -42 -43 -61 -62 -97 -98 -112 -114 -127 -128 -141 -142 -167 -168 -189 -190 -199 0
-22 -42 -43 -61 -62 -97 -98 -113 -114 -127 -129 -141 -142 -167 -168 -189 -190 -199 0
-22 -42 -43 -61 -62 -97 -98 -113 -114 -128 -129 -141 -143 -167 -168 -189 -190 -199 0
-22 -42 -43 -61 -62 -97 -98 -113 -114 -128 -129 -142 -143 -167 -169 -189 -190 -199 0
-22 -42 -43 -61 -62 -97 -98 -113 -114 -128 -129 -142 -143 -168 -169 -189 -191 -199 0
-22 -42 -43 -61 -62 -97 -98 -113 -114 -128 -129 -142 -143 -168 -169 -190 -191 -200 0
-22 -42 -43 -61 -62 -97 -98 -113 -114 -128 -129 -142 -143 -168 -169 -190 -191 -209 0
-22 -42 -43 -61 -62 -97 -98 -113 -114 -128 -129 -142 -143 -168 -169 -200 -201 -209 0
-21 -41 -42 -60 -61 -96 -97 -112 -113 -127 -128 -141 -142 -179 -180 -189 -190 -199 0
-22 -41 -43 -60 -61 -96 -97 -112 -113 -127 -128 -141 -142 -179 -180 -189 -190 -199 0
-22 -42 -43 -60 -62 -96 -97 -112 -113 -127 -128 -141 -142 -179 -180 -189 -190 -199 0
-22 -42 -43 -61 -62 -96 -98 -112 -113 -127 -128 -141 -142 -179 -180 -189 -190 -199 0
-22 -42 -43 -61 -62 -97 -98 -112 -114 -127 -128 -141 -142 -179 -180 -189 -190 -199 0
-22 -42 -43 -61 -62 -97 -98 -113 -114 -127 -129 -141 -142 -179 -180 -189 -190 -199 0
-22 -42 -43 -61 -62 -97 -98 -113 -114 -128 -129 -141 -143 -179 -180 -189 -190 -199 0
-22 -42 -43 -61 -62 -97 -98 -113 -114 -128 -129 -142 -143 -179 -181 -189 -190 -199 0
-22 -42 -43 -61 -62 -97 -98 -113 -114 -128 -129 -142 -143 -180 -181 -189 -191 -199 0
-22 -42 -43 -61 -62 -97 -98 -113 -114 -128 -129 -142 -143 -180 -181 -190 -191 -200 0
-22 -42 -43 -61 -62 -97 -98 -113 -114 -128 -129 -142 -143 -180 -181 -190 -191 -209 0
-22 -42 -43 -61 -62 -97 -98 -113 -114 -128 -129 -142 -143 -180 -181 -200 -201 -209 0
-22 -42 -43 -61 -62 -97 -98 -113 -114 -128 -129 -142 -143 -191 -192 -200 -201 -209 0
-20 -40 -41 -59 -60 -95 -96 -111 -112 -126 -127 -154 -155 -166 -167 -177 -178 -188 0
-21 -40 -42 -59 -60 -95 -96 -111 -112 -126 -127 -154 -155 -166 -167 -177 -178 -188 0
-22 -40 -43 -59 -60 -95 -96 -111 -112 -126 -127 -154 -155 -166 -167 -177 -178 -188 0
-21 -41 -42 -59 -61 -95 -96 -111 -112 -126 -127 -154 -155 -166 -167 -177 -178 -188 0
-22 -41 -43 -59 -61 -95 -96 -111 -112 -126 -127 -154 -155 -166 -167 -177 -178 -188 0
-22 -42 -43 -59 -62 -95 -96 -111 -112 -126 -127 -154 -155 -166 -167 -177 -178 -188 0
-21 -41 -42 -60 -61 -95 -97 -111 -112 -126 -127 -154 -155 -166 -167 -177 -178 -188 0
-22 -41 -43 -60 -61 -95 -97 -111 -112 -126 -127 -154 -155 -166 -167 -177 -178 -188 0
-22 -42 -43 -60 -62 -95 -97 -111 -112 -126 -127 -154 -155 -166 -167 -177 -178 -188 0
-22 -42 -43 -61 -62 -95 -98 -111 -112 -126 -127 -154 -155 -166 -167 -177 -178 -188 0
-21 -41 -42 -60 -61 -96 -97 -111 -113 -126 -127 -154 -155 -166 -167 -177 -178 -188 0
-22 -41 -43 -60 -61 -96 -97 -111 -113 -126 -127 -154 -155 -166 -167 -177 -178 -188 0
-22 -42 -43 -60 -62 -96 -97 -111 -113 -126 -127 -154 -155 -166 -167 -177 -178 -188 0
-22 -42 -43 -61 -62 -96 -98 -111 -113 -126 -127 -154 -155 -166 -167 -177 -178 -188 0
-22 -42 -43 -61 -62 -97 -98 -111 -114 -126 -127 -154 -155 -166 -167 -177 -178 -188 0
-21 -41 -42 -60 -61 -96 -97 -112 -113 -126 -128 -154 -155 -166 -167 -177 -178 -188 0
-22 -41 -43 -60 -61 -96 -97 -112 -113 -126 -128 -154 -155 -166 -167 -177 -178 -188 0
-22 -42 -43 -60 -62 -96 -97 -112 -113 -126 -128 -154 -155 -166 -167 -177 -178 -188 0
-22 -42 -43 -61 -62 -96 -98 -112 -113 -126 -128 -154 -155 -166 -167 -177 -178 -188 0
-22 -42 -43 -61 -62 -97 -98 -112 -114 -126 -128 -154 -155 -166 -167 -177 -178 -188 0
-22 -42 -43 -61 -62 -97 -98 -113 -114 -126 -129 -154 -155 -166 -167 -177 -178 -188 0
-21 -41 -42 -60 -61 -96 -97 -112 -113 -127 -128 -154 -156 -166 -167 -177 -178 -188 0
-22 -41 -43 -60 -61 -96 -97 -112 -113 -127 -128 -154 -156 -166 -167 -177 -178 -188 0
-22 -42 -43 -60 -62 -96 -97 -112 -113 -127 -128 -154 -156 -166 -167 -177 -178 -188 0
-22 -42 -43 -61 -62 -96 -98 -112 -113 -127 -128 -154 -156 -166 -167 -177 -178 -188 0
-22 -42 -43 -61 -62 -97 -98 -112 -114 -127 -128 -154 -156 -166 -167 -177 -178 -188 0
-22 -42 -43 -61 -62 -97 -98 -113 -114 -127 -129 -154 -156 -166 -167 -177 -178 -188 0
-22 -42 -43 -61 -62 -97 -98 -113 -114 -128 -129 -154 -157 -166 -167 -177 -178 -188 0
-21 -41 -42 -60 -61 -96 -97 -112 -113 -127 -128 -155 -156 -166 -168 -177 -178 -188 0
-22 -41 -43 -60 -61 -96 -97 -112 -113 -127 -128 -155 -156 -166 -168 -177 -178 -188 0
-22 -42 -43 -60 -62 -96 -97 -112 -113 -127 -128 -155 -156 -166 -168 -177 -178 -188 0
-22 -42 -43 -61 -62 -96 -98 -112 -113 -127 -128 -155 -156 -166 -168 -177 -178 -188 0
-22 -42 -43 -61 -62 -97 -98 -112 -114 -127 -128 -155 -156 -166 -168 -177 -178 -188 0
-22 -42 -43 -61 -62 -97 -98 -113 -114 -127 -129 -155 -156 -166 -168 -177 -178 -188 0
-22 -42 -43 -61 -62 -97 -98 -113 -114 -128 -129 -155 -157 -166 -168 -177 -178 -188 0
-22 -42 -43 -61 -62 -97 -98 -113 -114 -128 -129 -156 -157 -166 -169 -177 -178 -188 0
-21 -41 -42 -60 -61 -96 -97 -112 -113 -127 -128 -155 -156 -167 -168 -177 -179 -188 0
-22 -41 -43 -60 -61 -96 -97 -112 -113 -127 -128 -155 -156 -167 -168 -177 -179 -188 0
-22 -42 -43 -60 -62 -96 -97 -112 -113 -127 -128 -155 -156 -167 -168 -177 -179 -188 0
-22 -42 -43 -61 -62 -96 -98 -112 -113 -127 -128 -155 -156 -167 -168 -177 -179 -188 0
-22 -42 -43 -61 -62 -97 -98 -112 -114 -127 -128 -155 -156 -167 -168 -177 -179 -188 0
-22 -42 -43 -61 -62 -97 -98 -113 -114 -127 -129 -155 -156 -167 -168 -177 -179 -188 0
-22 -42 -43 -61 -62 -97 -98 -113 -114 -128 -129 -155 -157 -167 -168 -177 -179 -188 0
-22 -42 -43 -61 -62 -97 -98 -113 -114 -128 -129 -156 -157 -167 -169 -177 -179 -188 0
-22 -42 -43 -61 -62 -97 -98 -113 -114 -128 -129 -156 -157 -168 -169 -177 -180 -188 0
-21 -41 -42 -60 -61 -96 -97 -112 -113 -127 -128 -155 -156 -167 -168 -178 -179 -189 0
-22 -41 -43 -60 -61 -96 -97 -112 -113 -127 -128 -155 -156 -167 -168 -178 -179 -189 0
-22 -42 -43 -60 -62 -96 -97 -112 -113 -127 -128 -155 -156 -167 -168 -178 -179 -189 0
-22 -42 -43 -61 -62 -96 -98 -112 -113 -127 -128 -155 -156 -167 -168 -178 -179 -189 0
-22 -42 -43 -61 -62 -97 -98 -112 -114 -127 -128 -155 -156 -167 -168 -178 -179 -189 0
-22 -42 -43 -61 -62 -97 -98 -113 -114 -127 -129 -155 -156 -167 -168 -178 -179 -189 0
-22 -42 -43 -61 -62 -97 -98 -113 -114 -128 -129 -155 -157 -167 -168 -178 -179 -189 0
-22 -42 -43 -61 -62 -97 -98 -113 -114 -128 -129 -156 -157 -167 -169 -178 -179 -189 0
-22 -42 -43 -61 -62 -97 -98 -113 -114 -128 -129 -156 -157 -168 -169 -178 -180 -189 0
-22 -42 -43 -61 -62 -97 -98 -113 -114 -128 -129 -156 -157 -168 -169 -179 -180 -190 0
-21 -41 -42 -60 -61 -96 -97 -112 -113 -127 -128 -155 -156 -167 -168 -178 -179 -199 0
-22 -41 -43 -60 -61 -96 -97 -112 -113 -127 -128 -155 -156 -167 -168 -178 -179 -199 0
-22 -42 -43 -60 -62 -96 -97 -112 -113 -127 -128 -155 -156 -167 -168 -178 -179 -199 0
-22 -42 -43 -61 -62 -96 -98 -112 -113 -127 -128 -155 -156 -167 -168 -178 -179 -199 0
-22 -42 -43 -61 -62 -97 -98 -112 -114 -127 -128 -155 -156 -167 -168 -178 -179 -199 0
-22 -42 -43 -61 -62 -97 -98 -113 -114 -127 -129 -155 -156 -167 -168 -178 -179 -199 0
-22 -42 -43 -61 -62 -97 -98 -113 -114 -128 -129 -155 -157 -167 -168 -178 -179 -199 0
-22 -42 -43 -61 -62 -97 -98 -113 -114 -128 -129 -156 -157 -167 -169 -178 -179 -199 0
-22 -42 -43 -61 -62 -97 -98 -113 -114 -128 -129 -156 -157 -168 -169 -178 -180 -199 0
-22 -42 -43 -61 -62 -97 -98 -113 -114 -128 -129 -156 -157 -168 -169 -179 -180 -200 0
-22 -42 -43 -61 -62 -97 -98 -113 -114 -128 -129 -156 -157 -168 -169 -179 -180 -209 0
-21 -41 -42 -60 -61 -96 -97 -112 -113 -127 -128 -155 -156 -167 -168 -189 -190 -199 0
-22 -41 -43 -60 -61 -96 -97 -112 -113 -127 -128 -155 -156 -167 -168 -189 -190 -199 0
-22 -42 -43 -60 -62 -96 -97 -112 -113 -127 -128 -155 -156 -167 -168 -189 -190 -199 0
-22 -42 -43 -61 -62 -96 -98 -112 -113 -127 -128 -155 -156 -167 -168 -189 -190 -199 0
-22 -42 -43 -61 -62 -97 -98 -112 -114 -127 -128 -155 -156 -167 -168 -189 -190 -199 0
-22 -42 -43 -61 -62 -97 -98 -113 -114 -127 -129 -155 -156 -167 -168 -189 -190 -199 0
-22 -42 -43 -61 -62 -97 -98 -113 -114 -128 -129 -155 -157 -167 -168 -189 -190 -199 0
-22 -42 -43 -61 -62 -97 -98 -113 -114 -128 -129 -156 -157 -167 -169 -189 -190 -199 0
-22 -42 -43 -61 -62 -97 -98 -113 -114 -128 -129 -156 -157 -168 -169 -189 -191 -199 0
-22 -42 -43 -61 -62 -97 -98 -113 -114 -128 -129 -156 -157 -168 -169 -190 -191 -200 0
-22 -42 -43 -61 -62 -97 -98 -113 -114 -128 -129 -156 -157 -168 -169 -190 -191 -209 0
-22 -42 -43 -61 -62 -97 -98 -113 -114 -128 -129 -156 -157 -168 -169 -200 -201 -209 0
-21 -41 -42 -60 -61 -96 -97 -112 -113 -127 -128 -155 -156 -179 -180 -189 -190 -199 0
-22 -41 -43 -60 -61 -96 -97 -112 -113 -127 -128 -155 -156 -179 -180 -189 -190 -199 0
-22 -42 -43 -60 -62 -96 -97 -112 -113 -127 -128 -155 -156 -179 -180 -189 -190 -199 0
-22 -42 -43 -61 -62 -96 -98 -112 -113 -127 -128 -155 -156 -179 -180 -189 -190 -199 0
-22 -42 -43 -61 -62 -97 -98 -112 -114 -127 -128 -155 -156 -179 -180 -189 -190 -199 0
-22 -42 -43 -61 -62 -97 -98 -113 -114 -127 -129 -155 -156 -179 -180 -189 -190 -199 0
-22 -42 -43 -61 -62 -97 -98 -113 -114 -128 -129 -155 -157 -179 -180 -189 -190 -199 0
-22 -42 -43 -61 -62 -97 -98 -113 -114 -128 -129 -156 -157 -179 -181 -189 -190 -199 0
-22 -42 -43 -61 -62 -97 -98 -113 -114 -128 -129 -156 -157 -180 -181 -189 -191 -199 0
-22 -42 -43 -61 -62 -97 -98 -113 -114 -128 -129 -156 -157 -180 -181 -190 -191 -200 0
-22 -42 -43 -61 -62 -97 -98 -113 -114 -128 -129 -156 -157 -180 -181 -190 -191 -209 0
-22 -42 -43 -61 -62 -97 -98 -113 -114 -128 -129 -156 -157 -180 -181 -200 -201 -209 0
-22 -42 -43 -61 -62 -97 -98 -113 -114 -128 -129 -156 -157 -191 -192 -200 -201 -209 0
-21 -41 -42 -60 -61 -96 -97 -112 -113 -127 -128 -168 -169 -179 -180 -189 -190 -199 0
-22 -41 -43 -60 -61 -96 -97 -112 -113 -127 -128 -168 -169 -179 -180 -189 -190 -199 0
-22 -42 -43 -60 -62 -96 -97 -112 -113 -127 -128 -168 -169 -179 -180 -189 -190 -199 0
-22 -42 -43 -61 -62 -96 -98 -112 -113 -127 -128 -168 -169 -179 -180 -189 -190 -199 0
-22 -42 -43 -61 -62 -97 -98 -112 -114 -127 -128 -168 -169 -179 -180 -189 -190 -199 0
-22 -42 -43 -61 -62 -97 -98 -113 -114 -127 -129 -168 -169 -179 -180 -189 -190 -199 0
-22 -42 -43 -61 -62 -97 -98 -113 -114 -128 -129 -168 -170 -179 -180 -189 -190 -199 0
-22 -42 -43 -61 -62 -97 -98 -113 -114 -128 -129 -169 -170 -179 -181 -189 -190 -199 0
-22 -42 -43 -61 -62 -97 -98 -113 -114 -128 -129 -169 -170 -180 -181 -189 -191 -199 0
-22 -42 -43 -61 -62 -97 -98 -113 -114 -128 -129 -169 -170 -180 -181 -190 -191 -200 0
-22 -42 -43 -61 -62 -97 -98 -113 -114 -128 -129 -169 -170 -180 -181 -190 -191 -209 0
-22 -42 -43 -61 -62 -97 -98 -113 -114 -128 -129 -169 -170 -180 -181 -200 -201 -209 0
-22 -42 -43 -61 -62 -97 -98 -113 -114 -128 -129 -169 -170 -191 -192 -200 -201 -209 0
-22 -42 -43 -61 -62 -97 -98 -113 -114 -128 -129 -181 -182 -191 -192 -200 -201 -209 0
-20 -40 -41 -59 -60 -95 -96 -111 -112 -141 -142 -154 -155 -166 -167 -177 -178 -188 0
-21 -40 -42 -59 -60 -95 -96 -111 -112 -141 -142 -154 -155 -166 -167 -177 -178 -188 0
-22 -40 -43 -59 -60 -95 -96 -111 -112 -141 -142 -154 -155 -166 -167 -177 -178 -188 0
-21 -41 -42 -59 -61 -95 -96 -111 -112 -141 -142 -154 -155 -166 -167 -177 -178 -188 0
-22 -41 -43 -59 -61 -95 -96 -111 -112 -141 -142 -154 -155 -166 -167 -177 -178 -188 0
-22 -42 -43 -59 -62 -95 -96 -111 -112 -141 -142 -154 -155 -166 -167 -177 -178 -188 0
-21 -41 -42 -60 -61 -95 -97 -111 -112 -141 -142 -154 -155 -166 -167 -177 -178 -188 0
-22 -41 -43 -60 -61 -95 -97 -111 -112 -141 -142 -154 -155 -166 -167 -177 -178 -188 0
-22 -42 -43 -60 -62 -95 -97 -111 -112 -141 -142 -154 -155 -166 -167 -177 -178 -188 0
-22 -42 -43 -61 -62 -95 -98 -111 -112 -141 -142 -154 -155 -166 -167 -177 -178 -188 0
-21 -41 -42 -60 -61 -96 -97 -111 -113 -141 -142 -154 -155 -166 -167 -177 -178 -188 0
-22 -41 -43 -60 -61 -96 -97 -111 -113 -141 -142 -154 -155 -166 -167 -177 -178 -188 0
-22 -42 -43 -60 -62 -96 -97 -111 -113 -141 -142 -154 -155 -166 -167 -177 -178 -188 0
-22 -42 -43 -61 -62 -96 -98 -111 -113 -141 -142 -154 -155 -166 -167 -177 -178 -188 0
-22 -42 -43 -61 -62 -97 -98 -111 -114 -141 -142 -154 -155 -166 -167 -177 -178 -188 0
-21 -41 -42 -60 -61 -96 -97 -112 -113 -141 -143 -154 -155 -166 -167 -177 -178 -188 0
-22 -41 -43 -60 -61 -96 -97 -112 -113 -141 -143 -154 -155 -166 -167 -177 -178 -188 0
-22 -42 -43 -60 -62 -96 -97 -112 -113 -141 -143 -154 -155 -166 -167 -177 -178 -188 0
-22 -42 -43 -61 -62 -96 -98 -112 -113 -141 -143 -154 -155 -166 -167 -177 -178 -188 0
-22 -42 -43 -61 -62 -97 -98 -112 -114 -141 -143 -154 -155 -166 -167 -177 -178 -188 0
-22 -42 -43 -61 -62 -97 -98 -113 -114 -141 -144 -154 -155 -166 -167 -177 -178 -188 0
-21 -41 -42 -60 -61 -96 -97 -112 -113 -142 -143 -154 -156 -166 -167 -177 -178 -188 0
-22 -41 -43 -60 -61 -96 -97 -112 -113 -142 -143 -154 -156 -166 -167 -177 -178 -188 0
-22 -42 -43 -60 -62 -96 -97 -112 -113 -142 -143 -154 -156 -166 -167 -177 -178 -188 0
-22 -42 -43 -61 -62 -96 -98 -112 -113 -142 -143 -154 -156 -166 -167 -177 -178 -188 0
-22 -42 -43 -61 -62 -97 -98 -112 -114 -142 -143 -154 -156 -166 -167 -177 -178 -188 0
-22 -42 -43 -61 -62 -97 -98 -113 -114 -142 -144 -154 -156 -166 -167 -177 -178 -188 0
-22 -42 -43 -61 -62 -97 -98 -113 -114 -143 -144 -154 -157 -166 -167 -177 -178 -188 0
-21 -41 -42 -60 -61 -96 -97 -112 -113 -142 -143 -155 -156 -166 -168 -177 -178 -188 0
-22 -41 -43 -60 -61 -96 -97 -112 -113 -142 -143 -155 -156 -166 -168 -177 -178 -188 0
-22 -42 -43 -60 -62 -96 -97 -112 -113 -142 -143 -155 -156 -166 -168 -177 -178 -188 0
-22 -42 -43 -61 -62 -96 -98 -112 -113 -142 -143 -155 -156 -166 -168 -177 -178 -188 0
-22 -42 -43 -61 -62 -97 -98 -112 -114 -142 -143 -155 -156 -166 -168 -177 -178 -188 0
-22 -42 -43 -61 -62 -97 -98 -113 -114 -142 -144 -155 -156 -166 -168 -177 -178 -188 0
-22 -42 -43 -61 -62 -97 -98 -113 -114 -143 -144 -155 -157 -166 -168 -177 -178 -188 0
-22 -42 -43 -61 -62 -97 -98 -113 -114 -143 -144 -156 -157 -166 -169 -177 -178 -188 0
-21 -41 -42 -60 -61 -96 -97 -112 -113 -142 -143 -155 -156 -167 -168 -177 -179 -188 0
-22 -41 -43 -60 -61 -96 -97 -112 -113 -142 -143 -155 -156 -167 -168 -177 -179 -188 0
-22 -42 -43 -60 -62 -96 -97 -112 -113 -142 -143 -155 -156 -167 -168 -177 -179 -188 0
-22 -42 -43 -61 -62 -96 -98 -112 -113 -142 -143 -155 -156 -167 -168 -177 -179 -188 0
-22 -42 -43 -61 -62 -97 -98 -112 -114 -142 -143 -155 -156 -167 -168 -177 -179 -188 0
-22 -42 -43 -61 -62 -97 -98 -113 -114 -142 -144 -155 -156 -167 -168 -177 -179 -188 0
-22 -42 -43 -61 -62 -97 -98 -113 -114 -143 -144 -155 -157 -167 -168 -177 -179 -188 0
-22 -42 -43 -61 -62 -97 -98 -113 -114 -143 -144 -156 -157 -167 -169 -177 -179 -188 0
-22 -42 -43 -61 -62 -97 -98 -113 -114 -143 -144 -156 -157 -168 -169 -177 -180 -188 0
-21 -41 -42 -60 -61 -96 -97 -112 -113 -142 -143 -155 -156 -167 -168 -178 -179 -189 0
-22 -41 -43 -60 -61 -96 -97 -112 -113 -142 -143 -155 -156 -167 -168 -178 -179 -189 0
-22 -42 -43 -60 -62 -96 -97 -112 -113 -142 -143 -155 -156 -167 -168 -178 -179 -189 0
-22 -42 -43 -61 -62 -96 -98 -112 -113 -142 -143 -155 -156 -167 -168 -178 -179 -189 0
-22 -42 -43 -61 -62 -97 -98 -112 -114 -142 -143 -155 -156 -167 -168 -178 -179 -189 0
-22 -42 -43 -61 -62 -97 -98 -113 -114 -142 -144 -155 -156 -167 -168 -178 -179 -189 0
-22 -42 -43 -61 -62 -97 -98 -113 -114 -143 -144 -155 -157 -167 -168 -178 -179 -189 0
-22 -42 -43 -61 -62 -97 -98 -113 -114 -143 -144 -156 -157 -167 -169 -178 -179 -189 0
-22 -42 -43 -61 -62 -97 -98 -113 -114 -143 -144 -156 -157 -168 -169 -178 -180 -189 0
-22 -42 -43 -61 -62 -97 -98 -113 -114 -143 -144 -156 -157 -168 -169 -179 -180 -190 0
-21 -41 -42 -60 -61 -96 -97 -112 -113 -142 -143 -155 -156 -167 -168 -178 -179 -199 0
-22 -41 -43 -60 -61 -96 -97 -112 -113 -142 -143 -155 -156 -167 -168 -178 -179 -199 0
-22 -42 -43 -60 -62 -96 -97 -112 -113 -142 -143 -155 -156 -167 -168 -178 -179 -199 0
-22 -42 -43 -61 -62 -96 -98 -112 -113 -142 -143 -155 -156 -167 -168 -178 -179 -199 0
-22 -42 -43 -61 -62 -97 -98 -112 -114 -142 -143 -155 -156 -167 -168 -178 -179 -199 0
-22 -42 -43 -61 -62 -97 -98 -113 -114 -142 -144 -155 -156 -167 -168 -178 -179 -199 0
-22 -42 -43 -61 -62 -97 -98 -113 -114 -143 -144 -155 -157 -167 -168 -178 -179 -199 0
-22 -42 -43 -61 -62 -97 -98 -113 -114 -143 -144 -156 -157 -167 -169 -178 -179 -199 0
-22 -42 -43 -61 -62 -97 -98 -113 -114 -143 -144 -156 -157 -168 -169 -178 -180 -199 0
-22 -42 -43 -61 -62 -97 -98 -113 -114 -143 -144 -156 -157 -168 -169 -179 -180 -200 0
-22 -42 -43 -61 -62 -97 -98 -113 -114 -143 -144 -156 -157 -168 -169 -179 -180 -209 0
-21 -41 -42 -60 -61 -96 -97 -112 -113 -142 -143 -155 -156 -167 -168 -189 -190 -199 0
-22 -41 -43 -60 -61 -96 -97 -112 -113 -142 -143 -155 -156 -167 -168 -189 -190 -199 0
-22 -42 -43 -60 -62 -96 -97 -112 -113 -142 -143 -155 -156 -167 -168 -189 -190 -199 0
-22 -42 -43 -61 -62 -96 -98 -112 -113 -142 -143 -155 -156 -167 -168 -189 -190 -199 0
-22 -42 -43 -61 -62 -97 -98 -112 -114 -142 -143 -155 -156 -167 -168 -189 -190 -199 0
-22 -42 -43 -61 -62 -97 -98 -113 -114 -142 -144 -155 -156 -167 -168 -189 -190 -199 0
-22 -42 -43 -61 -62 -97 -98 -113 -114 -143 -144 -155 -157 -167 -168 -189 -190 -199 0
-22 -42 -43 -61 -62 -97 -98 -113 -114 -143 -144 -156 -157 -167 -169 -189 -190 -199 0
-22 -42 -43 -61 -62 -97 -98 -113 -114 -143 -144 -156 -157 -168 -169 -189 -191 -199 0
-22 -42 -43 -61 -62 -97 -98 -113 -114 -143 -144 -156 -157 -168 -169 -190 -191 -200 0
-22 -42 -43 -61 -62 -97 -98 -113 -114 -143 -144 -156 -157 -168 -169 -190 -191 -209 0
-22 -42 -43 -61 -62 -97 -98 -113 -114 -143 -144 -156 -157 -168 -169 -200 -201 -209 0
-21 -41 -42 -60 -61 -96 -97 -112 -113 -142 -143 -155 -156 -179 -180 -189 -190 -199 0
-22 -41 -43 -60 -61 -96 -97 -112 -113 -142 -143 -155 -156 -179 -180 -189 -190 -199 0
-22 -42 -43 -60 -62 -96 -97 -112 -113 -142 -143 -155 -156 -179 -180 -189 -190 -199 0
-22 -42 -43 -61 -62 -96 -98 -112 -113 -142 -143 -155 -156 -179 -180 -189 -190 -199 0
-22 -42 -43 -61 -62 -97 -98 -112 -114 -142 -143 -155 -156 -179 -180 -189 -190 -199 0
-22 -42 -43 -61 -62 -97 -98 -113 -114 -142 -144 -155 -156 -179 -180 -189 -190 -199 0
-22 -42 -43 -61 -62 -97 -98 -113 -114 -143 -144 -155 -157 -179 -180 -189 -190 -199 0
-22 -42 -43 -61 -62 -97 -98 -113 -114 -143 -144 -156 -157 -179 -181 -189 -190 -199 0
-22 -42 -43 -61 -62 -97 -98 -113 -114 -143 -144 -156 -157 -180 -181 -189 -191 -199 0
-22 -42 -43 -61 -62 -97 -98 -113 -114 -143 -144 -156 -157 -180 -181 -190 -191 -200 0
-22 -42 -43 -61 -62 -97 -98 -113 -114 -143 -144 -156 -157 -180 -181 -190 -191 -209 0
-22 -42 -43 -61 -62 -97 -98 -113 -114 -143 -144 -156 -157 -180 -181 -200 -201 -209 0
-22 -42 -43 -61 -62 -97 -98 -113 -114 -143 -144 -156 -157 -191 -192 -200 -201 -209 0
-21 -41 -42 -60 -61 -96 -97 -112 -113 -142 -143 -168 -169 -179 -180 -189 -190 -199 0
-22 -41 -43 -60 -61 -96 -97 -112 -113 -142 -143 -168 -169 -179 -180 -189 -190 -199 0
-22 -42 -43 -60 -62 -96 -97 -112 -113 -142 -143 -168 -169 -179 -180 -189 -190 -199 0
-22 -42 -43 -61 -62 -96 -98 -112 -113 -142 -143 -168 -169 -179 -180 -189 -190 -199 0
-22 -42 -43 -61 -62 -97 -98 -112 -114 -142 -143 -168 -169 -179 -180 -189 -190 -199 0
-22 -42 -43 -61 -62 -97 -98 -113 -114 -142 -144 -168 -169 -179 -180 -189 -190 -199 0
-22 -42 -43 -61 -62 -97 -98 -113 -114 -143 -144 -168 -170 -179 -180 -189 -190 -199 0
-22 -42 -43 -61 -62 -97 -98 -113 -114 -143 -144 -169 -170 -179 -181 -189 -190 -199 0
-22 -42 -43 -61 -62 -97 -98 -113 -114 -143 -144 -169 -170 -180 -181 -189 -191 -199 0
-22 -42 -43 -61 -62 -97 -98 -113 -114 -143 -144 -169 -170 -180 -181 -190 -191 -200 0
-22 -42 -43 -61 -62 -97 -98 -113 -114 -143 -144 -169 -170 -180 -181 -190 -191 -209 0
-22 -42 -43 -61 -62 -97 -98 -113 -114 -143 -144 -169 -170 -180 -181 -200 -201 -209 0
-22 -42 -43 -61 -62 -97 -98 -113 -114 -143 -144 -169 -170 -191 -192 -200 -201 -209 0
-22 -42 -43 -61 -62 -97 -98 -113 -114 -143 -144 -181 -182 -191 -192 -200 -201 -209 0
-21 -41 -42 -60 -61 -96 -97 -112 -113 -156 -157 -168 -169 -179 -180 -189 -190 -199 0
-22 -41 -43 -60 -61 -96 -97 -112 -113 -156 -157 -168 -169 -179 -180 -189 -190 -199 0
-22 -42 -43 -60 -62 -96 -97 -112 -113 -156 -157 -168 -169 -179 -180 -189 -190 -199 0
-22 -42 -43 -61 -62 -96 -98 -112 -113 -156 -157 -168 -169 -179 -180 -189 -190 -199 0
-22 -42 -43 -61 -62 -97 -98 -112 -114 -156 -157 -168 -169 -179 -180 -189 -190 -199 0
-22 -42 -43 -61 -62 -97 -98 -113 -114 -156 -158 -168 -169 -179 -180 -189 -190 -199 0
-22 -42 -43 -61 -62 -97 -98 -113 -114 -157 -158 -168 -170 -179 -180 -189 -190 -199 0
-22 -42 -43 -61 -62 -97 -98 -113 -114 -157 -158 -169 -170 -179 -181 -189 -190 -199 0
-22 -42 -43 -61 -62 -97 -98 -113 -114 -157 -158 -169 -170 -180 -181 -189 -191 -199 0
-22 -42 -43 -61 -62 -97 -98 -113 -114 -157 -158 -169 -170 -180 -181 -190 -191 -200 0
-22 -42 -43 -61 -62 -97 -98 -113 -114 -157 -158 -169 -170 -180 -181 -190 -191 -209 0
-22 -42 -43 -61 -62 -97 -98 -113 -114 -157 -158 -169 -170 -180 -181 -200 -201 -209 0
-22 -42 -43 -61 -62 -97 -98 -113 -114 -157 -158 -169 -170 -191 -192 -200 -201 -209 0
-22 -42 -43 -61 -62 -97 -98 -113 -114 -157 -158 -181 -182 -191 -192 -200 -201 -209 0
-22 -42 -43 -61 -62 -97 -98 -113 -114 -170 -171 -181 -182 -191 -192 -200 -201 -209 0
-20 -40 -41 -59 -60 -95 -96 -127 -128 -141 -142 -154 -155 -166 -167 -177 -178 -188 0
-21 -40 -42 -59 -60 -95 -96 -127 -128 -141 -142 -154 -155 -166 -167 -177 -178 -188 0
-22 -40 -43 -59 -60 -95 -96 -127 -128 -141 -142 -154 -155 -166 -167 -177 -178 -188 0
-21 -41 -42 -59 -61 -95 -96 -127 -128 -141 -142 -154 -155 -166 -167 -177 -178 -188 0
-22 -41 -43 -59 -61 -95 -96 -127 -128 -141 -142 -154 -155 -166 -167 -177 -178 -188 0
-22 -42 -43 -59 -62 -95 -96 -127 -128 -141 -142 -154 -155 -166 -167 -177 -178 -188 0
-21 -41 -42 -60 -61 -95 -97 -127 -128 -141 -142 -154 -155 -166 -167 -177 -178 -188 0
-22 -41 -43 -60 -61 -95 -97 -127 -128 -141 -142 -154 -155 -166 -167 -177 -178 -188 0
-22 -42 -43 -60 -62 -95 -97 -127 -128 -141 -142 -154 -155 -166 -167 -177 -178 -188 0
-22 -42 -43 -61 -62 -95 -98 -127 -128 -141 -142 -154 -155 -166 -167 -177 -178 -188 0
-21 -41 -42 -60 -61 -96 -97 -127 -129 -141 -142 -154 -155 -166 -167 -177 -178 -188 0
-22 -41 -43 -60 -61 -96 -97 -127 -129 -141 -142 -154 -155 -166 -167 -177 -178 -188 0
-22 -42 -43 -60 -62 -96 -97 -127 -129 -141 -142 -154 -155 -166 -167 -177 -178 -188 0
-22 -42 -43 -61 -62 -96 -98 -127 -129 -141 -142 -154 -155 -166 -167 -177 -178 -188 0
-22 -42 -43 -61 -62 -97 -98 -127 -130 -141 -142 -154 -155 -166 -167 -177 -178 -188 0
-21 -41 -42 -60 -61 -96 -97 -128 -129 -141 -143 -154 -155 -166 -167 -177 -178 -188 0
-22 -41 -43 -60 -61 -96 -97 -128 -129 -141 -143 -154 -155 -166 -167 -177 -178 -188 0
-22 -42 -43 -60 -62 -96 -97 -128 -129 -141 -143 -154 -155 -166 -167 -177 -178 -188 0
-22 -42 -43 -61 -62 -96 -98 -128 -129 -141 -143 -154 -155 -166 -167 -177 -178 -188 0
-22 -42 -43 -61 -62 -97 -98 -128 -130 -141 -143 -154 -155 -166 -167 -177 -178 -188 0
-22 -42 -43 -61 -62 -97 -98 -129 -130 -141 -144 -154 -155 -166 -167 -177 -178 -188 0
-21 -41 -42 -60 -61 -96 -97 -128 -129 -142 -143 -154 -156 -166 -167 -177 -178 -188 0
-22 -41 -43 -60 -61 -96 -97 -128 -129 -142 -143 -154 -156 -166 -167 -177 -178 -188 0
-22 -42 -43 -60 -62 -96 -97 -128 -129 -142 -143 -154 -156 -166 -167 -177 -178 -188 0
-22 -42 -43 -61 -62 -96 -98 -128 -129 -142 -143 -154 -156 -166 -167 -177 -178 -188 0
-22 -42 -43 -61 -62 -97 -98 -128 -130 -142 -143 -154 -156 -166 -167 -177 -178 -188 0
-22 -42 -43 -61 -62 -97 -98 -129 -130 -142 -144 -154 -156 -166 -167 -177 -178 -188 0
-22 -42 -43 -61 -62 -97 -98 -129 -130 -143 -144 -154 -157 -166 -167 -177 -178 -188 0
-21 -41 -42 -60 -61 -96 -97 -128 -129 -142 -143 -155 -156 -166 -168 -177 -178 -188 0
-22 -41 -43 -60 -61 -96 -97 -128 -129 -142 -143 -155 -156 -166 -168 -177 -178 -188 0
-22 -42 -43 -60 -62 -96 -97 -128 -129 -142 -143 -155 -156 -166 -168 -177 -178 -188 0
-22 -42 -43 -61 -62 -96 -98 -128 -129 -142 -143 -155 -156 -166 -168 -177 -178 -188 0
-22 -42 -43 -61 -62 -97 -98 -128 -130 -142 -143 -155 -156 -166 -168 -177 -178 -188 0
-22 -42 -43 -61 -62 -97 -98 -129 -130 -142 -144 -155 -156 -166 -168 -177 -178 -188 0
-22 -42 -43 -61 -62 -97 -98 -129 -130 -143 -144 -155 -157 -166 -168 -177 -178 -188 0
-22 -42 -43 -61 -62 -97 -98 -129 -130 -143 -144 -156 -157 -166 -169 -177 -178 -188 0
-21 -41 -42 -60 -61 -96 -97 -128 -129 -142 -143 -155 -156 -167 -168 -177 -179 -188 0
-22 -41 -43 -60 -61 -96 -97 -128 -129 -142 -143 -155 -156 -167 -168 -177 -179 -188 0
-22 -42 -43 -60 -62 -96 -97 -128 -129 -142 -143 -155 -156 -167 -168 -177 -179 -188 0
-22 -42 -43 -61 -62 -96 -98 -128 -129 -142 -143 -155 -156 -167 -168 -177 -179 -188 0
-22 -42 -43 -61 -62 -97 -98 -128 -130 -142 -143 -155 -156 -167 -168 -177 -179 -188 0
-22 -42 -43 -61 -62 -97 -98 -129 -130 -142 -144 -155 -156 -167 -168 -177 -179 -188 0
-22 -42 -43 -61 -62 -97 -98 -129 -130 -143 -144 -155 -157 -167 -168 -177 -179 -188 0
-22 -42 -43 -61 -62 -97 -98 -129 -130 -143 -144 -156 -157 -167 -169 -177 -179 -188 0
-22 -42 -43 -61 -62 -97 -98 -129 -130 -143 -144 -156 -157 -168 -169 -177 -180 -188 0
-21 -41 -42 -60 -61 -96 -97 -128 -129 -142 -143 -155 -156 -167 -168 -178 -179 -189 0
-22 -41 -43 -60 -61 -96 -97 -128 -129 -142 -143 -155 -156 -167 -168 -178 -179 -189 0
-22 -42 -43 -60 -62 -96 -97 -128 -129 -142 -143 -155 -156 -167 -168 -178 -179 -189 0
-22 -42 -43 -61 -62 -96 -98 -128 -129 -142 -143 -155 -156 -167 -168 -178 -179 -189 0
-22 -42 -43 -61 -62 -97 -98 -128 -130 -142 -143 -155 -156 -167 -168 -178 -179 -189 0
-22 -42 -43 -61 -62 -97 -98 -129 -130 -142 -144 -155 -156 -167 -168 -178 -179 -189 0
-22 -42 -43 -61 -62 -97 -98 -129 -130 -143 -144 -155 -157 -167 -168 -178 -179 -189 0
-22 -42 -43 -61 -62 -97 -98 -129 -130 -143 -144 -156 -157 -167 -169 -178 -179 -189 0
-22 -42 -43 -61 -62 -97 -98 -129 -130 -143 -144 -156 -157 -168 -169 -178 -180 -189 0
-22 -42 -43 -61 -62 -97 -98 -129 -130 -143 -144 -156 -157 -168 -169 -179 -180 -190 0
-21 -41 -42 -60 -61 -96 -97 -128 -129 -142 -143 -155 -156 -167 -168 -178 -179 -199 0
-22 -41 -43 -60 -61 -96 -97 -128 -129 -142 -143 -155 -156 -167 -168 -178 -179 -199 0
-22 -42 -43 -60 -62 -96 -97 -128 -129 -142 -143 -155 -156 -167 -168 -178 -179 -199 0
-22 -42 -43 -61 -62 -96 -98 -128 -129 -142 -143 -155 -156 -167 -168 -178 -179 -199 0
-22 -42 -43 -61 -62 -97 -98 -128 -130 -142 -143 -155 -156 -167 -168 -178 -179 -199 0
-22 -42 -43 -61 -62 -97 -98 -129 -130 -142 -144 -155 -156 -167 -168 -178 -179 -199 0
-22 -42 -43 -61 -62 -97 -98 -129 -130 -143 -144 -155 -157 -167 -168 -178 -179 -199 0
-22 -42 -43 -61 -62 -97 -98 -129 -130 -143 -144 -156 -157 -167 -169 -178 -179 -199 0
-22 -42 -43 -61 -62 -97 -98 -129 -130 -143 -144 -156 -157 -168 -169 -178 -180 -199 0
-22 -42 -43 -61 -62 -97 -98 -129 -130 -143 -144 -156 -157 -168 -169 -179 -180 -200 0
-22 -42 -43 -61 -62 -97 -98 -129 -130 -143 -144 -156 -157 -168 -169 -179 -180 -209 0
-21 -41 -42 -60 -61 -96 -97 -128 -129 -142 -143 -155 -156 -167 -168 -189 -190 -199 0
-22 -41 -43 -60 -61 -96 -97 -128 -129 -142 -143 -155 -156 -167 -168 -189 -190 -199 0
-22 -42 -43 -60 -62 -96 -97 -128 -129 -142 -143 -155 -156 -167 -168 -189 -190 -199 0
-22 -42 -43 -61 -62 -96 -98 -128 -129 -142 -143 -155 -156 -167 -168 -189 -190 -199 0
-22 -42 -43 -61 -62 -97 -98 -128 -130 -142 -143 -155 -156 -167 -168 -189 -190 -199 0
-22 -42 -43 -61 -62 -97 -98 -129 -130 -142 -144 -155 -156 -167 -168 -189 -190 -199 0
-22 -42 -43 -61 -62 -97 -98 -129 -130 -143 -144 -155 -157 -167 -168 -189 -190 -199 0
-22 -42 -43 -61 -62 -97 -98 -129 -130 -143 -144 -156 -157 -167 -169 -189 -190 -199 0
-22 -42 -43 -61 -62 -97 -98 -129 -130 -143 -144 -156 -157 -168 -169 -189 -191 -199 0
-22 -42 -43 -61 -62 -97 -98 -129 -130 -143 -144 -156 -157 -168 -169 -190 -191 -200 0
-22 -42 -43 -61 -62 -97 -98 -129 -130 -143 -144 -156 -157 -168 -169 -190 -191 -209 0
-22 -42 -43 -61 -62 -97 -98 -129 -130 -143 -144 -156 -157 -168 -169 -200 -201 -209 0
-21 -41 -42 -60 -61 -96 -97 -128 -129 -142 -143 -155 -156 -179 -180 -189 -190 -199 0
-22 -41 -43 -60 -61 -96 -97 -128 -129 -142 -143 -155 -156 -179 -180 -189 -190 -199 0
-22 -42 -43 -60 -62 -96 -97 -128 -129 -142 -143 -155 -156 -179 -180 -189 -190 -199 0
-22 -42 -43 -61 -62 -96 -98 -128 -129 -142 -143 -155 -156 -179 -180 -189 -190 -199 0
-22 -42 -43 -61 -62 -97 -98 -128 -130 -142 -143 -155 -156 -179 -180 -189 -190 -199 0
-22 -42 -43 -61 -62 -97 -98 -129 -130 -142 -144 -155 -156 -179 -180 -189 -190 -199 0
-22 -42 -43 -61 -62 -97 -98 -129 -130 -143 -144 -155 -157 -179 -180 -189 -190 -199 0
-22 -42 -43 -61 -62 -97 -98 -129 -130 -143 -144 -156 -157 -179 -181 -189 -190 -199 0
-22 -42 -43 -61 -62 -97 -98 -129 -130 -143 -144 -156 -157 -180 -181 -189 -191 -199 0
-22 -42 -43 -61 -62 -97 -98 -129 -130 -143 -144 -156 -157 -180 -181 -190 -191 -200 0
-22 -42 -43 -61 -62 -97 -98 -129 -130 -143 -144 -156 -157 -180 -181 -190 -191 -209 0
-22 -42 -43 -61 -62 -97 -98 -129 -130 -143 -144 -156 -157 -180 -181 -200 -201 -209 0
-22 -42 -43 -61 -62 -97 -98 -129 -130 -143 -144 -156 -157 -191 -192 -200 -201 -209 0
-21 -41 -42 -60 -61 -96 -97 -128 -129 -142 -143 -168 -169 -179 -180 -189 -190 -199 0
-22 -41 -43 -60 -61 -96 -97 -128 -129 -142 -143 -168 -169 -179 -180 -189 -190 -199 0
-22 -42 -43 -60 -62 -96 -97 -128 -129 -142 -143 -168 -169 -179 -180 -189 -190 -199 0
-22 -42 -43 -61 -62 -96 -98 -128 -129 -142 -143 -168 -169 -179 -180 -189 -190 -199 0
-22 -42 -43 -61 -62 -97 -98 -128 -130 -142 -143 -168 -169 -179 -180 -189 -190 -199 0
-22 -42 -43 -61 -62 -97 -98 -129 -130 -142 -144 -168 -169 -179 -180 -189 -190 -199 0
-22 -42 -43 -61 -62 -97 -98 -129 -130 -143 -144 -168 -170 -179 -180 -189 -190 -199 0
-22 -42 -43 -61 -62 -97 -98 -129 -130 -143 -144 -169 -170 -179 -181 -189 -190 -199 0
-22 -42 -43 -61 -62 -97 -98 -129 -130 -143 -144 -169 -170 -180 -181 -189 -191 -199 0
-22 -42 -43 -61 -62 -97 -98 -129 -130 -143 -144 -169 -170 -180 -181 -190 -191 -200 0
-22 -42 -43 -61 -62 -97 -98 -129 -130 -143 -144 -169 -170 -180 -181 -190 -191 -209 0
-22 -42 -43 -61 -62 -97 -98 -129 -130 -143 -144 -169 -170 -180 -181 -200 -201 -209 0
-22 -42 -43 -61 -62 -97 -98 -129 -130 -143 -144 -169 -170 -191 -192 -200 -201 -209 0
-22 -42 -43 -61 -62 -97 -98 -129 -130 -143 -144 -181 -182 -191 -192 -200 -201 -209 0
-21 -41 -42 -60 -61 -96 -97 -128 -129 -156 -157 -168 -169 -179 -180 -189 -190 -199 0
-22 -41 -43 -60 -61 -96 -97 -128 -129 -156 -157 -168 -169 -179 -180 -189 -190 -199 0
-22 -42 -43 -60 -62 -96 -97 -128 -129 -156 -157 -168 -169 -179 -180 -189 -190 -199 0
-22 -42 -43 -61 -62 -96 -98 -128 -129 -156 -157 -168 -169 -179 -180 -189 -190 -199 0
-22 -42 -43 -61 -62 -97 -98 -128 -130 -156 -157 -168 -169 -179 -180 -189 -190 -199 0
-22 -42 -43 -61 -62 -97 -98 -129 -130 -156 -158 -168 -169 -179 -180 -189 -190 -199 0
-22 -42 -43 -61 -62 -97 -98 -129 -130 -157 -158 -168 -170 -179 -180 -189 -190 -199 0
-22 -42 -43 -61 -62 -97 -98 -129 -130 -157 -158 -169 -170 -179 -181 -189 -190 -199 0
-22 -42 -43 -61 -62 -97 -98 -129 -130 -157 -158 -169 -170 -180 -181 -189 -191 -199 0
-22 -42 -43 -61 -62 -97 -98 -129 -130 -157 -158 -169 -170 -180 -181 -190 -191 -200 0
-22 -42 -43 -61 -62 -97 -98 -129 -130 -157 -158 -169 -170 -180 -181 -190 -191 -209 0
-22 -42 -43 -61 -62 -97 -98 -129 -130 -157 -158 -169 -170 -180 -181 -200 -201 -209 0
-22 -42 -43 -61 -62 -97 -98 -129 -130 -157 -158 -169 -170 -191 -192 -200 -201 -209 0
-22 -42 -43 -61 -62 -97 -98 -129 -130 -157 -158 -181 -182 -191 -192 -200 -201 -209 0
-22 -42 -43 -61 -62 -97 -98 -129 -130 -170 -171 -181 -182 -191 -192 -200 -201 -209 0
-21 -41 -42 -60 -61 -96 -97 -143 -144 -156 -157 -168 -169 -179 -180 -189 -190 -199 0
-22 -41 -43 -60 -61 -96 -97 -143 -144 -156 -157 -168 -169 -179 -180 -189 -190 -199 0
-22 -42 -43 -60 -62 -96 -97 -143 -144 -156 -157 -168 -169 -179 -180 -189 -190 -199 0
-22 -42 -43 -61 -62 -96 -98 -143 -144 -156 -157 -168 -169 -179 -180 -189 -190 -199 0
-22 -42 -43 -61 -62 -97 -98 -143 -145 -156 -157 -168 -169 -179 -180 -189 -190 -199 0
-22 -42 -43 -61 -62 -97 -98 -144 -145 -156 -158 -168 -169 -179 -180 -189 -190 -199 0
-22 -42 -43 -61 -62 -97 -98 -144 -145 -157 -158 -168 -170 -179 -180 -189 -190 -199 0
-22 -42 -43 -61 -62 -97 -98 -144 -145 -157 -158 -169 -170 -179 -181 -189 -190 -199 0
-22 -42 -43 -61 -62 -97 -98 -144 -145 -157 -158 -169 -170 -180 -181 -189 -191 -199 0
-22 -42 -43 -61 -62 -97 -98 -144 -145 -157 -158 -169 -170 -180 -181 -190 -191 -200 0
-22 -42 -43 -61 -62 -97 -98 -144 -145 -157 -158 -169 -170 -180 -181 -190 -191 -209 0
-22 -42 -43 -61 -62 -97 -98 -144 -145 -157 -158 -169 -170 -180 -181 -200 -201 -209 0
-22 -42 -43 -61 -62 -97 -98 -144 -145 -157 -158 -169 -170 -191 -192 -200 -201 -209 0
-22 -42 -43 -61 -62 -97 -98 -144 -145 -157 -158 -181 -182 -191 -192 -200 -201 -209 0
-22 -42 -43 -61 -62 -97 -98 -144 -145 -170 -171 -181 -182 -191 -192 -200 -201 -209 0
-22 -42 -43 -61 -62 -97 -98 -158 -159 -170 -171 -181 -182 -191 -192 -200 -201 -209 0
-20 -40 -41 -59 -60 -112 -113 -127 -128 -141 -142 -154 -155 -166 -167 -177 -178 -188 0
-21 -40 -42 -59 -60 -112 -113 -127 -128 -141 -142 -154 -155 -166 -167 -177 -178 -188 0
-22 -40 -43 -59 -60 -112 -113 -127 -128 -141 -142 -154 -155 -166 -167 -177 -178 -188 0
-21 -41 -42 -59 -61 -112 -113 -127 -128 -141 -142 -154 -155 -166 -167 -177 -178 -188 0
-22 -41 -43 -59 -61 -112 -113 -127 -128 -141 -142 -154 -155 -166 -167 -177 -178 -188 0
-22 -42 -43 -59 -62 -112 -113 -127 -128 -141 -142 -154 -155 -166 -167 -177 -178 -188 0
-21 -41 -42 -60 -61 -112 -114 -127 -128 -141 -142 -154 -155 -166 -167 -177 -178 -188 0
-22 -41 -43 -60 -61 -112 -114 -127 -128 -141 -142 -154 -155 -166 -167 -177 -178 -188 0
-22 -42 -43 -60 -62 -112 -114 -127 -128 -141 -142 -154 -155 -166 -167 -177 -178 -188 0
-22 -42 -43 -61 -62 -112 -115 -127 -128 -141 -142 -154 -155 -166 -167 -177 -178 -188 0
-21 -41 -42 -60 -61 -113 -114 -127 -129 -141 -142 -154 -155 -166 -167 -177 -178 -188 0
-22 -41 -43 -60 -61 -113 -114 -127 -129 -141 -142 -154 -155 -166 -167 -177 -178 -188 0
-22 -42 -43 -60 -62 -113 -114 -127 -129 -141 -142 -154 -155 -166 -167 -177 -178 -188 0
-22 -42 -43 -61 -62 -113 -115 -127 -129 -141 -142 -154 -155 -166 -167 -177 -178 -188 0
-22 -42 -43 -61 -62 -114 -115 -127 -130 -141 -142 -154 -155 -166 -167 -177 -178 -188 0
-21 -41 -42 -60 -61 -113 -114 -128 -129 -141 -143 -154 -155 -166 -167 -177 -178 -188 0
-22 -41 -43 -60 -61 -113 -114 -128 -129 -141 -143 -154 -155 -166 -167 -177 -178 -188 0
-22 -42 -43 -60 -62 -113 -114 -128 -129 -141 -143 -154 -155 -166 -167 -177 -178 -188 0
-22 -42 -43 -61 -62 -113 -115 -128 -129 -141 -143 -154 -155 -166 -167 -177 -178 -188 0
-22 -42 -43 -61 -62 -114 -115 -128 -130 -141 -143 -154 -155 -166 -167 -177 -178 -188 0
-22 -42 -43 -61 -62 -114 -115 -129 -130 -141 -144 -154 -155 -166 -167 -177 -178 -188 0
-21 -41 -42 -60 -61 -113 -114 -128 -129 -142 -143 -154 -156 -166 -167 -177 -178 -188 0
-22 -41 -43 -60 -61 -113 -114 -128 -129 -142 -143 -154 -156 -166 -167 -177 -178 -188 0
-22 -42 -43 -60 -62 -113 -114 -128 -129 -142 -143 -154 -156 -166 -167 -177 -178 -188 0
-22 -42 -43 -61 -62 -113 -115 -128 -129 -142 -143 -154 -156 -166 -167 -177 -178 -188 0
-22 -42 -43 -61 -62 -114 -115 -128 -130 -142 -143 -154 -156 -166 -167 -177 -178 -188 0
-22 -42 -43 -61 -62 -114 -115 -129 -130 -142 -144 -154 -156 -166 -167 -177 -178 -188 0
-22 -42 -43 -61 -62 -114 -115 -129 -130 -143 -144 -154 -157 -166 -167 -177 -178 -188 0
-21 -41 -42 -60 -61 -113 -114 -128 -129 -142 -143 -155 -156 -166 -168 -177 -178 -188 0
-22 -41 -43 -60 -61 -113 -114 -128 -129 -142 -143 -155 -156 -166 -168 -177 -178 -188 0
-22 -42 -43 -60 -62 -113 -114 -128 -129 -142 -143 -155 -156 -166 -168 -177 -178 -188 0
-22 -42 -43 -61 -62 -113 -115 -128 -129 -142 -143 -155 -156 -166 -168 -177 -178 -188 0
-22 -42 -43 -61 -62 -114 -115 -128 -130 -142 -143 -155 -156 -166 -168 -177 -178 -188 0
-22 -42 -43 -61 -62 -114 -115 -129 -130 -142 -144 -155 -156 -166 -168 -177 -178 -188 0
-22 -42 -43 -61 -62 -114 -115 -129 -130 -143 -144 -155 -157 -166 -168 -177 -178 -188 0
-22 -42 -43 -61 -62 -114 -115 -129 -130 -143 -144 -156 -157 -166 -169 -177 -178 -188 0
-21 -41 -42 -60 -61 -113 -114 -128 -129 -142 -143 -155 -156 -167 -168 -177 -179 -188 0
-22 -41 -43 -60 -61 -113 -114 -128 -129 -142 -143 -155 -156 -167 -168 -177 -179 -188 0
-22 -42 -43 -60 -62 -113 -114 -128 -129 -142 -143 -155 -156 -167 -168 -177 -179 -188 0
-22 -42 -43 -61 -62 -113 -115 -128 -129 -142 -143 -155 -156 -167 -168 -177 -179 -188 0
-22 -42 -43 -61 -62 -114 -115 -128 -130 -142 -143 -155 -156 -167 -168 -177 -179 -188 0
-22 -42 -43 -61 -62 -114 -115 -129 -130 -142 -144 -155 -156 -167 -168 -177 -179 -188 0
-22 -42 -43 -61 -62 -114 -115 -129 -130 -143 -144 -155 -157 -167 -168 -177 -179 -188 0
-22 -42 -43 -61 -62 -114 -115 -129 -130 -143 -144 -156 -157 -167 -169 -177 -179 -188 0
-22 -42 -43 -61 -62 -114 -115 -129 -130 -143 -144 -156 -157 -168 -169 -177 -180 -188 0
-21 -41 -42 -60 -61 -113 -114 -128 -129 -142 -143 -155 -156 -167 -168 -178 -179 -189 0
-22 -41 -43 -60 -61 -113 -114 -128 -129 -142 -143 -155 -156 -167 -168 -178 -179 -189 0
-22 -42 -43 -60 -62 -113 -114 -128 -129 -142 -143 -155 -156 -167 -168 -178 -179 -189 0
-22 -42 -43 -61 -62 -113 -115 -128 -129 -142 -143 -155 -156 -167 -168 -178 -179 -189 0
-22 -42 -43 -61 -62 -114 -115 -128 -130 -142 -143 -155 -156 -167 -168 -178 -179 -189 0
-22 -42 -43 -61 -62 -114 -115 -129 -130 -142 -144 -155 -156 -167 -168 -178 -179 -189 0
-22 -42 -43 -61 -62 -114 -115 -129 -130 -143 -144 -155 -157 -167 -168 -178 -179 -189 0
-22 -42 -43 -61 -62 -114 -115 -129 -130 -143 -144 -156 -157 -167 -169 -178 -179 -189 0
-22 -42 -43 -61 -62 -114 -115 -129 -130 -143 -144 -156 -157 -168 -169 -178 -180 -189 0
-22 -42 -43 -61 -62 -114 -115 -129 -130 -143 -144 -156 -157 -168 -169 -179 -180 -190 0
-21 -41 -42 -60 -61 -113 -114 -128 -129 -142 -143 -155 -156 -167 -168 -178 -179 -199 0
-22 -41 -43 -60 -61 -113 -114 -128 -129 -142 -143 -155 -156 -167 -168 -178 -179 -199 0
-22 -42 -43 -60 -62 -113 -114 -128 -129 -142 -143 -155 -156 -167 -168 -178 -179 -199 0
-22 -42 -43 -61 -62 -113 -115 -128 -129 -142 -143 -155 -156 -167 -168 -178 -179 -199 0
-22 -42 -43 -61 -62 -114 -115 -128 -130 -142 -143 -155 -156 -167 -168 -178 -179 -199 0
-22 -42 -43 -61 -62 -114 -115 -129 -130 -142 -144 -155 -156 -167 -168 -178 -179 -199 0
-22 -42 -43 -61 -62 -114 -115 -129 -130 -143 -144 -155 -157 -167 -168 -178 -179 -199 0
-22 -42 -43 -61 -62 -114 -115 -129 -130 -143 -144 -156 -157 -167 -169 -178 -179 -199 0
-22 -42 -43 -61 -62 -114 -115 -129 -130 -143 -144 -156 -157 -168 -169 -178 -180 -199 0
-22 -42 -43 -61 -62 -114 -115 -129 -130 -143 -144 -156 -157 -168 -169 -179 -180 -200 0
-22 -42 -43 -61 -62 -114 -115 -129 -130 -143 -144 -156 -157 -168 -169 -179 -180 -209 0
-21 -41 -42 -60 -61 -113 -114 -128 -129 -142 -143 -155 -156 -167 -168 -189 -190 -199 0
-22 -41 -43 -60 -61 -113 -114 -128 -129 -142 -143 -155 -156 -167 -168 -189 -190 -199 0
-22 -42 -43 -60 -62 -113 -114 -128 -129 -142 -143 -155 -156 -167 -168 -189 -190 -199 0
-22 -42 -43 -61 -62 -113 -115 -128 -129 -142 -143 -155 -156 -167 -168 -189 -190 -199 0
-22 -42 -43 -61 -62 -114 -115 -128 -130 -142 -143 -155 -156 -167 -168 -189 -190 -199 0
-22 -42 -43 -61 -62 -114 -115 -129 -130 -142 -144 -155 -156 -167 -168 -189 -190 -199 0
-22 -42 -43 -61 -62 -114 -115 -129 -130 -143 -144 -155 -157 -167 -168 -189 -190 -199 0
-22 -42 -43 -61 -62 -114 -115 -129 -130 -143 -144 -156 -157 -167 -169 -189 -190 -199 0
-22 -42 -43 -61 -62 -114 -115 -129 -130 -143 -144 -156 -157 -168 -169 -189 -191 -199 0
-22 -42 -43 -61 -62 -114 -115 -129 -130 -143 -144 -156 -157 -168 -169 -190 -191 -200 0
-22 -42 -43 -61 -62 -114 -115 -129 -130 -143 -144 -156 -157 -168 -169 -190 -191 -209 0
-22 -42 -43 -61 -62 -114 -115 -129 -130 -143 -144 -156 -157 -168 -169 -200 -201 -209 0
-21 -41 -42 -60 -61 -113 -114 -128 -129 -142 -143 -155 -156 -179 -180 -189 -190 -199 0
-22 -41 -43 -60 -61 -113 -114 -128 -129 -142 -143 -155 -156 -179 -180 -189 -190 -199 0
-22 -42 -43 -60 -62 -113 -114 -128 -129 -142 -143 -155 -156 -179 -180 -189 -190 -199 0
-22 -42 -43 -61 -62 -113 -115 -128 -129 -142 -143 -155 -156 -179 -180 -189 -190 -199 0
-22 -42 -43 -61 -62 -114 -115 -128 -130 -142 -143 -155 -156 -179 -180 -189 -190 -199 0
-22 -42 -43 -61 -62 -114 -115 -129 -130 -142 -144 -155 -156 -179 -180 -189 -190 -199 0
-22 -42 -43 -61 -62 -114 -115 -129 -130 -143 -144 -155 -157 -179 -180 -189 -190 -199 0
-22 -42 -43 -61 -62 -114 -115 -129 -130 -143 -144 -156 -157 -179 -181 -189 -190 -199 0
-22 -42 -43 -61 -62 -114 -115 -129 -130 -143 -144 -156 -157 -180 -181 -189 -191 -199 0
-22 -42 -43 -61 -62 -114 -115 -129 -130 -143 -144 -156 -157 -180 -181 -190 -191 -200 0
-22 -42 -43 -61 -62 -114 -115 -129 -130 -143 -144 -156 -157 -180 -181 -190 -191 -209 0
-22 -42 -43 -61 -62 -114 -115 -129 -130 -143 -144 -156 -157 -180 -181 -200 -201 -209 0
-22 -42 -43 -61 -62 -114 -115 -129 -130 -143 -144 -156 -157 -191 -192 -200 -201 -209 0
-21 -41 -42 -60 -61 -113 -114 -128 -129 -142 -143 -168 -169 -179 -180 -189 -190 -199 0
-22 -41 -43 -60 -61 -113 -114 -128 -129 -142 -143 -168 -169 -179 -180 -189 -190 -199 0
-22 -42 -43 -60 -62 -113 -114 -128 -129 -142 -143 -168 -169 -179 -180 -189 -190 -199 0
-22 -42 -43 -61 -62 -113 -115 -128 -129 -142 -143 -168 -169 -179 -180 -189 -190 -199 0
-22 -42 -43 -61 -62 -114 -115 -128 -130 -142 -143 -168 -169 -179 -180 -189 -190 -199 0
-22 -42 -43 -61 -62 -114 -115 -129 -130 -142 -144 -168 -169 -179 -180 -189 -190 -199 0
-22 -42 -43 -61 -62 -114 -115 -129 -130 -143 -144 -168 -170 -179 -180 -189 -190 -199 0
-22 -42 -43 -61 -62 -114 -115 -129 -130 -143 -144 -169 -170 -179 -181 -189 -190 -199 0
-22 -42 -43 -61 -62 -114 -115 -129 -130 -143 -144 -169 -170 -180 -181 -189 -191 -199 0
-22 -42 -43 -61 -62 -114 -115 -129 -130 -143 -144 -169 -170 -180 -181 -190 -191 -200 0
-22 -42 -43 -61 -62 -114 -115 -129 -130 -143 -144 -169 -170 -180 -181 -190 -191 -209 0
-22 -42 -43 -61 -62 -114 -115 -129 -130 -143 -144 -169 -170 -180 -181 -200 -201 -209 0
-22 -42 -43 -61 -62 -114 -115 -129 -130 -143 -144 -169 -170 -191 -192 -200 -201 -209 0
-22 -42 -43 -61 -62 -114 -115 -129 -130 -143 -144 -181 -182 -191 -192 -200 -201 -209 0
-21 -41 -42 -60 -61 -113 -114 -128 -129 -156 -157 -168 -169 -179 -180 -189 -190 -199 0
-22 -41 -43 -60 -61 -113 -114 -128 -129 -156 -157 -168 -169 -179 -180 -189 -190 -199 0
-22 -42 -43 -60 -62 -113 -114 -128 -129 -156 -157 -168 -169 -179 -180 -189 -190 -199 0
-22 -42 -43 -61 -62 -113 -115 -128 -129 -156 -157 -168 -169 -179 -180 -189 -190 -199 0
-22 -42 -43 -61 -62 -114 -115 -128 -130 -156 -157 -168 -169 -179 -180 -189 -190 -199 0
-22 -42 -43 -61 -62 -114 -115 -129 -130 -156 -158 -168 -169 -179 -180 -189 -190 -199 0
-22 -42 -43 -61 -62 -114 -115 -129 -130 -157 -158 -168 -170 -179 -180 -189 -190 -199 0
-22 -42 -43 -61 -62 -114 -115 -129 -130 -157 -158 -169 -170 -179 -181 -189 -190 -199 0
-22 -42 -43 -61 -62 -114 -115 -129 -130 -157 -158 -169 -170 -180 -181 -189 -191 -199 0
-22 -42 -43 -61 -62 -114 -115 -129 -130 -157 -158 -169 -170 -180 -181 -190 -191 -200 0
-22 -42 -43 -61 -62 -114 -115 -129 -130 -157 -158 -169 -170 -180 -181 -190 -191 -209 0
-22 -42 -43 -61 -62 -114 -115 -129 -130 -157 -158 -169 -170 -180 -181 -200 -201 -209 0
-22 -42 -43 -61 -62 -114 -115 -129 -130 -157 -158 -169 -170 -191 -192 -200 -201 -209 0
-22 -42 -43 -61 -62 -114 -115 -129 -130 -157 -158 -181 -182 -191 -192 -200 -201 -209 0
-22 -42 -43 -61 -62 -114 -115 -129 -130 -170 -171 -181 -182 -191 -192 -200 -201 -209 0
-21 -41 -42 -60 -61 -113 -114 -143 -144 -156 -157 -168 -169 -179 -180 -189 -190 -199 0
-22 -41 -43 -60 -61 -113 -114 -143 -144 -156 -157 -168 -169 -179 -180 -189 -190 -199 0
-22 -42 -43 -60 -62 -113 -114 -143 -144 -156 -157 -168 -169 -179 -180 -189 -190 -199 0
-22 -42 -43 -61 -62 -113 -115 -143 -144 -156 -157 -168 -169 -179 -180 -189 -190 -199 0
-22 -42 -43 -61 -62 -114 -115 -143 -145 -156 -157 -168 -169 -179 -180 -189 -190 -199 0
-22 -42 -43 -61 -62 -114 -115 -144 -145 -156 -158 -168 -169 -179 -180 -189 -190 -199 0
-22 -42 -43 -61 -62 -114 -115 -144 -145 -157 -158 -168 -170 -179 -180 -189 -190 -199 0
-22 -42 -43 -61 -62 -114 -115 -144 -145 -157 -158 -169 -170 -179 -181 -189 -190 -199 0
-22 -42 -43 -61 -62 -114 -115 -144 -145 -157 -158 -169 -170 -180 -181 -189 -191 -199 0
-22 -42 -43 -61 -62 -114 -115 -144 -145 -157 -158 -169 -170 -180 -181 -190 -191 -200 0
-22 -42 -43 -61 -62 -114 -115 -144 -145 -157 -158 -169 -170 -180 -181 -190 -191 -209 0
-22 -42 -43 -61 -62 -114 -115 -144 -145 -157 -158 -169 -170 -180 -181 -200 -201 -209 0
-22 -42 -43 -61 -62 -114 -115 -144 -145 -157 -158 -169 -170 -191 -192 -200 -201 -209 0
-22 -42 -43 -61 -62 -114 -115 -144 -145 -157 -158 -181 -182 -191 -192 -200 -201 -209 0
-22 -42 -43 -61 -62 -114 -115 -144 -145 -170 -171 -181 -182 -191 -192 -200 -201 -209 0
-22 -42 -43 -61 -62 -114 -115 -158 -159 -170 -171 -181 -182 -191 -192 -200 -201 -209 0
-21 -41 -42 -60 -61 -129 -130 -143 -144 -156 -157 -168 -169 -179 -180 -189 -190 -199 0
-22 -41 -43 -60 -61 -129 -130 -143 -144 -156 -157 -168 -169 -179 -180 -189 -190 -199 0
-22 -42 -43 -60 -62 -129 -130 -143 -144 -156 -157 -168 -169 -179 -180 -189 -190 -199 0
-22 -42 -43 -61 -62 -129 -131 -143 -144 -156 -157 -168 -169 -179 -180 -189 -190 -199 0
-22 -42 -43 -61 -62 -130 -131 -143 -145 -156 -157 -168 -169 -179 -180 -189 -190 -199 0
-22 -42 -43 -61 -62 -130 -131 -144 -145 -156 -158 -168 -169 -179 -180 -189 -190 -199 0
-22 -42 -43 -61 -62 -130 -131 -144 -145 -157 -158 -168 -170 -179 -180 -189 -190 -199 0
-22 -42 -43 -61 -62 -130 -131 -144 -145 -157 -158 -169 -170 -179 -181 -189 -190 -199 0
-22 -42 -43 -61 -62 -130 -131 -144 -145 -157 -158 -169 -170 -180 -181 -189 -191 -199 0
-22 -42 -43 -61 -62 -130 -131 -144 -145 -157 -158 -169 -170 -180 -181 -190 -191 -200 0
-22 -42 -43 -61 -62 -130 -131 -144 -145 -157 -158 -169 -170 -180 -181 -190 -191 -209 0
-22 -42 -43 -61 -62 -130 -131 -144 -145 -157 -158 -169 -170 -180 -181 -200 -201 -209 0
-22 -42 -43 -61 -62 -130 -131 -144 -145 -157 -158 -169 -170 -191 -192 -200 -201 -209 0
-22 -42 -43 -61 -62 -130 -131 -144 -145 -157 -158 -181 -182 -191 -192 -200 -201 -209 0
-22 -42 -43 -61 -62 -130 -131 -144 -145 -170 -171 -181 -182 -191 -192 -200 -201 -209 0
-22 -42 -43 -61 -62 -130 -131 -158 -159 -170 -171 -181 -182 -191 -192 -200 -201 -209 0
-22 -42 -43 -61 -62 -145 -146 -158 -159 -170 -171 -181 -182 -191 -192 -200 -201 -209 0
-19 -39 -40 -77 -78 -94 -95 -110 -111 -125 -126 -139 -140 -152 -153 -164 -165 -176 0
-20 -39 -41 -77 -78 -94 -95 -110 -111 -125 -126 -139 -140 -152 -153 -164 -165 -176 0
-21 -39 -42 -77 -78 -94 -95 -110 -111 -125 -126 -139 -140 -152 -153 -164 -165 -176 0
-22 -39 -43 -77 -78 -94 -95 -110 -111 -125 -126 -139 -140 -152 -153 -164 -165 -176 0
-20 -40 -41 -77 -79 -94 -95 -110 -111 -125 -126 -139 -140 -152 -153 -164 -165 -176 0
-21 -40 -42 -77 -79 -94 -95 -110 -111 -125 -126 -139 -140 -152 -153 -164 -165 -176 0
-22 -40 -43 -77 -79 -94 -95 -110 -111 -125 -126 -139 -140 -152 -153 -164 -165 -176 0
-21 -41 -42 -77 -80 -94 -95 -110 -111 -125 -126 -139 -140 -152 -153 -164 -165 -176 0
-22 -41 -43 -77 -80 -94 -95 -110 -111 -125 -126 -139 -140 -152 -153 -164 -165 -176 0
-22 -42 -43 -77 -81 -94 -95 -110 -111 -125 -126 -139 -140 -152 -153 -164 -165 -176 0
-20 -40 -41 -78 -79 -94 -96 -110 -111 -125 -126 -139 -140 -152 -153 -164 -165 -176 0
-21 -40 -42 -78 -79 -94 -96 -110 -111 -125 -126 -139 -140 -152 -153 -164 -165 -176 0
-22 -40 -43 -78 -79 -94 -96 -110 -111 -125 -126 -139 -140 -152 -153 -164 -165 -176 0
-21 -41 -42 -78 -80 -94 -96 -110 -111 -125 -126 -139 -140 -152 -153 -164 -165 -176 0
-22 -41 -43 -78 -80 -94 -96 -110 -111 -125 -126 -139 -140 -152 -153 -164 -165 -176 0
-22 -42 -43 -78 -81 -94 -96 -110 -111 -125 -126 -139 -140 -152 -153 -164 -165 -176 0
-21 -41 -42 -79 -80 -94 -97 -110 -111 -125 -126 -139 -140 -152 -153 -164 -165 -176 0
-22 -41 -43 -79 -80 -94 -97 -110 -111 -125 -126 -139 -140 -152 -153 -164 -165 -176 0
-22 -42 -43 -79 -81 -94 -97 -110 -111 -125 -126 -139 -140 -152 -153 -164 -165 -176 0
-22 -42 -43 -80 -81 -94 -98 -110 -111 -125 -126 -139 -140 -152 -153 -164 -165 -176 0
-20 -40 -41 -78 -79 -95 -96 -110 -112 -125 -126 -139 -140 -152 -153 -164 -165 -176 0
-21 -40 -42 -78 -79 -95 -96 -110 -112 -125 -126 -139 -140 -152 -153 -164 -165 -176 0
-22 -40 -43 -78 -79 -95 -96 -110 -112 -125 -126 -139 -140 -152 -153 -164 -165 -176 0
-21 -41 -42 -78 -80 -95 -96 -110 -112 -125 -126 -139 -140 -152 -153 -164 -165 -176 0
-22 -41 -43 -78 -80 -95 -96 -110 -112 -125 -126 -139 -140 -152 -153 -164 -165 -176 0
-22 -42 -43 -78 -81 -95 -96 -110 -112 -125 -126 -139 -140 -152 -153 -164 -165 -176 0
-21 -41 -42 -79 -80 -95 -97 -110 -112 -125 -126 -139 -140 -152 -153 -164 -165 -176 0
-22 -41 -43 -79 -80 -95 -97 -110 -112 -125 -126 -139 -140 -152 -153 -164 -165 -176 0
-22 -42 -43 -79 -81 -95 -97 -110 -112 -125 -126 -139 -140 -152 -153 -164 -165 -176 0
-22 -42 -43 -80 -81 -95 -98 -110 -112 -125 -126 -139 -140 -152 -153 -164 -165 -176 0
-21 -41 -42 -79 -80 -96 -97 -110 -113 -125 -126 -139 -140 -152 -153 -164 -165 -176 0
-22 -41 -43 -79 -80 -96 -97 -110 -113 -125 -126 -139 -140 -152 -153 -164 -165 -176 0
-22 -42 -43 -79 -81 -96 -97 -110 -113 -125 -126 -139 -140 -152 -153 -164 -165 -176 0
-22 -42 -43 -80 -81 -96 -98 -110 -113 -125 -126 -139 -140 -152 -153 -164 -165 -176 0
-22 -42 -43 -80 -81 -97 -98 -110 -114 -125 -126 -139 -140 -152 -153 -164 -165 -176 0
-20 -40 -41 -78 -79 -95 -96 -111 -112 -125 -127 -139 -140 -152 -153 -164 -165 -176 0
-21 -40 -42 -78 -79 -95 -96 -111 -112 -125 -127 -139 -140 -152 -153 -164 -165 -176 0
-22 -40 -43 -78 -79 -95 -96 -111 -112 -125 -127 -139 -140 -152 -153 -164 -165 -176 0
-21 -41 -42 -78 -80 -95 -96 -111 -112 -125 -127 -139 -140 -152 -153 -164 -165 -176 0
-22 -41 -43 -78 -80 -95 -96 -111 -112 -125 -127 -139 -140 -152 -153 -164 -165 -176 0
-22 -42 -43 -78 -81 -95 -96 -111 -112 -125 -127 -139 -140 -152 -153 -164 -165 -176 0
-21 -41 -42 -79 -80 -95 -97 -111 -112 -125 -127 -139 -140 -152 -153 -164 -165 -176 0
-22 -41 -43 -79 -80 -95 -97 -111 -112 -125 -127 -139 -140 -152 -153 -164 -165 -176 0
-22 -42 -43 -79 -81 -95 -97 -111 -112 -125 -127 -139 -140 -152 -153 -164 -165 -176 0
-22 -42 -43 -80 -81 -95 -98 -111 -112 -125 -127 -139 -140 -152 -153 -164 -165 -176 0
-21 -41 -42 -79 -80 -96 -97 -111 -113 -125 -127 -139 -140 -152 -153 -164 -165 -176 0
-22 -41 -43 -79 -80 -96 -97 -111 -113 -125 -127 -139 -140 -152 -153 -164 -165 -176 0
-22 -42 -43 -79 -81 -96 -97 -111 -113 -125 -127 -139 -140 -152 -153 -164 -165 -176 0
-22 -42 -43 -80 -81 -96 -98 -111 -113 -125 -127 -139 -140 -152 -153 -164 -165 -176 0
-22 -42 -43 -80 -81 -97 -98 -111 -114 -125 -127 -139 -140 -152 -153 -164 -165 -176 0
-21 -41 -42 -79 -80 -96 -97 -112 -113 -125 -128 -139 -140 -152 -153 -164 -165 -176 0
-22 -41 -43 -79 -80 -96 -97 -112 -113 -125 -128 -139 -140 -152 -153 -164 -165 -176 0
-22 -42 -43 -79 -81 -96 -97 -112 -113 -125 -128 -139 -140 -152 -153 -164 -165 -176 0
-22 -42 -43 -80 -81 -96 -98 -112 -113 -125 -128 -139 -140 -152 -153 -164 -165 -176 0
-22 -42 -43 -80 -81 -97 -98 -112 -114 -125 -128 -139 -140 -152 -153 -164 -165 -176 0
-22 -42 -43 -80 -81 -97 -98 -113 -114 -125 -129 -139 -140 -152 -153 -164 -165 -176 0
-20 -40 -41 -78 -79 -95 -96 -111 -112 -126 -127 -139 -141 -152 -153 -164 -165 -176 0
-21 -40 -42 -78 -79 -95 -96 -111 -112 -126 -127 -139 -141 -152 -153 -164 -165 -176 0
-22 -40 -43 -78 -79 -95 -96 -111 -112 -126 -127 -139 -141 -152 -153 -164 -165 -176 0
-21 -41 -42 -78 -80 -95 -96 -111 -112 -126 -127 -139 -141 -152 -153 -164 -165 -176 0
-22 -41 -43 -78 -80 -95 -96 -111 -112 -126 -127 -139 -141 -152 -153 -164 -165 -176 0
-22 -42 -43 -78 -81 -95 -96 -111 -112 -126 -127 -139 -141 -152 -153 -164 -165 -176 0
-21 -41 -42 -79 -80 -95 -97 -111 -112 -126 -127 -139 -141 -152 -153 -164 -165 -176 0
-22 -41 -43 -79 -80 -95 -97 -111 -112 -126 -127 -139 -141 -152 -153 -164 -165 -176 0
-22 -42 -43 -79 -81 -95 -97 -111 -112 -126 -127 -139 -141 -152 -153 -164 -165 -176 0
-22 -42 -43 -80 -81 -95 -98 -111 -112 -126 -127 -139 -141 -152 -153 -164 -165 -176 0
-21 -41 -42 -79 -80 -96 -97 -111 -113 -126 -127 -139 -141 -152 -153 -164 -165 -176 0
-22 -41 -43 -79 -80 -96 -97 -111 -113 -126 -127 -139 -141 -152 -153 -164 -165 -176 0
-22 -42 -43 -79 -81 -96 -97 -111 -113 -126 -127 -139 -141 -152 -153 -164 -165 -176 0
-22 -42 -43 -80 -81 -96 -98 -111 -113 -126 -127 -139 -141 -152 -153 -164 -165 -176 0
-22 -42 -43 -80 -81 -97 -98 -111 -114 -126 -127 -139 -141 -152 -153 -164 -165 -176 0
-21 -41 -42 -79 -80 -96 -97 -112 -113 -126 -128 -139 -141 -152 -153 -164 -165 -176 0
-22 -41 -43 -79 -80 -96 -97 -112 -113 -126 -128 -139 -141 -152 -153 -164 -165 -176 0
-22 -42 -43 -79 -81 -96 -97 -112 -113 -126 -128 -139 -141 -152 -153 -164 -165 -176 0
-22 -42 -43 -80 -81 -96 -98 -112 -113 -126 -128 -139 -141 -152 -153 -164 -165 -176 0
-22 -42 -43 -80 -81 -97 -98 -112 -114 -126 -128 -139 -141 -152 -153 -164 -165 -176 0
-22 -42 -43 -80 -81 -97 -98 -113 -114 -126 -129 -139 -141 -152 -153 -164 -165 -176 0
-21 -41 -42 -79 -80 -96 -97 -112 -113 -127 -128 -139 -142 -152 -153 -164 -165 -176 0
-22 -41 -43 -79 -80 -96 -97 -112 -113 -127 -128 -139 -142 -152 -153 -164 -165 -176 0
-22 -42 -43 -79 -81 -96 -97 -112 -113 -127 -128 -139 -142 -152 -153 -164 -165 -176 0
-22 -42 -43 -80 -81 -96 -98 -112 -113 -127 -128 -139 -142 -152 -153 -164 -165 -176 0
-22 -42 -43 -80 -81 -97 -98 -112 -114 -127 -128 -139 -142 -152 -153 -164 -165 -176 0
-22 -42 -43 -80 -81 -97 -98 -113 -114 -127 -129 -139 -142 -152 -153 -164 -165 -176 0
-22 -42 -43 -80 -81 -97 -98 -113 -114 -128 -129 -139 -143 -152 -153 -164 -165 -176 0
-20 -40 -41 -78 -79 -95 -96 -111 -112 -126 -127 -140 -141 -152 -154 -164 -165 -176 0
-21 -40 -42 -78 -79 -95 -96 -111 -112 -126 -127 -140 -141 -152 -154 -164 -165 -176 0
-22 -40 -43 -78 -79 -95 -96 -111 -112 -126 -127 -140 -141 -152 -154 -164 -165 -176 0
-21 -41 -42 -78 -80 -95 -96 -111 -112 -126 -127 -140 -141 -152 -154 -164 -165 -176 0
-22 -41 -43 -78 -80 -95 -96 -111 -112 -126 -127 -140 -141 -152 -154 -164 -165 -176 0
-22 -42 -43 -78 -81 -95 -96 -111 -112 -126 -127 -140 -141 -152 -154 -164 -165 -176 0
-21 -41 -42 -79 -80 -95 -97 -111 -112 -126 -127 -140 -141 -152 -154 -164 -165 -176 0
-22 -41 -43 -79 -80 -95 -97 -111 -112 -126 -127 -140 -141 -152 -154 -164 -165 -176 0
-22 -42 -43 -79 -81 -95 -97 -111 -112 -126 -127 -140 -141 -152 -154 -164 -165 -176 0
-22 -42 -43 -80 -81 -95 -98 -111 -112 -126 -127 -140 -141 -152 -154 -164 -165 -176 0
-21 -41 -42 -79 -80 -96 -97 -111 -113 -126 -127 -140 -141 -152 -154 -164 -165 -176 0
-22 -41 -43 -79 -80 -96 -97 -111 -113 -126 -127 -140 -141 -152 -154 -164 -165 -176 0
-22 -42 -43 -79 -81 -96 -97 -111 -113 -126 -127 -140 -141 -152 -154 -164 -165 -176 0
-22 -42 -43 -80 -81 -96 -98 -111 -113 -126 -127 -140 -141 -152 -154 -164 -165 -176 0
-22 -42 -43 -80 -81 -97 -98 -111 -114 -126 -127 -140 -141 -152 -154 -164 -165 -176 0
-21 -41 -42 -79 -80 -96 -97 -112 -113 -126 -128 -140 -141 -152 -154 -164 -165 -176 0
-22 -41 -43 -79 -80 -96 -97 -112 -113 -126 -128 -140 -141 -152 -154 -164 -165 -176 0
-22 -42 -43 -79 -81 -96 -97 -112 -113 -126 -128 -140 -141 -152 -154 -164 -165 -176 0
-22 -42 -43 -80 -81 -96 -98 -112 -113 -126 -128 -140 -141 -152 -154 -164 -165 -176 0
-22 -42 -43 -80 -81 -97 -98 -112 -114 -126 -128 -140 -141 -152 -154 -164 -165 -176 0
-22 -42 -43 -80 -81 -97 -98 -113 -114 -126 -129 -140 -141 -152 -154 -164 -165 -176 0
-21 -41 -42 -79 -80 -96 -97 -112 -113 -127 -128 -140 -142 -152 -154 -164 -165 -176 0
-22 -41 -43 -79 -80 -96 -97 -112 -113 -127 -128 -140 -142 -152 -154 -164 -165 -176 0
-22 -42 -43 -79 -81 -96 -97 -112 -113 -127 -128 -140 -142 -152 -154 -164 -165 -176 0
-22 -42 -43 -80 -81 -96 -98 -112 -113 -127 -128 -140 -142 -152 -154 -164 -165 -176 0
-22 -42 -43 -80 -81 -97 -98 -112 -114 -127 -128 -140 -142 -152 -154 -164 -165 -176 0
-22 -42 -43 -80 -81 -97 -98 -113 -114 -127 -129 -140 -142 -152 -154 -164 -165 -176 0
-22 -42 -43 -80 -81 -97 -98 -113 -114 -128 -129 -140 -143 -152 -154 -164 -165 -176 0
-21 -41 -42 -79 -80 -96 -97 -112 -113 -127 -128 -141 -142 -152 -155 -164 -165 -176 0
-22 -41 -43 -79 -80 -96 -97 -112 -113 -127 -128 -141 -142 -152 -155 -164 -165 -176 0
-22 -42 -43 -79 -81 -96 -97 -112 -113 -127 -128 -141 -142 -152 -155 -164 -165 -176 0
-22 -42 -43 -80 -81 -96 -98 -112 -113 -127 -128 -141 -142 -152 -155 -164 -165 -176 0
-22 -42 -43 -80 -81 -97 -98 -112 -114 -127 -128 -141 -142 -152 -155 -164 -165 -176 0
-22 -42 -43 -80 -81 -97 -98 -113 -114 -127 -129 -141 -142 -152 -155 -164 -165 -176 0
-22 -42 -43 -80 -81 -97 -98 -113 -114 -128 -129 -141 -143 -152 -155 -164 -165 -176 0
-22 -42 -43 -80 -81 -97 -98 -113 -114 -128 -129 -142 -143 -152 -156 -164 -165 -176 0
-20 -40 -41 -78 -79 -95 -96 -111 -112 -126 -127 -140 -141 -153 -154 -164 -166 -176 0
-21 -40 -42 -78 -79 -95 -96 -111 -112 -126 -127 -140 -141 -153 -154 -164 -166 -176 0
-22 -40 -43 -78 -79 -95 -96 -111 -112 -126 -127 -140 -141 -153 -154 -164 -166 -176 0
-21 -41 -42 -78 -80 -95 -96 -111 -112 -126 -127 -140 -141 -153 -154 -164 -166 -176 0
-22 -41 -43 -78 -80 -95 -96 -111 -112 -126 -127 -140 -141 -153 -154 -164 -166 -176 0
-22 -42 -43 -78 -81 -95 -96 -111 -112 -126 -127 -140 -141 -153 -154 -164 -166 -176 0
-21 -41 -42 -79 -80 -95 -97 -111 -112 -126 -127 -140 -141 -153 -154 -164 -166 -176 0
-22 -41 -43 -79 -80 -95 -97 -111 -112 -126 -127 -140 -141 -153 -154 -164 -166 -176 0
-22 -42 -43 -79 -81 -95 -97 -111 -112 -126 -127 -140 -141 -153 -154 -164 -166 -176 0
-22 -42 -43 -80 -81 -95 -98 -111 -112 -126 -127 -140 -141 -153 -154 -164 -166 -176 0
-21 -41 -42 -79 -80 -96 -97 -111 -113 -126 -127 -140 -141 -153 -154 -164 -166 -176 0
-22 -41 -43 -79 -80 -96 -97 -111 -113 -126 -127 -140 -141 -153 -154 -164 -166 -176 0
-22 -42 -43 -79 -81 -96 -97 -111 -113 -126 -127 -140 -141 -153 -154 -164 -166 -176 0
-22 -42 -43 -80 -81 -96 -98 -111 -113 -126 -127 -140 -141 -153 -154 -164 -166 -176 0
-22 -42 -43 -80 -81 -97 -98 -111 -114 -126 -127 -140 -141 -153 -154 -164 -166 -176 0
-21 -41 -42 -79 -80 -96 -97 -112 -113 -126 -128 -140 -141 -153 -154 -164 -166 -176 0
-22 -41 -43 -79 -80 -96 -97 -112 -113 -126 -128 -140 -141 -153 -154 -164 -166 -176 0
-22 -42 -43 -79 -81 -96 -97 -112 -113 -126 -128 -140 -141 -153 -154 -164 -166 -176 0
-22 -42 -43 -80 -81 -96 -98 -112 -113 -126 -128 -140 -141 -153 -154 -164 -166 -176 0
-22 -42 -43 -80 -81 -97 -98 -112 -114 -126 -128 -140 -141 -153 -154 -164 -166 -176 0
-22 -42 -43 -80 -81 -97 -98 -113 -114 -126 -129 -140 -141 -153 -154 -164 -166 -176 0
-21 -41 -42 -79 -80 -96 -97 -112 -113 -127 -128 -140 -142 -153 -154 -164 -166 -176 0
-22 -41 -43 -79 -80 -96 -97 -112 -113 -127 -128 -140 -142 -153 -154 -164 -166 -176 0
-22 -42 -43 -79 -81 -96 -97 -112 -113 -127 -128 -140 -142 -153 -154 -164 -166 -176 0
-22 -42 -43 -80 -81 -96 -98 -112 -113 -127 -128 -140 -142 -153 -154 -164 -166 -176 0
-22 -42 -43 -80 -81 -97 -98 -112 -114 -127 -128 -140 -142 -153 -154 -164 -166 -176 0
-22 -42 -43 -80 -81 -97 -98 -113 -114 -127 -129 -140 -142 -153 -154 -164 -166 -176 0
-22 -42 -43 -80 -81 -97 -98 -113 -114 -128 -129 -140 -143 -153 -154 -164 -166 -176 0
-21 -41 -42 -79 -80 -96 -97 -112 -113 -127 -128 -141 -142 -153 -155 -164 -166 -176 0
-22 -41 -43 -79 -80 -96 -97 -112 -113 -127 -128 -141 -142 -153 -155 -164 -166 -176 0
-22 -42 -43 -79 -81 -96 -97 -112 -113 -127 -128 -141 -142 -153 -155 -164 -166 -176 0
-22 -42 -43 -80 -81 -96 -98 -112 -113 -127 -128 -141 -142 -153 -155 -164 -166 -176 0
-22 -42 -43 -80 -81 -97 -98 -112 -114 -127 -128 -141 -142 -153 -155 -164 -166 -176 0
-22 -42 -43 -80 -81 -97 -98 -113 -114 -127 -129 -141 -142 -153 -155 -164 -166 -176 0
-22 -42 -43 -80 -81 -97 -98 -113 -114 -128 -129 -141 -143 -153 -155 -164 -166 -176 0
-22 -42 -43 -80 -81 -97 -98 -113 -114 -128 -129 -142 -143 -153 -156 -164 -166 -176 0
-21 -41 -42 -79 -80 -96 -97 -112 -113 -127 -128 -141 -142 -154 -155 -164 -167 -176 0
-22 -41 -43 -79 -80 -96 -97 -112 -113 -127 -128 -141 -142 -154 -155 -164 -167 -176 0
-22 -42 -43 -79 -81 -96 -97 -112 -113 -127 -128 -141 -142 -154 -155 -164 -167 -176 0
-22 -42 -43 -80 -81 -96 -98 -112 -113 -127 -128 -141 -142 -154 -155 -164 -167 -176 0
-22 -42 -43 -80 -81 -97 -98 -112 -114 -127 -128 -141 -142 -154 -155 -164 -167 -176 0
-22 -42 -43 -80 -81 -97 -98 -113 -114 -127 -129 -141 -142 -154 -155 -164 -167 -176 0
-22 -42 -43 -80 -81 -97 -98 -113 -114 -128 -129 -141 -143 -154 -155 -164 -167 -176 0
-22 -42 -43 -80 -81 -97 -98 -113 -114 -128 -129 -142 -143 -154 -156 -164 -167 -176 0
-22 -42 -43 -80 -81 -97 -98 -113 -114 -128 -129 -142 -143 -155 -156 -164 -168 -176 0
-20 -40 -41 -78 -79 -95 -96 -111 -112 -126 -127 -140 -141 -153 -154 -165 -166 -177 0
-21 -40 -42 -78 -79 -95 -96 -111 -112 -126 -127 -140 -141 -153 -154 -165 -166 -177 0
-22 -40 -43 -78 -79 -95 -96 -111 -112 -126 -127 -140 -141 -153 -154 -165 -166 -177 0
-21 -41 -42 -78 -80 -95 -96 -111 -112 -126 -127 -140 -141 -153 -154 -165 -166 -177 0
-22 -41 -43 -78 -80 -95 -96 -111 -112 -126 -127 -140 -141 -153 -154 -165 -166 -177 0
-22 -42 -43 -78 -81 -95 -96 -111 -112 -126 -127 -140 -141 -153 -154 -165 -166 -177 0
-21 -41 -42 -79 -80 -95 -97 -111 -112 -126 -127 -140 -141 -153 -154 -165 -166 -177 0
-22 -41 -43 -79 -80 -95 -97 -111 -112 -126 -127 -140 -141 -153 -154 -165 -166 -177 0
-22 -42 -43 -79 -81 -95 -97 -111 -112 -126 -127 -140 -141 -153 -154 -165 -166 -177 0
-22 -42 -43 -80 -81 -95 -98 -111 -112 -126 -127 -140 -141 -153 -154 -165 -166 -177 0
-21 -41 -42 -79 -80 -96 -97 -111 -113 -126 -127 -140 -141 -153 -154 -165 -166 -177 0
-22 -41 -43 -79 -80 -96 -97 -111 -113 -126 -127 -140 -141 -153 -154 -165 -166 -177 0
-22 -42 -43 -79 -81 -96 -97 -111 -113 -126 -127 -140 -141 -153 -154 -165 -166 -177 0
-22 -42 -43 -80 -81 -96 -98 -111 -113 -126 -127 -140 -141 -153 -154 -165 -166 -177 0
-22 -42 -43 -80 -81 -97 -98 -111 -114 -126 -127 -140 -141 -153 -154 -165 -166 -177 0
-21 -41 -42 -79 -80 -96 -97 -112 -113 -126 -128 -140 -141 -153 -154 -165 -166 -177 0
-22 -41 -43 -79 -80 -96 -97 -112 -113 -126 -128 -140 -141 -153 -154 -165 -166 -177 0
-22 -42 -43 -79 -81 -96 -97 -112 -113 -126 -128 -140 -141 -153 -154 -165 -166 -177 0
-22 -42 -43 -80 -81 -96 -98 -112 -113 -126 -128 -140 -141 -153 -154 -165 -166 -177 0
-22 -42 -43 -80 -81 -97 -98 -112 -114 -126 -128 -140 -141 -153 -154 -165 -166 -177 0
-22 -42 -43 -80 -81 -97 -98 -113 -114 -126 -129 -140 -141 -153 -154 -165 -166 -177 0
-21 -41 -42 -79 -80 -96 -97 -112 -113 -127 -128 -140 -142 -153 -154 -165 -166 -177 0
-22 -41 -43 -79 -80 -96 -97 -112 -113 -127 -128 -140 -142 -153 -154 -165 -166 -177 0
-22 -42 -43 -79 -81 -96 -97 -112 -113 -127 -128 -140 -142 -153 -154 -165 -166 -177 0
-22 -42 -43 -80 -81 -96 -98 -112 -113 -127 -128 -140 -142 -153 -154 -165 -166 -177 0
-22 -42 -43 -80 -81 -97 -98 -112 -114 -127 -128 -140 -142 -153 -154 -165 -166 -177 0
-22 -42 -43 -80 -81 -97 -98 -113 -114 -127 -129 -140 -142 -153 -154 -165 -166 -177 0
-22 -42 -43 -80 -81 -97 -98 -113 -114 -128 -129 -140 -143 -153 -154 -165 -166 -177 0
-21 -41 -42 -79 -80 -96 -97 -112 -113 -127 -128 -141 -142 -153 -155 -165 -166 -177 0
-22 -41 -43 -79 -80 -96 -97 -112 -113 -127 -128 -141 -142 -153 -155 -165 -166 -177 0
-22 -42 -43 -79 -81 -96 -97 -112 -113 -127 -128 -141 -142 -153 -155 -165 -166 -177 0
-22 -42 -43 -80 -81 -96 -98 -112 -113 -127 -128 -141 -142 -153 -155 -165 -166 -177 0
-22 -42 -43 -80 -81 -97 -98 -112 -114 -127 -128 -141 -142 -153 -155 -165 -166 -177 0
-22 -42 -43 -80 -81 -97 -98 -113 -114 -127 -129 -141 -142 -153 -155 -165 -166 -177 0
-22 -42 -43 -80 -81 -97 -98 -113 -114 -128 -129 -141 -143 -153 -155 -165 -166 -177 0
-22 -42 -43 -80 -81 -97 -98 -113 -114 -128 -129 -142 -143 -153 -156 -165 -166 -177 0
-21 -41 -42 -79 -80 -96 -97 -112 -113 -127 -128 -141 -142 -154 -155 -165 -167 -177 0
-22 -41 -43 -79 -80 -96 -97 -112 -113 -127 -128 -141 -142 -154 -155 -165 -167 -177 0
-22 -42 -43 -79 -81 -96 -97 -112 -113 -127 -128 -141 -142 -154 -155 -165 -167 -177 0
-22 -42 -43 -80 -81 -96 -98 -112 -113 -127 -128 -141 -142 -154 -155 -165 -167 -177 0
-22 -42 -43 -80 -81 -97 -98 -112 -114 -127 -128 -141 -142 -154 -155 -165 -167 -177 0
-22 -42 -43 -80 -81 -97 -98 -113 -114 -127 -129 -141 -142 -154 -155 -165 -167 -177 0
-22 -42 -43 -80 -81 -97 -98 -113 -114 -128 -129 -141 -143 -154 -155 -165 -167 -177 0
-22 -42 -43 -80 -81 -97 -98 -113 -114 -128 -129 -142 -143 -154 -156 -165 -167 -177 0
-22 -42 -43 -80 -81 -97 -98 -113 -114 -128 -129 -142 -143 -155 -156 -165 -168 -177 0
-21 -41 -42 -79 -80 -96 -97 -112 -113 -127 -128 -141 -142 -154 -155 -166 -167 -178 0
-22 -41 -43 -79 -80 -96 -97 -112 -113 -127 -128 -141 -142 -154 -155 -166 -167 -178 0
-22 -42 -43 -79 -81 -96 -97 -112 -113 -127 -128 -141 -142 -154 -155 -166 -167 -178 0
-22 -42 -43 -80 -81 -96 -98 -112 -113 -127 -128 -141 -142 -154 -155 -166 -167 -178 0
-22 -42 -43 -80 -81 -97 -98 -112 -114 -127 -128 -141 -142 -154 -155 -166 -167 -178 0
-22 -42 -43 -80 -81 -97 -98 -113 -114 -127 -129 -141 -142 -154 -155 -166 -167 -178 0
-22 -42 -43 -80 -81 -97 -98 -113 -114 -128 -129 -141 -143 -154 -155 -166 -167 -178 0
-22 -42 -43 -80 -81 -97 -98 -113 -114 -128 -129 -142 -143 -154 -156 -166 -167 -178 0
-22 -42 -43 -80 -81 -97 -98 -113 -114 -128 -129 -142 -143 -155 -156 -166 -168 -178 0
-22 -42 -43 -80 -81 -97 -98 -113 -114 -128 -129 -142 -143 -155 -156 -167 -168 -179 0
-20 -40 -41 -78 -79 -95 -96 -111 -112 -126 -127 -140 -141 -153 -154 -165 -166 -188 0
-21 -40 -42 -78 -79 -95 -96 -111 -112 -126 -127 -140 -141 -153 -154 -165 -166 -188 0
-22 -40 -43 -78 -79 -95 -96 -111 -112 -126 -127 -140 -141 -153 -154 -165 -166 -188 0
-21 -41 -42 -78 -80 -95 -96 -111 -112 -126 -127 -140 -141 -153 -154 -165 -166 -188 0
-22 -41 -43 -78 -80 -95 -96 -111 -112 -126 -127 -140 -141 -153 -154 -165 -166 -188 0
-22 -42 -43 -78 -81 -95 -96 -111 -112 -126 -127 -140 -141 -153 -154 -165 -166 -188 0
-21 -41 -42 -79 -80 -95 -97 -111 -112 -126 -127 -140 -141 -153 -154 -165 -166 -188 0
-22 -41 -43 -79 -80 -95 -97 -111 -112 -126 -127 -140 -141 -153 -154 -165 -166 -188 0
-22 -42 -43 -79 -81 -95 -97 -111 -112 -126 -127 -140 -141 -153 -154 -165 -166 -188 0
-22 -42 -43 -80 -81 -95 -98 -111 -112 -126 -127 -140 -141 -153 -154 -165 -166 -188 0
-21 -41 -42 -79 -80 -96 -97 -111 -113 -126 -127 -140 -141 -153 -154 -165 -166 -188 0
-22 -41 -43 -79 -80 -96 -97 -111 -113 -126 -127 -140 -141 -153 -154 -165 -166 -188 0
-22 -42 -43 -79 -81 -96 -97 -111 -113 -126 -127 -140 -141 -153 -154 -165 -166 -188 0
-22 -42 -43 -80 -81 -96 -98 -111 -113 -126 -127 -140 -141 -153 -154 -165 -166 -188 0
-22 -42 -43 -80 -81 -97 -98 -111 -114 -126 -127 -140 -141 -153 -154 -165 -166 -188 0
-21 -41 -42 -79 -80 -96 -97 -112 -113 -126 -128 -140 -141 -153 -154 -165 -166 -188 0
-22 -41 -43 -79 -80 -96 -97 -112 -113 -126 -128 -140 -141 -153 -154 -165 -166 -188 0
-22 -42 -43 -79 -81 -96 -97 -112 -113 -126 -128 -140 -141 -153 -154 -165 -166 -188 0
-22 -42 -43 -80 -81 -96 -98 -112 -113 -126 -128 -140 -141 -153 -154 -165 -166 -188 0
-22 -42 -43 -80 -81 -97 -98 -112 -114 -126 -128 -140 -141 -153 -154 -165 -166 -188 0
-22 -42 -43 -80 -81 -97 -98 -113 -114 -126 -129 -140 -141 -153 -154 -165 -166 -188 0
-21 -41 -42 -79 -80 -96 -97 -112 -113 -127 -128 -140 -142 -153 -154 -165 -166 -188 0
-22 -41 -43 -79 -80 -96 -97 -112 -113 -127 -128 -140 -142 -153 -154 -165 -166 -188 0
-22 -42 -43 -79 -81 -96 -97 -112 -113 -127 -128 -140 -142 -153 -154 -165 -166 -188 0
-22 -42 -43 -80 -81 -96 -98 -112 -113 -127 -128 -140 -142 -153 -154 -165 -166 -188 0
-22 -42 -43 -80 -81 -97 -98 -112 -114 -127 -128 -140 -142 -153 -154 -165 -166 -188 0
-22 -42 -43 -80 -81 -97 -98 -113 -114 -127 -129 -140 -142 -153 -154 -165 -166 -188 0
-22 -42 -43 -80 -81 -97 -98 -113 -114 -128 -129 -140 -143 -153 -154 -165 -166 -188 0
-21 -41 -42 -79 -80 -96 -97 -112 -113 -127 -128 -141 -142 -153 -155 -165 -166 -188 0
-22 -41 -43 -79 -80 -96 -97 -112 -113 -127 -128 -141 -142 -153 -155 -165 -166 -188 0
-22 -42 -43 -79 -81 -96 -97 -112 -113 -127 -128 -141 -142 -153 -155 -165 -166 -188 0
-22 -42 -43 -80 -81 -96 -98 -112 -113 -127 -128 -141 -142 -153 -155 -165 -166 -188 0
-22 -42 -43 -80 -81 -97 -98 -112 -114 -127 -128 -141 -142 -153 -155 -165 -166 -188 0
-22 -42 -43 -80 -81 -97 -98 -113 -114 -127 -129 -141 -142 -153 -155 -165 -166 -188 0
-22 -42 -43 -80 -81 -97 -98 -113 -114 -128 -129 -141 -143 -153 -155 -165 -166 -188 0
-22 -42 -43 -80 -81 -97 -98 -113 -114 -128 -129 -142 -143 -153 -156 -165 -166 -188 0
-21 -41 -42 -79 -80 -96 -97 -112 -113 -127 -128 -141 -142 -154 -155 -165 -167 -188 0
-22 -41 -43 -79 -80 -96 -97 -112 -113 -127 -128 -141 -142 -154 -155 -165 -167 -188 0
-22 -42 -43 -79 -81 -96 -97 -112 -113 -127 -128 -141 -142 -154 -155 -165 -167 -188 0
-22 -42 -43 -80 -81 -96 -98 -112 -113 -127 -128 -141 -142 -154 -155 -165 -167 -188 0
-22 -42 -43 -80 -81 -97 -98 -112 -114 -127 -128 -141 -142 -154 -155 -165 -167 -188 0
-22 -42 -43 -80 -81 -97 -98 -113 -114 -127 -129 -141 -142 -154 -155 -165 -167 -188 0
-22 -42 -43 -80 -81 -97 -98 -113 -114 -128 -129 -141 -143 -154 -155 -165 -167 -188 0
-22 -42 -43 -80 -81 -97 -98 -113 -114 -128 -129 -142 -143 -154 -156 -165 -167 -188 0
-22 -42 -43 -80 -81 -97 -98 -113 -114 -128 -129 -142 -143 -155 -156 -165 -168 -188 0
-21 -41 -42 -79 -80 -96 -97 -112 -113 -127 -128 -141 -142 -154 -155 -166 -167 -189 0
-22 -41 -43 -79 -80 -96 -97 -112 -113 -127 -128 -141 -142 -154 -155 -166 -167 -189 0
-22 -42 -43 -79 -81 -96 -97 -112 -113 -127 -128 -141 -142 -154 -155 -166 -167 -189 0
-22 -42 -43 -80 -81 -96 -98 -112 -113 -127 -128 -141 -142 -154 -155 -166 -167 -189 0
-22 -42 -43 -80 -81 -97 -98 -112 -114 -127 -128 -141 -142 -154 -155 -166 -167 -189 0
-22 -42 -43 -80 -81 -97 -98 -113 -114 -127 -129 -141 -142 -154 -155 -166 -167 -189 0
-22 -42 -43 -80 -81 -97 -98 -113 -114 -128 -129 -141 -143 -154 -155 -166 -167 -189 0
-22 -42 -43 -80 -81 -97 -98 -113 -114 -128 -129 -142 -143 -154 -156 -166 -167 -189 0
-22 -42 -43 -80 -81 -97 -98 -113 -114 -128 -129 -142 -143 -155 -156 -166 -168 -189 0
-22 -42 -43 -80 -81 -97 -98 -113 -114 -128 -129 -142 -143 -155 -156 -167 -168 -190 0
-21 -41 -42 -79 -80 -96 -97 -112 -113 -127 -128 -141 -142 -154 -155 -166 -167 -199 0
-22 -41 -43 -79 -80 -96 -97 -112 -113 -127 -128 -141 -142 -154 -155 -166 -167 -199 0
-22 -42 -43 -79 -81 -96 -97 -112 -113 -127 -128 -141 -142 -154 -155 -166 -167 -199 0
-22 -42 -43 -80 -81 -96 -98 -112 -113 -127 -128 -141 -142 -154 -155 -166 -167 -199 0
-22 -42 -43 -80 -81 -97 -98 -112 -114 -127 -128 -141 -142 -154 -155 -166 -167 -199 0
-22 -42 -43 -80 -81 -97 -98 -113 -114 -127 -129 -141 -142 -154 -155 -166 -167 -199 0
-22 -42 -43 -80 -81 -97 -98 -113 -114 -128 -129 -141 -143 -154 -155 -166 -167 -199 0
-22 -42 -43 -80 -81 -97 -98 -113 -114 -128 -129 -142 -143 -154 -156 -166 -167 -199 0
-22 -42 -43 -80 -81 -97 -98 -113 -114 -128 -129 -142 -143 -155 -156 -166 -168 -199 0
-22 -42 -43 -80 -81 -97 -98 -113 -114 -128 -129 -142 -143 -155 -156 -167 -168 -200 0
-22 -42 -43 -80 -81 -97 -98 -113 -114 -128 -129 -142 -143 -155 -156 -167 -168 -209 0
-20 -40 -41 -78 -79 -95 -96 -111 -112 -126 -127 -140 -141 -153 -154 -177 -178 -188 0
-21 -40 -42 -78 -79 -95 -96 -111 -112 -126 -127 -140 -141 -153 -154 -177 -178 -188 0
-22 -40 -43 -78 -79 -95 -96 -111 -112 -126 -127 -140 -141 -153 -154 -177 -178 -188 0
-21 -41 -42 -78 -80 -95 -96 -111 -112 -126 -127 -140 -141 -153 -154 -177 -178 -188 0
-22 -41 -43 -78 -80 -95 -96 -111 -112 -126 -127 -140 -141 -153 -154 -177 -178 -188 0
-22 -42 -43 -78 -81 -95 -96 -111 -112 -126 -127 -140 -141 -153 -154 -177 -178 -188 0
-21 -41 -42 -79 -80 -95 -97 -111 -112 -126 -127 -140 -141 -153 -154 -177 -178 -188 0
-22 -41 -43 -79 -80 -95 -97 -111 -112 -126 -127 -140 -141 -153 -154 -177 -178 -188 0
-22 -42 -43 -79 -81 -95 -97 -111 -112 -126 -127 -140 -141 -153 -154 -177 -178 -188 0
-22 -42 -43 -80 -81 -95 -98 -111 -112 -126 -127 -140 -141 -153 -154 -177 -178 -188 0
-21 -41 -42 -79 -80 -96 -97 -111 -113 -126 -127 -140 -141 -153 -154 -177 -178 -188 0
-22 -41 -43 -79 -80 -96 -97 -111 -113 -126 -127 -140 -141 -153 -154 -177 -178 -188 0
-22 -42 -43 -79 -81 -96 -97 -111 -113 -126 -127 -140 -141 -153 -154 -177 -178 -188 0
-22 -42 -43 -80 -81 -96 -98 -111 -113 -126 -127 -140 -141 -153 -154 -177 -178 -188 0
-22 -42 -43 -80 -81 -97 -98 -111 -114 -126 -127 -140 -141 -153 -154 -177 -178 -188 0
-21 -41 -42 -79 -80 -96 -97 -112 -113 -126 -128 -140 -141 -153 -154 -177 -178 -188 0
-22 -41 -43 -79 -80 -96 -97 -112 -113 -126 -128 -140 -141 -153 -154 -177 -178 -188 0
-22 -42 -43 -79 -81 -96 -97 -112 -113 -126 -128 -140 -141 -153 -154 -177 -178 -188 0
-22 -42 -43 -80 -81 -96 -98 -112 -113 -126 -128 -140 -141 -153 -154 -177 -178 -188 0
-22 -42 -43 -80 -81 -97 -98 -112 -114 -126 -128 -140 -141 -153 -154 -177 -178 -188 0
-22 -42 -43 -80 -81 -97 -98 -113 -114 -126 -129 -140 -141 -153 -154 -177 -178 -188 0
-21 -41 -42 -79 -80 -96 -97 -112 -113 -127 -128 -140 -142 -153 -154 -177 -178 -188 0
-22 -41 -43 -79 -80 -96 -97 -112 -113 -127 -128 -140 -142 -153 -154 -177 -178 -188 0
-22 -42 -43 -79 -81 -96 -97 -112 -113 -127 -128 -140 -142 -153 -154 -177 -178 -188 0
-22 -42 -43 -80 -81 -96 -98 -112 -113 -127 -128 -140 -142 -153 -154 -177 -178 -188 0
-22 -42 -43 -80 -81 -97 -98 -112 -114 -127 -128 -140 -142 -153 -154 -177 -178 -188 0
-22 -42 -43 -80 -81 -97 -98 -113 -114 -127 -129 -140 -142 -153 -154 -177 -178 -188 0
-22 -42 -43 -80 -81 -97 -98 -113 -114 -128 -129 -140 -143 -153 -154 -177 -178 -188 0
-21 -41 -42 -79 -80 -96 -97 -112 -113 -127 -128 -141 -142 -153 -155 -177 -178 -188 0
-22 -41 -43 -79 -80 -96 -97 -112 -113 -127 -128 -141 -142 -153 -155 -177 -178 -188 0
-22 -42 -43 -79 -81 -96 -97 -112 -113 -127 -128 -141 -142 -153 -155 -177 -178 -188 0
-22 -42 -43 -80 -81 -96 -98 -112 -113 -127 -128 -141 -142 -153 -155 -177 -178 -188 0
-22 -42 -43 -80 -81 -97 -98 -112 -114 -127 -128 -141 -142 -153 -155 -177 -178 -188 0
-22 -42 -43 -80 -81 -97 -98 -113 -114 -127 -129 -141 -142 -153 -155 -177 -178 -188 0
-22 -42 -43 -80 -81 -97 -98 -113 -114 -128 -129 -141 -143 -153 -155 -177 -178 -188 0
-22 -42 -43 -80 -81 -97 -98 -113 -114 -128 -129 -142 -143 -153 -156 -177 -178 -188 0
-21 -41 -42 -79 -80 -96 -97 -112 -113 -127 -128 -141 -142 -154 -155 -177 -179 -188 0
-22 -41 -43 -79 -80 -96 -97 -112 -113 -127 -128 -141 -142 -154 -155 -177 -179 -188 0
-22 -42 -43 -79 -81 -96 -97 -112 -113 -127 -128 -141 -142 -154 -155 -177 -179 -188 0
-22 -42 -43 -80 -81 -96 -98 -112 -113 -127 -128 -141 -142 -154 -155 -177 -179 -188 0
-22 -42 -43 -80 -81 -97 -98 -112 -114 -127 -128 -141 -142 -154 -155 -177 -179 -188 0
-22 -42 -43 -80 -81 -97 -98 -113 -114 -127 -129 -141 -142 -154 -155 -177 -179 -188 0
-22 -42 -43 -80 -81 -97 -98 -113 -114 -128 -129 -141 -143 -154 -155 -177 -179 -188 0
-22 -42 -43 -80 -81 -97 -98 -113 -114 -128 -129 -142 -143 -154 -156 -177 -179 -188 0
-22 -42 -43 -80 -81 -97 -98 -113 -114 -128 -129 -142 -143 -155 -156 -177 -180 -188 0
-21 -41 -42 -79 -80 -96 -97 -112 -113 -127 -128 -141 -142 -154 -155 -178 -179 -189 0
-22 -41 -43 -79 -80 -96 -97 -112 -113 -127 -128 -141 -142 -154 -155 -178 -179 -189 0
-22 -42 -43 -79 -81 -96 -97 -112 -113 -127 -128 -141 -142 -154 -155 -178 -179 -189 0
-22 -42 -43 -80 -81 -96 -98 -112 -113 -127 -128 -141 -142 -154 -155 -178 -179 -189 0
-22 -42 -43 -80 -81 -97 -98 -112 -114 -127 -128 -141 -142 -154 -155 -178 -179 -189 0
-22 -42 -43 -80 -81 -97 -98 -113 -114 -127 -129 -141 -142 -154 -155 -178 -179 -189 0
-22 -42 -43 -80 -81 -97 -98 -113 -114 -128 -129 -141 -143 -154 -155 -178 -179 -189 0
-22 -42 -43 -80 -81 -97 -98 -113 -114 -128 -129 -142 -143 -154 -156 -178 -179 -189 0
-22 -42 -43 -80 -81 -97 -98 -113 -114 -128 -129 -142 -143 -155 -156 -178 -180 -189 0
-22 -42 -43 -80 -81 -97 -98 -113 -114 -128 -129 -142 -143 -155 -156 -179 -180 -190 0
-21 -41 -42 -79 -80 -96 -97 -112 -113 -127 -128 -141 -142 -154 -155 -178 -179 -199 0
-22 -41 -43 -79 -80 -96 -97 -112 -113 -127 -128 -141 -142 -154 -155 -178 -179 -199 0
-22 -42 -43 -79 -81 -96 -97 -112 -113 -127 -128 -141 -142 -154 -155 -178 -179 -199 0
-22 -42 -43 -80 -81 -96 -98 -112 -113 -127 -128 -141 -142 -154 -155 -178 -179 -199 0
-22 -42 -43 -80 -81 -97 -98 -112 -114 -127 -128 -141 -142 -154 -155 -178 -179 -199 0
-22 -42 -43 -80 -81 -97 -98 -113 -114 -127 -129 -141 -142 -154 -155 -178 -179 -199 0
-22 -42 -43 -80 -81 -97 -98 -113 -114 -128 -129 -141 -143 -154 -155 -178 -179 -199 0
-22 -42 -43 -80 -81 -97 -98 -113 -114 -128 -129 -142 -143 -154 -156 -178 -179 -199 0
-22 -42 -43 -80 -81 -97 -98 -113 -114 -128 -129 -142 -143 -155 -156 -178 -180 -199 0
-22 -42 -43 -80 -81 -97 -98 -113 -114 -128 -129 -142 -143 -155 -156 -179 -180 -200 0
-22 -42 -43 -80 -81 -97 -98 -113 -114 -128 -129 -142 -143 -155 -156 -179 -180 -209 0
-21 -41 -42 -79 -80 -96 -97 -112 -113 -127 -128 -141 -142 -154 -155 -189 -190 -199 0
-22 -41 -43 -79 -80 -96 -97 -112 -113 -127 -128 -141 -142 -154 -155 -189 -190 -199 0
-22 -42 -43 -79 -81 -96 -97 -112 -113 -127 -128 -141 -142 -154 -155 -189 -190 -199 0
-22 -42 -43 -80 -81 -96 -98 -112 -113 -127 -128 -141 -142 -154 -155 -189 -190 -199 0
-22 -42 -43 -80 -81 -97 -98 -112 -114 -127 -128 -141 -142 -154 -155 -189 -190 -199 0
-22 -42 -43 -80 -81 -97 -98 -113 -114 -127 -129 -141 -142 -154 -155 -189 -190 -199 0
-22 -42 -43 -80 -81 -97 -98 -113 -114 -128 -129 -141 -143 -154 -155 -189 -190 -199 0
-22 -42 -43 -80 -81 -97 -98 -113 -114 -128 -129 -142 -143 -154 -156 -189 -190 -199 0
-22 -42 -43 -80 -81 -97 -98 -113 -114 -128 -129 -142 -143 -155 -156 -189 -191 -199 0
-22 -42 -43 -80 -81 -97 -98 -113 -114 -128 -129 -142 -143 -155 -156 -190 -191 -200 0
-22 -42 -43 -80 -81 -97 -98 -113 -114 -128 -129 -142 -143 -155 -156 -190 -191 -209 0
-22 -42 -43 -80 -81 -97 -98 -113 -114 -128 -129 -142 -143 -155 -156 -200 -201 -209 0
-20 -40 -41 -78 -79 -95 -96 -111 -112 -126 -127 -140 -141 -166 -167 -177 -178 -188 0
-21 -40 -42 -78 -79 -95 -96 -111 -112 -126 -127 -140 -141 -166 -167 -177 -178 -188 0
-22 -40 -43 -78 -79 -95 -96 -111 -112 -126 -127 -140 -141 -166 -167 -177 -178 -188 0
-21 -41 -42 -78 -80 -95 -96 -111 -112 -126 -127 -140 -141 -166 -167 -177 -178 -188 0
-22 -41 -43 -78 -80 -95 -96 -111 -112 -126 -127 -140 -141 -166 -167 -177 -178 -188 0
-22 -42 -43 -78 -81 -95 -96 -111 -112 -126 -127 -140 -141 -166 -167 -177 -178 -188 0
-21 -41 -42 -79 -80 -95 -97 -111 -112 -126 -127 -140 -141 -166 -167 -177 -178 -188 0
-22 -41 -43 -79 -80 -95 -97 -111 -112 -126 -127 -140 -141 -166 -167 -177 -178 -188 0
-22 -42 -43 -79 -81 -95 -97 -111 -112 -126 -127 -140 -141 -166 -167 -177 -178 -188 0
-22 -42 -43 -80 -81 -95 -98 -111 -112 -126 -127 -140 -141 -166 -167 -177 -178 -188 0
-21 -41 -42 -79 -80 -96 -97 -111 -113 -126 -127 -140 -141 -166 -167 -177 -178 -188 0
-22 -41 -43 -79 -80 -96 -97 -111 -113 -126 -127 -140 -141 -166 -167 -177 -178 -188 0
-22 -42 -43 -79 -81 -96 -97 -111 -113 -126 -127 -140 -141 -166 -167 -177 -178 -188 0
-22 -42 -43 -80 -81 -96 -98 -111 -113 -126 -127 -140 -141 -166 -167 -177 -178 -188 0
-22 -42 -43 -80 -81 -97 -98 -111 -114 -126 -127 -140 -141 -166 -167 -177 -178 -188 0
-21 -41 -42 -79 -80 -96 -97 -112 -113 -126 -128 -140 -141 -166 -167 -177 -178 -188 0
-22 -41 -43 -79 -80 -96 -97 -112 -113 -126 -128 -140 -141 -166 -167 -177 -178 -188 0
-22 -42 -43 -79 -81 -96 -97 -112 -113 -126 -128 -140 -141 -166 -167 -177 -178 -188 0
-22 -42 -43 -80 -81 -96 -98 -112 -113 -126 -128 -140 -141 -166 -167 -177 -178 -188 0
-22 -42 -43 -80 -81 -97 -98 -112 -114 -126 -128 -140 -141 -166 -167 -177 -178 -188 0
-22 -42 -43 -80 -81 -97 -98 -113 -114 -126 -129 -140 -141 -166 -167 -177 -178 -188 0
-21 -41 -42 -79 -80 -96 -97 -112 -113 -127 -128 -140 -142 -166 -167 -177 -178 -188 0
-22 -41 -43 -79 -80 -96 -97 -112 -113 -127 -128 -140 -142 -166 -167 -177 -178 -188 0
-22 -42 -43 -79 -81 -96 -97 -112 -113 -127 -128 -140 -142 -166 -167 -177 -178 -188 0
-22 -42 -43 -80 -81 -96 -98 -112 -113 -127 -128 -140 -142 -166 -167 -177 -178 -188 0
-22 -42 -43 -80 -81 -97 -98 -112 -114 -127 -128 -140 -142 -166 -167 -177 -178 -188 0
-22 -42 -43 -80 -81 -97 -98 -113 -114 -127 -129 -140 -142 -166 -167 -177 -178 -188 0
-22 -42 -43 -80 -81 -97 -98 -113 -114 -128 -129 -140 -143 -166 -167 -177 -178 -188 0
-21 -41 -42 -79 -80 -96 -97 -112 -113 -127 -128 -141 -142 -166 -168 -177 -178 -188 0
-22 -41 -43 -79 -80 -96 -97 -112 -113 -127 -128 -141 -142 -166 -168 -177 -178 -188 0
-22 -42 -43 -79 -81 -96 -97 -112 -113 -127 -128 -141 -142 -166 -168 -177 -178 -188 0
-22 -42 -43 -80 -81 -96 -98 -112 -113 -127 -128 -141 -142 -166 -168 -177 -178 -188 0
-22 -42 -43 -80 -81 -97 -98 -112 -114 -127 -128 -141 -142 -166 -168 -177 -178 -188 0
-22 -42 -43 -80 -81 -97 -98 -113 -114 -127 -129 -141 -142 -166 -168 -177 -178 -188 0
-22 -42 -43 -80 -81 -97 -98 -113 -114 -128 -129 -141 -143 -166 -168 -177 -178 -188 0
-22 -42 -43 -80 -81 -97 -98 -113 -114 -128 -129 -142 -143 -166 -169 -177 -178 -188 0
-21 -41 -42 -79 -80 -96 -97 -112 -113 -127 -128 -141 -142 -167 -168 -177 -179 -188 0
-22 -41 -43 -79 -80 -96 -97 -112 -113 -127 -128 -141 -142 -167 -168 -177 -179 -188 0
-22 -42 -43 -79 -81 -96 -97 -112 -113 -127 -128 -141 -142 -167 -168 -177 -179 -188 0
-22 -42 -43 -80 -81 -96 -98 -112 -113 -127 -128 -141 -142 -167 -168 -177 -179 -188 0
-22 -42 -43 -80 -81 -97 -98 -112 -114 -127 -128 -141 -142 -167 -168 -177 -179 -188 0
-22 -42 -43 -80 -81 -97 -98 -113 -114 -127 -129 -141 -142 -167 -168 -177 -179 -188 0
-22 -42 -43 -80 -81 -97 -98 -113 -114 -128 -129 -141 -143 -167 -168 -177 -179 -188 0
-22 -42 -43 -80 -81 -97 -98 -113 -114 -128 -129 -142 -143 -167 -169 -177 -179 -188 0
-22 -42 -43 -80 -81 -97 -98 -113 -114 -128 -129 -142 -143 -168 -169 -177 -180 -188 0
-21 -41 -42 -79 -80 -96 -97 -112 -113 -127 -128 -141 -142 -167 -168 -178 -179 -189 0
-22 -41 -43 -79 -80 -96 -97 -112 -113 -127 -128 -141 -142 -167 -168 -178 -179 -189 0
-22 -42 -43 -79 -81 -96 -97 -112 -113 -127 -128 -141 -142 -167 -168 -178 -179 -189 0
-22 -42 -43 -80 -81 -96 -98 -112 -113 -127 -128 -141 -142 -167 -168 -178 -179 -189 0
-22 -42 -43 -80 -81 -97 -98 -112 -114 -127 -128 -141 -142 -167 -168 -178 -179 -189 0
-22 -42 -43 -80 -81 -97 -98 -113 -114 -127 -129 -141 -142 -167 -168 -178 -179 -189 0
-22 -42 -43 -80 -81 -97 -98 -113 -114 -128 -129 -141 -143 -167 -168 -178 -179 -189 0
-22 -42 -43 -80 -81 -97 -98 -113 -114 -128 -129 -142 -143 -167 -169 -178 -179 -189 0
-22 -42 -43 -80 -81 -97 -98 -113 -114 -128 -129 -142 -143 -168 -169 -178 -180 -189 0
-22 -42 -43 -80 -81 -97 -98 -113 -114 -128 -129 -142 -143 -168 -169 -179 -180 -190 0
-21 -41 -42 -79 -80 -96 -97 -112 -113 -127 -128 -141 -142 -167 -168 -178 -179 -199 0
-22 -41 -43 -79 -80 -96 -97 -112 -113 -127 -128 -141 -142 -167 -168 -178 -179 -199 0
-22 -42 -43 -79 -81 -96 -97 -112 -113 -127 -128 -141 -142 -167 -168 -178 -179 -199 0
-22 -42 -43 -80 -81 -96 -98 -112 -113 -127 -128 -141 -142 -167 -168 -178 -179 -199 0
-22 -42 -43 -80 -81 -97 -98 -112 -114 -127 -128 -141 -142 -167 -168 -178 -179 -199 0
-22 -42 -43 -80 -81 -97 -98 -113 -114 -127 -129 -141 -142 -167 -168 -178 -179 -199 0
-22 -42 -43 -80 -81 -97 -98 -113 -114 -128 -129 -141 -143 -167 -168 -178 -179 -199 0
-22 -42 -43 -80 -81 -97 -98 -113 -114 -128 -129 -142 -143 -167 -169 -178 -179 -199 0
-22 -42 -43 -80 -81 -97 -98 -113 -114 -128 -129 -142 -143 -168 -169 -178 -180 -199 0
-22 -42 -43 -80 -81 -97 -98 -113 -114 -128 -129 -142 -143 -168 -169 -179 -180 -200 0
-22 -42 -43 -80 -81 -97 -98 -113 -114 -128 -129 -142 -143 -168 -169 -179 -180 -209 0
-21 -41 -42 -79 -80 -96 -97 -112 -113 -127 -128 -141 -142 -167 -168 -189 -190 -199 0
-22 -41 -43 -79 -80 -96 -97 -112 -113 -127 -128 -141 -142 -167 -168 -189 -190 -199 0
-22 -42 -43 -79 -81 -96 -97 -112 -113 -127 -128 -141 -142 -167 -168 -189 -190 -199 0
-22 -42 -43 -80 -81 -96 -98 -112 -113 -127 -128 -141 -142 -167 -168 -189 -190 -199 0
-22 -42 -43 -80 -81 -97 -98 -112 -114 -127 -128 -141 -142 -167 -168 -189 -190 -199 0
-22 -42 -43 -80 -81 -97 -98 -113 -114 -127 -129 -141 -142 -167 -168 -189 -190 -199 0
-22 -42 -43 -80 -81 -97 -98 -113 -114 -128 -129 -141 -143 -167 -168 -189 -190 -199 0
-22 -42 -43 -80 -81 -97 -98 -113 -114 -128 -129 -142 -143 -167 -169 -189 -190 -199 0
-22 -42 -43 -80 -81 -97 -98 -113 -114 -128 -129 -142 -143 -168 -169 -189 -191 -199 0
-22 -42 -43 -80 -81 -97 -98 -113 -114 -128 -129 -142 -143 -168 -169 -190 -191 -200 0
-22 -42 -43 -80 -81 -97 -98 -113 -114 -128 -129 -142 -143 -168 -169 -190 -191 -209 0
-22 -42 -43 -80 -81 -97 -98 -113 -114 -128 -129 -142 -143 -168 -169 -200 -201 -209 0
-21 -41 -42 -79 -80 -96 -97 -112 -113 -127 -128 -141 -142 -179 -180 -189 -190 -199 0
-22 -41 -43 -79 -80 -96 -97 -112 -113 -127 -128 -141 -142 -179 -180 -189 -190 -199 0
-22 -42 -43 -79 -81 -96 -97 -112 -113 -127 -128 -141 -142 -179 -180 -189 -190 -199 0
-22 -42 -43 -80 -81 -96 -98 -112 -113 -127 -128 -141 -142 -179 -180 -189 -190 -199 0
-22 -42 -43 -80 -81 -97 -98 -112 -114 -127 -128 -141 -142 -179 -180 -189 -190 -199 0
-22 -42 -43 -80 -81 -97 -98 -113 -114 -127 -129 -141 -142 -179 -180 -189 -190 -199 0
-22 -42 -43 -80 -81 -97 -98 -113 -114 -128 -129 -141 -143 -179 -180 -189 -190 -199 0
-22 -42 -43 -80 -81 -97 -98 -113 -114 -128 -129 -142 -143 -179 -181 -189 -190 -199 0
-22 -42 -43 -80 -81 -97 -98 -113 -114 -128 -129 -142 -143 -180 -181 -189 -191 -199 0
-22 -42 -43 -80 -81 -97 -98 -113 -114 -128 -129 -142 -143 -180 -181 -190 -191 -200 0
-22 -42 -43 -80 -81 -97 -98 -113 -114 -128 -129 -142 -143 -180 -181 -190 -191 -209 0
-22 -42 -43 -80 -81 -97 -98 -113 -114 -128 -129 -142 -143 -180 -181 -200 -201 -209 0
-22 -42 -43 -80 -81 -97 -98 -113 -114 -128 -129 -142 -143 -191 -192 -200 -201 -209 0
-20 -40 -41 -78 -79 -95 -96 -111 -112 -126 -127 -154 -155 -166 -167 -177 -178 -188 0
-21 -40 -42 -78 -79 -95 -96 -111 -112 -126 -127 -154 -155 -166 -167 -177 -178 -188 0
-22 -40 -43 -78 -79 -95 -96 -111 -112 -126 -127 -154 -155 -166 -167 -177 -178 -188 0
-21 -41 -42 -78 -80 -95 -96 -111 -112 -126 -127 -154 -155 -166 -167 -177 -178 -188 0
-22 -41 -43 -78 -80 -95 -96 -111 -112 -126 -127 -154 -155 -166 -167 -177 -178 -188 0
-22 -42 -43 -78 -81 -95 -96 -111 -112 -126 -127 -154 -155 -166 -167 -177 -178 -188 0
-21 -41 -42 -79 -80 -95 -97 -111 -112 -126 -127 -154 -155 -166 -167 -177 -178 -188 0
-22 -41 -43 -79 -80 -95 -97 -111 -112 -126 -127 -154 -155 -166 -167 -177 -178 -188 0
-22 -42 -43 -79 -81 -95 -97 -111 -112 -126 -127 -154 -155 -166 -167 -177 -178 -188 0
-22 -42 -43 -80 -81 -95 -98 -111 -112 -126 -127 -154 -155 -166 -167 -177 -178 -188 0
-21 -41 -42 -79 -80 -96 -97 -111 -113 -126 -127 -154 -155 -166 -167 -177 -178 -188 0
-22 -41 -43 -79 -80 -96 -97 -111 -113 -126 -127 -154 -155 -166 -167 -177 -178 -188 0
-22 -42 -43 -79 -81 -96 -97 -111 -113 -126 -127 -154 -155 -166 -167 -177 -178 -188 0
-22 -42 -43 -80 -81 -96 -98 -111 -113 -126 -127 -154 -155 -166 -167 -177 -178 -188 0
-22 -42 -43 -80 -81 -97 -98 -111 -114 -126 -127 -154 -155 -166 -167 -177 -178 -188 0
-21 -41 -42 -79 -80 -96 -97 -112 -113 -126 -128 -154 -155 -166 -167 -177 -178 -188 0
-22 -41 -43 -79 -80 -96 -97 -112 -113 -126 -128 -154 -155 -166 -167 -177 -178 -188 0
-22 -42 -43 -79 -81 -96 -97 -112 -113 -126 -128 -154 -155 -166 -167 -177 -178 -188 0
-22 -42 -43 -80 -81 -96 -98 -112 -113 -126 -128 -154 -155 -166 -167 -177 -178 -188 0
-22 -42 -43 -80 -81 -97 -98 -112 -114 -126 -128 -154 -155 -166 -167 -177 -178 -188 0
-22 -42 -43 -80 -81 -97 -98 -113 -114 -126 -129 -154 -155 -166 -167 -177 -178 -188 0
-21 -41 -42 -79 -80 -96 -97 -112 -113 -127 -128 -154 -156 -166 -167 -177 -178 -188 0
-22 -41 -43 -79 -80 -96 -97 -112 -113 -127 -128 -154 -156 -166 -167 -177 -178 -188 0
-22 -42 -43 -79 -81 -96 -97 -112 -113 -127 -128 -154 -156 -166 -167 -177 -178 -188 0
-22 -42 -43 -80 -81 -96 -98 -112 -113 -127 -128 -154 -156 -166 -167 -177 -178 -188 0
-22 -42 -43 -80 -81 -97 -98 -112 -114 -127 -128 -154 -156 -166 -167 -177 -178 -188 0
-22 -42 -43 -80 -81 -97 -98 -113 -114 -127 -129 -154 -156 -166 -167 -177 -178 -188 0
-22 -42 -43 -80 -81 -97 -98 -113 -114 -128 -129 -154 -157 -166 -167 -177 -178 -188 0
-21 -41 -42 -79 -80 -96 -97 -112 -113 -127 -128 -155 -156 -166 -168 -177 -178 -188 0
-22 -41 -43 -79 -80 -96 -97 -112 -113 -127 -128 -155 -156 -166 -168 -177 -178 -188 0
-22 -42 -43 -79 -81 -96 -97 -112 -113 -127 -128 -155 -156 -166 -168 -177 -178 -188 0
-22 -42 -43 -80 -81 -96 -98 -112 -113 -127 -128 -155 -156 -166 -168 -177 -178 -188 0
-22 -42 -43 -80 -81 -97 -98 -112 -114 -127 -128 -155 -156 -166 -168 -177 -178 -188 0
-22 -42 -43 -80 -81 -97 -98 -113 -114 -127 -129 -155 -156 -166 -168 -177 -178 -188 0
-22 -42 -43 -80 -81 -97 -98 -113 -114 -128 -129 -155 -157 -166 -168 -177 -178 -188 0
-22 -42 -43 -80 -81 -97 -98 -113 -114 -128 -129 -156 -157 -166 -169 -177 -178 -188 0
-21 -41 -42 -79 -80 -96 -97 -112 -113 -127 -128 -155 -156 -167 -168 -177 -179 -188 0
-22 -41 -43 -79 -80 -96 -97 -112 -113 -127 -128 -155 -156 -167 -168 -177 -179 -188 0
-22 -42 -43 -79 -81 -96 -97 -112 -113 -127 -128 -155 -156 -167 -168 -177 -179 -188 0
-22 -42 -43 -80 -81 -96 -98 -112 -113 -127 -128 -155 -156 -167 -168 -177 -179 -188 0
-22 -42 -43 -80 -81 -97 -98 -112 -114 -127 -128 -155 -156 -167 -168 -177 -179 -188 0
-22 -42 -43 -80 -81 -97 -98 -113 -114 -127 -129 -155 -156 -167 -168 -177 -179 -188 0
-22 -42 -43 -80 -81 -97 -98 -113 -114 -128 -129 -155 -157 -167 -168 -177 -179 -188 0
-22 -42 -43 -80 -81 -97 -98 -113 -114 -128 -129 -156 -157 -167 -169 -177 -179 -188 0
-22 -42 -43 -80 -81 -97 -98 -113 -114 -128 -129 -156 -157 -168 -169 -177 -180 -188 0
-21 -41 -42 -79 -80 -96 -97 -112 -113 -127 -128 -155 -156 -167 -168 -178 -179 -189 0
-22 -41 -43 -79 -80 -96 -97 -112 -113 -127 -128 -155 -156 -167 -168 -178 -179 -189 0
-22 -42 -43 -79 -81 -96 -97 -112 -113 -127 -128 -155 -156 -167 -168 -178 -179 -189 0
-22 -42 -43 -80 -81 -96 -98 -112 -113 -127 -128 -155 -156 -167 -168 -178 -179 -189 0
-22 -42 -43 -80 -81 -97 -98 -112 -114 -127 -128 -155 -156 -167 -168 -178 -179 -189 0
-22 -42 -43 -80 -81 -97 -98 -113 -114 -127 -129 -155 -156 -167 -168 -178 -179 -189 0
-22 -42 -43 -80 -81 -97 -98 -113 -114 -128 -129 -155 -157 -167 -168 -178 -179 -189 0
-22 -42 -43 -80 -81 -97 -98 -113 -114 -128 -129 -156 -157 -167 -169 -178 -179 -189 0
-22 -42 -43 -80 -81 -97 -98 -113 -114 -128 -129 -156 -157 -168 -169 -178 -180 -189 0
-22 -42 -43 -80 -81 -97 -98 -113 -114 -128 -129 -156 -157 -168 -169 -179 -180 -190 0
-21 -41 -42 -79 -80 -96 -97 -112 -113 -127 -128 -155 -156 -167 -168 -178 -179 -199 0
-22 -41 -43 -79 -80 -96 -97 -112 -113 -127 -128 -155 -156 -167 -168 -178 -179 -199 0
-22 -42 -43 -79 -81 -96 -97 -112 -113 -127 -128 -155 -156 -167 -168 -178 -179 -199 0
-22 -42 -43 -80 -81 -96 -98 -112 -113 -127 -128 -155 -156 -167 -168 -178 -179 -199 0
-22 -42 -43 -80 -81 -97 -98 -112 -114 -127 -128 -155 -156 -167 -168 -178 -179 -199 0
-22 -42 -43 -80 -81 -97 -98 -113 -114 -127 -129 -155 -156 -167 -168 -178 -179 -199 0
-22 -42 -43 -80 -81 -97 -98 -113 -114 -128 -129 -155 -157 -167 -168 -178 -179 -199 0
-22 -42 -43 -80 -81 -97 -98 -113 -114 -128 -129 -156 -157 -167 -169 -178 -179 -199 0
-22 -42 -43 -80 -81 -97 -98 -113 -114 -128 -129 -156 -157 -168 -169 -178 -180 -199 0
-22 -42 -43 -80 -81 -97 -98 -113 -114 -128 -129 -156 -157 -168 -169 -179 -180 -200 0
-22 -42 -43 -80 -81 -97 -98 -113 -114 -128 -129 -156 -157 -168 -169 -179 -180 -209 0
-21 -41 -42 -79 -80 -96 -97 -112 -113 -127 -128 -155 -156 -167 -168 -189 -190 -199 0
-22 -41 -43 -79 -80 -96 -97 -112 -113 -127 -128 -155 -156 -167 -168 -189 -190 -199 0
-22 -42 -43 -79 -81 -96 -97 -112 -113 -127 -128 -155 -156 -167 -168 -189 -190 -199 0
-22 -42 -43 -80 -81 -96 -98 -112 -113 -127 -128 -155 -156 -167 -168 -189 -190 -199 0
-22 -42 -43 -80 -81 -97 -98 -112 -114 -127 -128 -155 -156 -167 -168 -189 -190 -199 0
-22 -42 -43 -80 -81 -97 -98 -113 -114 -127 -129 -155 -156 -167 -168 -189 -190 -199 0
-22 -42 -43 -80 -81 -97 -98 -113 -114 -128 -129 -155 -157 -167 -168 -189 -190 -199 0
-22 -42 -43 -80 -81 -97 -98 -113 -114 -128 -129 -156 -157 -167 -169 -189 -190 -199 0
-22 -42 -43 -80 -81 -97 -98 -113 -114 -128 -129 -156 -157 -168 -169 -189 -191 -199 0
-22 -42 -43 -80 -81 -97 -98 -113 -114 -128 -129 -156 -157 -168 -169 -190 -191 -200 0
-22 -42 -43 -80 -81 -97 -98 -113 -114 -128 -129 -156 -157 -168 -169 -190 -191 -209 0
-22 -42 -43 -80 -81 -97 -98 -113 -114 -128 -129 -156 -157 -168 -169 -200 -201 -209 0
-21 -41 -42 -79 -80 -96 -97 -112 -113 -127 -128 -155 -156 -179 -180 -189 -190 -199 0
-22 -41 -43 -79 -80 -96 -97 -112 -113 -127 -128 -155 -156 -179 -180 -189 -190 -199 0
-22 -42 -43 -79 -81 -96 -97 -112 -113 -127 -128 -155 -156 -179 -180 -189 -190 -199 0
-22 -42 -43 -80 -81 -96 -98 -112 -113 -127 -128 -155 -156 -179 -180 -189 -190 -199 0
-22 -42 -43 -80 -81 -97 -98 -112 -114 -127 -128 -155 -156 -179 -180 -189 -190 -199 0
-22 -42 -43 -80 -81 -97 -98 -113 -114 -127 -129 -155 -156 -179 -180 -189 -190 -199 0
-22 -42 -43 -80 -81 -97 -98 -113 -114 -128 -129 -155 -157 -179 -180 -189 -190 -199 0
-22 -42 -43 -80 -81 -97 -98 -113 -114 -128 -129 -156 -157 -179 -181 -189 -190 -199 0
-22 -42 -43 -80 -81 -97 -98 -113 -114 -128 -129 -156 -157 -180 -181 -189 -191 -199 0
-22 -42 -43 -80 -81 -97 -98 -113 -114 -128 -129 -156 -157 -180 -181 -190 -191 -200 0
-22 -42 -43 -80 -81 -97 -98 -113 -114 -128 -129 -156 -157 -180 -181 -190 -191 -209 0
-22 -42 -43 -80 -81 -97 -98 -113 -114 -128 -129 -156 -157 -180 -181 -200 -201 -209 0
-22 -42 -43 -80 -81 -97 -98 -113 -114 -128 -129 -156 -157 -191 -192 -200 -201 -209 0
-21 -41 -42 -79 -80 -96 -97 -112 -113 -127 -128 -168 -169 -179 -180 -189 -190 -199 0
-22 -41 -43 -79 -80 -96 -97 -112 -113 -127 -128 -168 -169 -179 -180 -189 -190 -199 0
-22 -42 -43 -79 -81 -96 -97 -112 -113 -127 -128 -168 -169 -179 -180 -189 -190 -199 0
-22 -42 -43 -80 -81 -96 -98 -112 -113 -127 -128 -168 -169 -179 -180 -189 -190 -199 0
-22 -42 -43 -80 -81 -97 -98 -112 -114 -127 -128 -168 -169 -179 -180 -189 -190 -199 0
-22 -42 -43 -80 -81 -97 -98 -113 -114 -127 -129 -168 -169 -179 -180 -189 -190 -199 0
-22 -42 -43 -80 -81 -97 -98 -113 -114 -128 -129 -168 -170 -179 -180 -189 -190 -199 0
-22 -42 -43 -80 -81 -97 -98 -113 -114 -128 -129 -169 -170 -179 -181 -189 -190 -199 0
-22 -42 -43 -80 -81 -97 -98 -113 -114 -128 -129 -169 -170 -180 -181 -189 -191 -199 0
-22 -42 -43 -80 -81 -97 -98 -113 -114 -128 -129 -169 -170 -180 -181 -190 -191 -200 0
-22 -42 -43 -80 -81 -97 -98 -113 -114 -128 -129 -169 -170 -180 -181 -190 -191 -209 0
-22 -42 -43 -80 -81 -97 -98 -113 -114 -128 -129 -169 -170 -180 -181 -200 -201 -209 0
-22 -42 -43 -80 -81 -97 -98 -113 -114 -128 -129 -169 -170 -191 -192 -200 -201 -209 0
-22 -42 -43 -80 -81 -97 -98 -113 -114 -128 -129 -181 -182 -191 -192 -200 -201 -209 0
-20 -40 -41 -78 -79 -95 -96 -111 -112 -141 -142 -154 -155 -166 -167 -177 -178 -188 0
-21 -40 -42 -78 -79 -95 -96 -111 -112 -141 -142 -154 -155 -166 -167 -177 -178 -188 0
-22 -40 -43 -78 -79 -95 -96 -111 -112 -141 -142 -154 -155 -166 -167 -177 -178 -188 0
-21 -41 -42 -78 -80 -95 -96 -111 -112 -141 -142 -154 -155 -166 -167 -177 -178 -188 0
-22 -41 -43 -78 -80 -95 -96 -111 -112 -141 -142 -154 -155 -166 -167 -177 -178 -188 0
-22 -42 -43 -78 -81 -95 -96 -111 -112 -141 -142 -154 -155 -166 -167 -177 -178 -188 0
-21 -41 -42 -79 -80 -95 -97 -111 -112 -141 -142 -154 -155 -166 -167 -177 -178 -188 0
-22 -41 -43 -79 -80 -95 -97 -111 -112 -141 -142 -154 -155 -166 -167 -177 -178 -188 0
-22 -42 -43 -79 -81 -95 -97 -111 -112 -141 -142 -154 -155 -166 -167 -177 -178 -188 0
-22 -42 -43 -80 -81 -95 -98 -111 -112 -141 -142 -154 -155 -166 -167 -177 -178 -188 0
-21 -41 -42 -79 -80 -96 -97 -111 -113 -141 -142 -154 -155 -166 -167 -177 -178 -188 0
-22 -41 -43 -79 -80 -96 -97 -111 -113 -141 -142 -154 -155 -166 -167 -177 -178 -188 0
-22 -42 -43 -79 -81 -96 -97 -111 -113 -141 -142 -154 -155 -166 -167 -177 -178 -188 0
-22 -42 -43 -80 -81 -96 -98 -111 -113 -141 -142 -154 -155 -166 -167 -177 -178 -188 0
-22 -42 -43 -80 -81 -97 -98 -111 -114 -141 -142 -154 -155 -166 -167 -177 -178 -188 0
-21 -41 -42 -79 -80 -96 -97 -112 -113 -141 -143 -154 -155 -166 -167 -177 -178 -188 0
-22 -41 -43 -79 -80 -96 -97 -112 -113 -141 -143 -154 -155 -166 -167 -177 -178 -188 0
-22 -42 -43 -79 -81 -96 -97 -112 -113 -141 -143 -154 -155 -166 -167 -177 -178 -188 0
-22 -42 -43 -80 -81 -96 -98 -112 -113 -141 -143 -154 -155 -166 -167 -177 -178 -188 0
-22 -42 -43 -80 -81 -97 -98 -112 -114 -141 -143 -154 -155 -166 -167 -177 -178 -188 0
-22 -42 -43 -80 -81 -97 -98 -113 -114 -141 -144 -154 -155 -166 -167 -177 -178 -188 0
-21 -41 -42 -79 -80 -96 -97 -112 -113 -142 -143 -154 -156 -166 -167 -177 -178 -188 0
-22 -41 -43 -79 -80 -96 -97 -112 -113 -142 -143 -154 -156 -166 -167 -177 -178 -188 0
-22 -42 -43 -79 -81 -96 -97 -112 -113 -142 -143 -154 -156 -166 -167 -177 -178 -188 0
-22 -42 -43 -80 -81 -96 -98 -112 -113 -142 -143 -154 -156 -166 -167 -177 -178 -188 0
-22 -42 -43 -80 -81 -97 -98 -112 -114 -142 -143 -154 -156 -166 -167 -177 -178 -188 0
-22 -42 -43 -80 -81 -97 -98 -113 -114 -142 -144 -154 -156 -166 -167 -177 -178 -188 0
-22 -42 -43 -80 -81 -97 -98 -113 -114 -143 -144 -154 -157 -166 -167 -177 -178 -188 0
-21 -41 -42 -79 -80 -96 -97 -112 -113 -142 -143 -155 -156 -166 -168 -177 -178 -188 0
-22 -41 -43 -79 -80 -96 -97 -112 -113 -142 -143 -155 -156 -166 -168 -177 -178 -188 0
-22 -42 -43 -79 -81 -96 -97 -112 -113 -142 -143 -155 -156 -166 -168 -177 -178 -188 0
-22 -42 -43 -80 -81 -96 -98 -112 -113 -142 -143 -155 -156 -166 -168 -177 -178 -188 0
-22 -42 -43 -80 -81 -97 -98 -112 -114 -142 -143 -155 -156 -166 -168 -177 -178 -188 0
-22 -42 -43 -80 -81 -97 -98 -113 -114 -142 -144 -155 -156 -166 -168 -177 -178 -188 0
-22 -42 -43 -80 -81 -97 -98 -113 -114 -143 -144 -155 -157 -166 -168 -177 -178 -188 0
-22 -42 -43 -80 -81 -97 -98 -113 -114 -143 -144 -156 -157 -166 -169 -177 -178 -188 0
-21 -41 -42 -79 -80 -96 -97 -112 -113 -142 -143 -155 -156 -167 -168 -177 -179 -188 0
-22 -41 -43 -79 -80 -96 -97 -112 -113 -142 -143 -155 -156 -167 -168 -177 -179 -188 0
-22 -42 -43 -79 -81 -96 -97 -112 -113 -142 -143 -155 -156 -167 -168 -177 -179 -188 0
-22 -42 -43 -80 -81 -96 -98 -112 -113 -142 -143 -155 -156 -167 -168 -177 -179 -188 0
-22 -42 -43 -80 -81 -97 -98 -112 -114 -142 -143 -155 -156 -167 -168 -177 -179 -188 0
-22 -42 -43 -80 -81 -97 -98 -113 -114 -142 -144 -155 -156 -167 -168 -177 -179 -188 0
-22 -42 -43 -80 -81 -97 -98 -113 -114 -143 -144 -155 -157 -167 -168 -177 -179 -188 0
-22 -42 -43 -80 -81 -97 -98 -113 -114 -143 -144 -156 -157 -167 -169 -177 -179 -188 0
-22 -42 -43 -80 -81 -97 -98 -113 -114 -143 -144 -156 -157 -168 -169 -177 -180 -188 0
-21 -41 -42 -79 -80 -96 -97 -112 -113 -142 -143 -155 -156 -167 -168 -178 -179 -189 0
-22 -41 -43 -79 -80 -96 -97 -112 -113 -142 -143 -155 -156 -167 -168 -178 -179 -189 0
-22 -42 -43 -79 -81 -96 -97 -112 -113 -142 -143 -155 -156 -167 -168 -178 -179 -189 0
-22 -42 -43 -80 -81 -96 -98 -112 -113 -142 -143 -155 -156 -167 -168 -178 -179 -189 0
-22 -42 -43 -80 -81 -97 -98 -112 -114 -142 -143 -155 -156 -167 -168 -178 -179 -189 0
-22 -42 -43 -80 -81 -97 -98 -113 -114 -142 -144 -155 -156 -167 -168 -178 -179 -189 0
-22 -42 -43 -80 -81 -97 -98 -113 -114 -143 -144 -155 -157 -167 -168 -178 -179 -189 0
-22 -42 -43 -80 -81 -97 -98 -113 -114 -143 -144 -156 -157 -167 -169 -178 -179 -189 0
-22 -42 -43 -80 -81 -97 -98 -113 -114 -143 -144 -156 -157 -168 -169 -178 -180 -189 0
-22 -42 -43 -80 -81 -97 -98 -113 -114 -143 -144 -156 -157 -168 -169 -179 -180 -190 0
-21 -41 -42 -79 -80 -96 -97 -112 -113 -142 -143 -155 -156 -167 -168 -178 -179 -199 0
-22 -41 -43 -79 -80 -96 -97 -112 -113 -142 -143 -155 -156 -167 -168 -178 -179 -199 0
-22 -42 -43 -79 -81 -96 -97 -112 -113 -142 -143 -155 -156 -167 -168 -178 -179 -199 0
-22 -42 -43 -80 -81 -96 -98 -112 -113 -142 -143 -155 -156 -167 -168 -178 -179 -199 0
-22 -42 -43 -80 -81 -97 -98 -112 -114 -142 -143 -155 -156 -167 -168 -178 -179 -199 0
-22 -42 -43 -80 -81 -97 -98 -113 -114 -142 -144 -155 -156 -167 -168 -178 -179 -199 0
-22 -42 -43 -80 -81 -97 -98 -113 -114 -143 -144 -155 -157 -167 -168 -178 -179 -199 0
-22 -42 -43 -80 -81 -97 -98 -113 -114 -143 -144 -156 -157 -167 -169 -178 -179 -199 0
-22 -42 -43 -80 -81 -97 -98 -113 -114 -143 -144 -156 -157 -168 -169 -178 -180 -199 0
-22 -42 -43 -80 -81 -97 -98 -113 -114 -143 -144 -156 -157 -168 -169 -179 -180 -200 0
-22 -42 -43 -80 -81 -97 -98 -113 -114 -143 -144 -156 -157 -168 -169 -179 -180 -209 0
-21 -41 -42 -79 -80 -96 -97 -112 -113 -142 -143 -155 -156 -167 -168 -189 -190 -199 0
-22 -41 -43 -79 -80 -96 -97 -112 -113 -142 -143 -155 -156 -167 -168 -189 -190 -199 0
-22 -42 -43 -79 -81 -96 -97 -112 -113 -142 -143 -155 -156 -167 -168 -189 -190 -199 0
-22 -42 -43 -80 -81 -96 -98 -112 -113 -142 -143 -155 -156 -167 -168 -189 -190 -199 0
-22 -42 -43 -80 -81 -97 -98 -112 -114 -142 -143 -155 -156 -167 -168 -189 -190 -199 0
-22 -42 -43 -80 -81 -97 -98 -113 -114 -142 -144 -155 -156 -167 -168 -189 -190 -199 0
-22 -42 -43 -80 -81 -97 -98 -113 -114 -143 -144 -155 -157 -167 -168 -189 -190 -199 0
-22 -42 -43 -80 -81 -97 -98 -113 -114 -143 -144 -156 -157 -167 -169 -189 -190 -199 0
-22 -42 -43 -80 -81 -97 -98 -113 -114 -143 -144 -156 -157 -168 -169 -189 -191 -199 0
-22 -42 -43 -80 -81 -97 -98 -113 -114 -143 -144 -156 -157 -168 -169 -190 -191 -200 0
-22 -42 -43 -80 -81 -97 -98 -113 -114 -143 -144 -156 -157 -168 -169 -190 -191 -209 0
-22 -42 -43 -80 -81 -97 -98 -113 -114 -143 -144 -156 -157 -168 -169 -200 -201 -209 0
-21 -41 -42 -79 -80 -96 -97 -112 -113 -142 -143 -155 -156 -179 -180 -189 -190 -199 0
-22 -41 -43 -79 -80 -96 -97 -112 -113 -142 -143 -155 -156 -179 -180 -189 -190 -199 0
-22 -42 -43 -79 -81 -96 -97 -112 -113 -142 -143 -155 -156 -179 -180 -189 -190 -199 0
-22 -42 -43 -80 -81 -96 -98 -112 -113 -142 -143 -155 -156 -179 -180 -189 -190 -199 0
-22 -42 -43 -80 -81 -97 -98 -112 -114 -142 -143 -155 -156 -179 -180 -189 -190 -199 0
-22 -42 -43 -80 -81 -97 -98 -113 -114 -142 -144 -155 -156 -179 -180 -189 -190 -199 0
-22 -42 -43 -80 -81 -97 -98 -113 -114 -143 -144 -155 -157 -179 -180 -189 -190 -199 0
-22 -42 -43 -80 -81 -97 -98 -113 -114 -143 -144 -156 -157 -179 -181 -189 -190 -199 0
-22 -42 -43 -80 -81 -97 -98 -113 -114 -143 -144 -156 -157 -180 -181 -189 -191 -199 0
-22 -42 -43 -80 -81 -97 -98 -113 -114 -143 -144 -156 -157 -180 -181 -190 -191 -200 0
-22 -42 -43 -80 -81 -97 -98 -113 -114 -143 -144 -156 -157 -180 -181 -190 -191 -209 0
-22 -42 -43 -80 -81 -97 -98 -113 -114 -143 -144 -156 -157 -180 -181 -200 -201 -209 0
-22 -42 -43 -80 -81 -97 -98 -113 -114 -143 -144 -156 -157 -191 -192 -200 -201 -209 0
-21 -41 -42 -79 -80 -96 -97 -112 -113 -142 -143 -168 -169 -179 -180 -189 -190 -199 0
-22 -41 -43 -79 -80 -96 -97 -112 -113 -142 -143 -168 -169 -179 -180 -189 -190 -199 0
-22 -42 -43 -79 -81 -96 -97 -112 -113 -142 -143 -168 -169 -179 -180 -189 -190 -199 0
-22 -42 -43 -80 -81 -96 -98 -112 -113 -142 -143 -168 -169 -179 -180 -189 -190 -199 0
-22 -42 -43 -80 -81 -97 -98 -112 -114 -142 -143 -168 -169 -179 -180 -189 -190 -199 0
-22 -42 -43 -80 -81 -97 -98 -113 -114 -142 -144 -168 -169 -179 -180 -189 -190 -199 0
-22 -42 -43 -80 -81 -97 -98 -113 -114 -143 -144 -168 -170 -179 -180 -189 -190 -199 0
-22 -42 -43 -80 -81 -97 -98 -113 -114 -143 -144 -169 -170 -179 -181 -189 -190 -199 0
-22 -42 -43 -80 -81 -97 -98 -113 -114 -143 -144 -169 -170 -180 -181 -189 -191 -199 0
-22 -42 -43 -80 -81 -97 -98 -113 -114 -143 -144 -169 -170 -180 -181 -190 -191 -200 0
-22 -42 -43 -80 -81 -97 -98 -113 -114 -143 -144 -169 -170 -180 -181 -190 -191 -209 0
-22 -42 -43 -80 -81 -97 -98 -113 -114 -143 -144 -169 -170 -180 -181 -200 -201 -209 0
-22 -42 -43 -80 -81 -97 -98 -113 -114 -143 -144 -169 -170 -191 -192 -200 -201 -209 0
-22 -42 -43 -80 -81 -97 -98 -113 -114 -143 -144 -181 -182 -191 -192 -200 -201 -209 0
-21 -41 -42 -79 -80 -96 -97 -112 -113 -156 -157 -168 -169 -179 -180 -189 -190 -199 0
-22 -41 -43 -79 -80 -96 -97 -112 -113 -156 -157 -168 -169 -179 -180 -189 -190 -199 0
-22 -42 -43 -79 -81 -96 -97 -112 -113 -156 -157 -168 -169 -179 -180 -189 -190 -199 0
-22 -42 -43 -80 -81 -96 -98 -112 -113 -156 -157 -168 -169 -179 -180 -189 -190 -199 0
-22 -42 -43 -80 -81 -97 -98 -112 -114 -156 -157 -168 -169 -179 -180 -189 -190 -199 0
-22 -42 -43 -80 -81 -97 -98 -113 -114 -156 -158 -168 -169 -179 -180 -189 -190 -199 0
-22 -42 -43 -80 -81 -97 -98 -113 -114 -157 -158 -168 -170 -179 -180 -189 -190 -199 0
-22 -42 -43 -80 -81 -97 -98 -113 -114 -157 -158 -169 -170 -179 -181 -189 -190 -199 0
-22 -42 -43 -80 -81 -97 -98 -113 -114 -157 -158 -169 -170 -180 -181 -189 -191 -199 0
-22 -42 -43 -80 -81 -97 -98 -113 -114 -157 -158 -169 -170 -180 -181 -190 -191 -200 0
-22 -42 -43 -80 -81 -97 -98 -113 -114 -157 -158 -169 -170 -180 -181 -190 -191 -209 0
-22 -42 -43 -80 -81 -97 -98 -113 -114 -157 -158 -169 -170 -180 -181 -200 -201 -209 0
-22 -42 -43 -80 -81 -97 -98 -113 -114 -157 -158 -169 -170 -191 -192 -200 -201 -209 0
-22 -42 -43 -80 -81 -97 -98 -113 -114 -157 -158 -181 -182 -191 -192 -200 -201 -209 0
-22 -42 -43 -80 -81 -97 -98 -113 -114 -170 -171 -181 -182 -191 -192 -200 -201 -209 0
-20 -40 -41 -78 -79 -95 -96 -127 -128 -141 -142 -154 -155 -166 -167 -177 -178 -188 0
-21 -40 -42 -78 -79 -95 -96 -127 -128 -141 -142 -154 -155 -166 -167 -177 -178 -188 0
-22 -40 -43 -78 -79 -95 -96 -127 -128 -141 -142 -154 -155 -166 -167 -177 -178 -188 0
-21 -41 -42 -78 -80 -95 -96 -127 -128 -141 -142 -154 -155 -166 -167 -177 -178 -188 0
-22 -41 -43 -78 -80 -95 -96 -127 -128 -141 -142 -154 -155 -166 -167 -177 -178 -188 0
-22 -42 -43 -78 -81 -95 -96 -127 -128 -141 -142 -154 -155 -166 -167 -177 -178 -188 0
-21 -41 -42 -79 -80 -95 -97 -127 -128 -141 -142 -154 -155 -166 -167 -177 -178 -188 0
-22 -41 -43 -79 -80 -95 -97 -127 -128 -141 -142 -154 -155 -166 -167 -177 -178 -188 0
-22 -42 -43 -79 -81 -95 -97 -127 -128 -141 -142 -154 -155 -166 -167 -177 -178 -188 0
-22 -42 -43 -80 -81 -95 -98 -127 -128 -141 -142 -154 -155 -166 -167 -177 -178 -188 0
-21 -41 -42 -79 -80 -96 -97 -127 -129 -141 -142 -154 -155 -166 -167 -177 -178 -188 0
-22 -41 -43 -79 -80 -96 -97 -127 -129 -141 -142 -154 -155 -166 -167 -177 -178 -188 0
-22 -42 -43 -79 -81 -96 -97 -127 -129 -141 -142 -154 -155 -166 -167 -177 -178 -188 0
-22 -42 -43 -80 -81 -96 -98 -127 -129 -141 -142 -154 -155 -166 -167 -177 -178 -188 0
-22 -42 -43 -80 -81 -97 -98 -127 -130 -141 -142 -154 -155 -166 -167 -177 -178 -188 0
-21 -41 -42 -79 -80 -96 -97 -128 -129 -141 -143 -154 -155 -166 -167 -177 -178 -188 0
-22 -41 -43 -79 -80 -96 -97 -128 -129 -141 -143 -154 -155 -166 -167 -177 -178 -188 0
-22 -42 -43 -79 -81 -96 -97 -128 -129 -141 -143 -154 -155 -166 -167 -177 -178 -188 0
-22 -42 -43 -80 -81 -96 -98 -128 -129 -141 -143 -154 -155 -166 -167 -177 -178 -188 0
-22 -42 -43 -80 -81 -97 -98 -128 -130 -141 -143 -154 -155 -166 -167 -177 -178 -188 0
-22 -42 -43 -80 -81 -97 -98 -129 -130 -141 -144 -154 -155 -166 -167 -177 -178 -188 0
-21 -41 -42 -79 -80 -96 -97 -128 -129 -142 -143 -154 -156 -166 -167 -177 -178 -188 0
-22 -41 -43 -79 -80 -96 -97 -128 -129 -142 -143 -154 -156 -166 -167 -177 -178 -188 0
-22 -42 -43 -79 -81 -96 -97 -128 -129 -142 -143 -154 -156 -166 -167 -177 -178 -188 0
-22 -42 -43 -80 -81 -96 -98 -128 -129 -142 -143 -154 -156 -166 -167 -177 -178 -188 0
-22 -42 -43 -80 -81 -97 -98 -128 -130 -142 -143 -154 -156 -166 -167 -177 -178 -188 0
-22 -42 -43 -80 -81 -97 -98 -129 -130 -142 -144 -154 -156 -166 -167 -177 -178 -188 0
-22 -42 -43 -80 -81 -97 -98 -129 -130 -143 -144 -154 -157 -166 -167 -177 -178 -188 0
-21 -41 -42 -79 -80 -96 -97 -128 -129 -142 -143 -155 -156 -166 -168 -177 -178 -188 0
-22 -41 -43 -79 -80 -96 -97 -128 -129 -142 -143 -155 -156 -166 -168 -177 -178 -188 0
-22 -42 -43 -79 -81 -96 -97 -128 -129 -142 -143 -155 -156 -166 -168 -177 -178 -188 0
-22 -42 -43 -80 -81 -96 -98 -128 -129 -142 -143 -155 -156 -166 -168 -177 -178 -188 0
-22 -42 -43 -80 -81 -97 -98 -128 -130 -142 -143 -155 -156 -166 -168 -177 -178 -188 0
-22 -42 -43 -80 -81 -97 -98 -129 -130 -142 -144 -155 -156 -166 -168 -177 -178 -188 0
-22 -42 -43 -80 -81 -97 -98 -129 -130 -143 -144 -155 -157 -166 -168 -177 -178 -188 0
-22 -42 -43 -80 -81 -97 -98 -129 -130 -143 -144 -156 -157 -166 -169 -177 -178 -188 0
-21 -41 -42 -79 -80 -96 -97 -128 -129 -142 -143 -155 -156 -167 -168 -177 -179 -188 0
-22 -41 -43 -79 -80 -96 -97 -128 -129 -142 -143 -155 -156 -167 -168 -177 -179 -188 0
-22 -42 -43 -79 -81 -96 -97 -128 -129 -142 -143 -155 -156 -167 -168 -177 -179 -188 0
-22 -42 -43 -80 -81 -96 -98 -128 -129 -142 -143 -155 -156 -167 -168 -177 -179 -188 0
-22 -42 -43 -80 -81 -97 -98 -128 -130 -142 -143 -155 -156 -167 -168 -177 -179 -188 0
-22 -42 -43 -80 -81 -97 -98 -129 -130 -142 -144 -155 -156 -167 -168 -177 -179 -188 0
-22 -42 -43 -80 -81 -97 -98 -129 -130 -143 -144 -155 -157 -167 -168 -177 -179 -188 0
-22 -42 -43 -80 -81 -97 -98 -129 -130 -143 -144 -156 -157 -167 -169 -177 -179 -188 0
-22 -42 -43 -80 -81 -97 -98 -129 -130 -143 -144 -156 -157 -168 -169 -177 -180 -188 0
-21 -41 -42 -79 -80 -96 -97 -128 -129 -142 -143 -155 -156 -167 -168 -178 -179 -189 0
-22 -41 -43 -79 -80 -96 -97 -128 -129 -142 -143 -155 -156 -167 -168 -178 -179 -189 0
-22 -42 -43 -79 -81 -96 -97 -128 -129 -142 -143 -155 -156 -167 -168 -178 -179 -189 0
-22 -42 -43 -80 -81 -96 -98 -128 -129 -142 -143 -155 -156 -167 -168 -178 -179 -189 0
-22 -42 -43 -80 -81 -97 -98 -128 -130 -142 -143 -155 -156 -167 -168 -178 -179 -189 0
-22 -42 -43 -80 -81 -97 -98 -129 -130 -142 -144 -155 -156 -167 -168 -178 -179 -189 0
-22 -42 -43 -80 -81 -97 -98 -129 -130 -143 -144 -155 -157 -167 -168 -178 -179 -189 0
-22 -42 -43 -80 -81 -97 -98 -129 -130 -143 -144 -156 -157 -167 -169 -178 -179 -189 0
-22 -42 -43 -80 -81 -97 -98 -129 -130 -143 -144 -156 -157 -168 -169 -178 -180 -189 0
-22 -42 -43 -80 -81 -97 -98 -129 -130 -143 -144 -156 -157 -168 -169 -179 -180 -190 0
-21 -41 -42 -79 -80 -96 -97 -128 -129 -142 -143 -155 -156 -167 -168 -178 -179 -199 0
-22 -41 -43 -79 -80 -96 -97 -128 -129 -142 -143 -155 -156 -167 -168 -178 -179 -199 0
-22 -42 -43 -79 -81 -96 -97 -128 -129 -142 -143 -155 -156 -167 -168 -178 -179 -199 0
-22 -42 -43 -80 -81 -96 -98 -128 -129 -142 -143 -155 -156 -167 -168 -178 -179 -199 0
-22 -42 -43 -80 -81 -97 -98 -128 -130 -142 -143 -155 -156 -167 -168 -178 -179 -199 0
-22 -42 -43 -80 -81 -97 -98 -129 -130 -142 -144 -155 -156 -167 -168 -178 -179 -199 0
-22 -42 -43 -80 -81 -97 -98 -129 -130 -143 -144 -155 -157 -167 -168 -178 -179 -199 0
-22 -42 -43 -80 -81 -97 -98 -129 -130 -143 -144 -156 -157 -167 -169 -178 -179 -199 0
-22 -42 -43 -80 -81 -97 -98 -129 -130 -143 -144 -156 -157 -168 -169 -178 -180 -199 0
-22 -42 -43 -80 -81 -97 -98 -129 -130 -143 -144 -156 -157 -168 -169 -179 -180 -200 0
-22 -42 -43 -80 -81 -97 -98 -129 -130 -143 -144 -156 -157 -168 -169 -179 -180 -209 0
-21 -41 -42 -79 -80 -96 -97 -128 -129 -142 -143 -155 -156 -167 -168 -189 -190 -199 0
-22 -41 -43 -79 -80 -96 -97 -128 -129 -142 -143 -155 -156 -167 -168 -189 -190 -199 0
-22 -42 -43 -79 -81 -96 -97 -128 -129 -142 -143 -155 -156 -167 -168 -189 -190 -199 0
-22 -42 -43 -80 -81 -96 -98 -128 -129 -142 -143 -155 -156 -167 -168 -189 -190 -199 0
-22 -42 -43 -80 -81 -97 -98 -128 -130 -142 -143 -155 -156 -167 -168 -189 -190 -199 0
-22 -42 -43 -80 -81 -97 -98 -129 -130 -142 -144 -155 -156 -167 -168 -189 -190 -199 0
-22 -42 -43 -80 -81 -97 -98 -129 -130 -143 -144 -155 -157 -167 -168 -189 -190 -199 0
-22 -42 -43 -80 -81 -97 -98 -129 -130 -143 -144 -156 -157 -167 -169 -189 -190 -199 0
-22 -42 -43 -80 -81 -97 -98 -129 -130 -143 -144 -156 -157 -168 -169 -189 -191 -199 0
-22 -42 -43 -80 -81 -97 -98 -129 -130 -143 -144 -156 -157 -168 -169 -190 -191 -200 0
-22 -42 -43 -80 -81 -97 -98 -129 -130 -143 -144 -156 -157 -168 -169 -190 -191 -209 0
-22 -42 -43 -80 -81 -97 -98 -129 -130 -143 -144 -156 -157 -168 -169 -200 -201 -209 0
-21 -41 -42 -79 -80 -96 -97 -128 -129 -142 -143 -155 -156 -179 -180 -189 -190 -199 0
-22 -41 -43 -79 -80 -96 -97 -128 -129 -142 -143 -155 -156 -179 -180 -189 -190 -199 0
-22 -42 -43 -79 -81 -96 -97 -128 -129 -142 -143 -155 -156 -179 -180 -189 -190 -199 0
-22 -42 -43 -80 -81 -96 -98 -128 -129 -142 -143 -155 -156 -179 -180 -189 -190 -199 0
-22 -42 -43 -80 -81 -97 -98 -128 -130 -142 -143 -155 -156 -179 -180 -189 -190 -199 0
-22 -42 -43 -80 -81 -97 -98 -129 -130 -142 -144 -155 -156 -179 -180 -189 -190 -199 0
-22 -42 -43 -80 -81 -97 -98 -129 -130 -143 -144 -155 -157 -179 -180 -189 -190 -199 0
-22 -42 -43 -80 -81 -97 -98 -129 -130 -143 -144 -156 -157 -179 -181 -189 -190 -199 0
-22 -42 -43 -80 -81 -97 -98 -129 -130 -143 -144 -156 -157 -180 -181 -189 -191 -199 0
-22 -42 -43 -80 -81 -97 -98 -129 -130 -143 -144 -156 -157 -180 -181 -190 -191 -200 0
-22 -42 -43 -80 -81 -97 -98 -129 -130 -143 -144 -156 -157 -180 -181 -190 -191 -209 0
-22 -42 -43 -80 -81 -97 -98 -129 -130 -143 -144 -156 -157 -180 -181 -200 -201 -209 0
-22 -42 -43 -80 -81 -97 -98 -129 -130 -143 -144 -156 -157 -191 -192 -200 -201 -209 0
-21 -41 -42 -79 -80 -96 -97 -128 -129 -142 -143 -168 -169 -179 -180 -189 -190 -199 0
-22 -41 -43 -79 -80 -96 -97 -128 -129 -142 -143 -168 -169 -179 -180 -189 -190 -199 0
-22 -42 -43 -79 -81 -96 -97 -128 -129 -142 -143 -168 -169 -179 -180 -189 -190 -199 0
-22 -42 -43 -80 -81 -96 -98 -128 -129 -142 -143 -168 -169 -179 -180 -189 -190 -199 0
-22 -42 -43 -80 -81 -97 -98 -128 -130 -142 -143 -168 -169 -179 -180 -189 -190 -199 0
-22 -42 -43 -80 -81 -97 -98 -129 -130 -142 -144 -168 -169 -179 -180 -189 -190 -199 0
-22 -42 -43 -80 -81 -97 -98 -129 -130 -143 -144 -168 -170 -179 -180 -189 -190 -199 0
-22 -42 -43 -80 -81 -97 -98 -129 -130 -143 -144 -169 -170 -179 -181 -189 -190 -199 0
-22 -42 -43 -80 -81 -97 -98 -129 -130 -143 -144 -169 -170 -180 -181 -189 -191 -199 0
-22 -42 -43 -80 -81 -97 -98 -129 -130 -143 -144 -169 -170 -180 -181 -190 -191 -200 0
-22 -42 -43 -80 -81 -97 -98 -129 -130 -143 -144 -169 -170 -180 -181 -190 -191 -209 0
-22 -42 -43 -80 -81 -97 -98 -129 -130 -143 -144 -169 -170 -180 -181 -200 -201 -209 0
-22 -42 -43 -80 -81 -97 -98 -129 -130 -143 -144 -169 -170 -191 -192 -200 -201 -209 0
-22 -42 -43 -80 -81 -97 -98 -129 -130 -143 -144 -181 -182 -191 -192 -200 -201 -209 0
-21 -41 -42 -79 -80 -96 -97 -128 -129 -156 -157 -168 -169 -179 -180 -189 -190 -199 0
-22 -41 -43 -79 -80 -96 -97 -128 -129 -156 -157 -168 -169 -179 -180 -189 -190 -199 0
-22 -42 -43 -79 -81 -96 -97 -128 -129 -156 -157 -168 -169 -179 -180 -189 -190 -199 0
-22 -42 -43 -80 -81 -96 -98 -128 -129 -156 -157 -168 -169 -179 -180 -189 -190 -199 0
-22 -42 -43 -80 -81 -97 -98 -128 -130 -156 -157 -168 -169 -179 -180 -189 -190 -199 0
-22 -42 -43 -80 -81 -97 -98 -129 -130 -156 -158 -168 -169 -179 -180 -189 -190 -199 0
-22 -42 -43 -80 -81 -97 -98 -129 -130 -157 -158 -168 -170 -179 -180 -189 -190 -199 0
-22 -42 -43 -80 -81 -97 -98 -129 -130 -157 -158 -169 -170 -179 -181 -189 -190 -199 0
-22 -42 -43 -80 -81 -97 -98 -129 -130 -157 -158 -169 -170 -180 -181 -189 -191 -199 0
-22 -42 -43 -80 -81 -97 -98 -129 -130 -157 -158 -169 -170 -180 -181 -190 -191 -200 0
-22 -42 -43 -80 -81 -97 -98 -129 -130 -157 -158 -169 -170 -180 -181 -190 -191 -209 0
-22 -42 -43 -80 -81 -97 -98 -129 -130 -157 -158 -169 -170 -180 -181 -200 -201 -209 0
-22 -42 -43 -80 -81 -97 -98 -129 -130 -157 -158 -169 -170 -191 -192 -200 -201 -209 0
-22 -42 -43 -80 -81 -97 -98 -129 -130 -157 -158 -181 -182 -191 -192 -200 -201 -209 0
-22 -42 -43 -80 -81 -97 -98 -129 -130 -170 -171 -181 -182 -191 -192 -200 -201 -209 0
-21 -41 -42 -79 -80 -96 -97 -143 -144 -156 -157 -168 -169 -179 -180 -189 -190 -199 0
-22 -41 -43 -79 -80 -96 -97 -143 -144 -156 -157 -168 -169 -179 -180 -189 -190 -199 0
-22 -42 -43 -79 -81 -96 -97 -143 -144 -156 -157 -168 -169 -179 -180 -189 -190 -199 0
-22 -42 -43 -80 -81 -96 -98 -143 -144 -156 -157 -168 -169 -179 -180 -189 -190 -199 0
-22 -42 -43 -80 -81 -97 -98 -143 -145 -156 -157 -168 -169 -179 -180 -189 -190 -199 0
-22 -42 -43 -80 -81 -97 -98 -144 -145 -156 -158 -168 -169 -179 -180 -189 -190 -199 0
-22 -42 -43 -80 -81 -97 -98 -144 -145 -157 -158 -168 -170 -179 -180 -189 -190 -199 0
-22 -42 -43 -80 -81 -97 -98 -144 -145 -157 -158 -169 -170 -179 -181 -189 -190 -199 0
-22 -42 -43 -80 -81 -97 -98 -144 -145 -157 -158 -169 -170 -180 -181 -189 -191 -199 0
-22 -42 -43 -80 -81 -97 -98 -144 -145 -157 -158 -169 -170 -180 -181 -190 -191 -200 0
-22 -42 -43 -80 -81 -97 -98 -144 -145 -157 -158 -169 -170 -180 -181 -190 -191 -209 0
-22 -42 -43 -80 -81 -97 -98 -144 -145 -157 -158 -169 -170 -180 -181 -200 -201 -209 0
-22 -42 -43 -80 -81 -97 -98 -144 -145 -157 -158 -169 -170 -191 -192 -200 -201 -209 0
-22 -42 -43 -80 -81 -97 -98 -144 -145 -157 -158 -181 -182 -191 -192 -200 -201 -209 0
-22 -42 -43 -80 -81 -97 -98 -144 -145 -170 -171 -181 -182 -191 -192 -200 -201 -209 0
-22 -42 -43 -80 -81 -97 -98 -158 -159 -170 -171 -181 -182 -191 -192 -200 -201 -209 0
-20 -40 -41 -78 -79 -112 -113 -127 -128 -141 -142 -154 -155 -166 -167 -177 -178 -188 0
-21 -40 -42 -78 -79 -112 -113 -127 -128 -141 -142 -154 -155 -166 -167 -177 -178 -188 0
-22 -40 -43 -78 -79 -112 -113 -127 -128 -141 -142 -154 -155 -166 -167 -177 -178 -188 0
-21 -41 -42 -78 -80 -112 -113 -127 -128 -141 -142 -154 -155 -166 -167 -177 -178 -188 0
-22 -41 -43 -78 -80 -112 -113 -127 -128 -141 -142 -154 -155 -166 -167 -177 -178 -188 0
-22 -42 -43 -78 -81 -112 -113 -127 -128 -141 -142 -154 -155 -166 -167 -177 -178 -188 0
-21 -41 -42 -79 -80 -112 -114 -127 -128 -141 -142 -154 -155 -166 -167 -177 -178 -188 0
-22 -41 -43 -79 -80 -112 -114 -127 -128 -141 -142 -154 -155 -166 -167 -177 -178 -188 0
-22 -42 -43 -79 -81 -112 -114 -127 -128 -141 -142 -154 -155 -166 -167 -177 -178 -188 0
-22 -42 -43 -80 -81 -112 -115 -127 -128 -141 -142 -154 -155 -166 -167 -177 -178 -188 0
-21 -41 -42 -79 -80 -113 -114 -127 -129 -141 -142 -154 -155 -166 -167 -177 -178 -188 0
-22 -41 -43 -79 -80 -113 -114 -127 -129 -141 -142 -154 -155 -166 -167 -177 -178 -188 0
-22 -42 -43 -79 -81 -113 -114 -127 -129 -141 -142 -154 -155 -166 -167 -177 -178 -188 0
-22 -42 -43 -80 -81 -113 -115 -127 -129 -141 -142 -154 -155 -166 -167 -177 -178 -188 0
-22 -42 -43 -80 -81 -114 -115 -127 -130 -141 -142 -154 -155 -166 -167 -177 -178 -188 0
-21 -41 -42 -79 -80 -113 -114 -128 -129 -141 -143 -154 -155 -166 -167 -177 -178 -188 0
-22 -41 -43 -79 -80 -113 -114 -128 -129 -141 -143 -154 -155 -166 -167 -177 -178 -188 0
-22 -42 -43 -79 -81 -113 -114 -128 -129 -141 -143 -154 -155 -166 -167 -177 -178 -188 0
-22 -42 -43 -80 -81 -113 -115 -128 -129 -141 -143 -154 -155 -166 -167 -177 -178 -188 0
-22 -42 -43 -80 -81 -114 -115 -128 -130 -141 -143 -154 -155 -166 -167 -177 -178 -188 0
-22 -42 -43 -80 -81 -114 -115 -129 -130 -141 -144 -154 -155 -166 -167 -177 -178 -188 0
-21 -41 -42 -79 -80 -113 -114 -128 -129 -142 -143 -154 -156 -166 -167 -177 -178 -188 0
-22 -41 -43 -79 -80 -113 -114 -128 -129 -142 -143 -154 -156 -166 -167 -177 -178 -188 0
-22 -42 -43 -79 -81 -113 -114 -128 -129 -142 -143 -154 -156 -166 -167 -177 -178 -188 0
-22 -42 -43 -80 -81 -113 -115 -128 -129 -142 -143 -154 -156 -166 -167 -177 -178 -188 0
-22 -42 -43 -80 -81 -114 -115 -128 -130 -142 -143 -154 -156 -166 -167 -177 -178 -188 0
-22 -42 -43 -80 -81 -114 -115 -129 -130 -142 -144 -154 -156 -166 -167 -177 -178 -188 0
-22 -42 -43 -80 -81 -114 -115 -129 -130 -143 -144 -154 -157 -166 -167 -177 -178 -188 0
-21 -41 -42 -79 -80 -113 -114 -128 -129 -142 -143 -155 -156 -166 -168 -177 -178 -188 0
-22 -41 -43 -79 -80 -113 -114 -128 -129 -142 -143 -155 -156 -166 -168 -177 -178 -188 0
-22 -42 -43 -79 -81 -113 -114 -128 -129 -142 -143 -155 -156 -166 -168 -177 -178 -188 0
-22 -42 -43 -80 -81 -113 -115 -128 -129 -142 -143 -155 -156 -166 -168 -177 -178 -188 0
-22 -42 -43 -80 -81 -114 -115 -128 -130 -142 -143 -155 -156 -166 -168 -177 -178 -188 0
-22 -42 -43 -80 -81 -114 -115 -129 -130 -142 -144 -155 -156 -166 -168 -177 -178 -188 0
-22 -42 -43 -80 -81 -114 -115 -129 -130 -143 -144 -155 -157 -166 -168 -177 -178 -188 0
-22 -42 -43 -80 -81 -114 -115 -129 -130 -143 -144 -156 -157 -166 -169 -177 -178 -188 0
-21 -41 -42 -79 -80 -113 -114 -128 -129 -142 -143 -155 -156 -167 -168 -177 -179 -188 0
-22 -41 -43 -79 -80 -113 -114 -128 -129 -142 -143 -155 -156 -167 -168 -177 -179 -188 0
-22 -42 -43 -79 -81 -113 -114 -128 -129 -142 -143 -155 -156 -167 -168 -177 -179 -188 0
-22 -42 -43 -80 -81 -113 -115 -128 -129 -142 -143 -155 -156 -167 -168 -177 -179 -188 0
-22 -42 -43 -80 -81 -114 -115 -128 -130 -142 -143 -155 -156 -167 -168 -177 -179 -188 0
-22 -42 -43 -80 -81 -114 -115 -129 -130 -142 -144 -155 -156 -167 -168 -177 -179 -188 0
-22 -42 -43 -80 -81 -114 -115 -129 -130 -143 -144 -155 -157 -167 -168 -177 -179 -188 0
-22 -42 -43 -80 -81 -114 -115 -129 -130 -143 -144 -156 -157 -167 -169 -177 -179 -188 0
-22 -42 -43 -80 -81 -114 -115 -129 -130 -143 -144 -156 -157 -168 -169 -177 -180 -188 0
-21 -41 -42 -79 -80 -113 -114 -128 -129 -142 -143 -155 -156 -167 -168 -178 -179 -189 0
-22 -41 -43 -79 -80 -113 -114 -128 -129 -142 -143 -155 -156 -167 -168 -178 -179 -189 0
-22 -42 -43 -79 -81 -113 -114 -128 -129 -142 -143 -155 -156 -167 -168 -178 -179 -189 0
-22 -42 -43 -80 -81 -113 -115 -128 -129 -142 -143 -155 -156 -167 -168 -178 -179 -189 0
-22 -42 -43 -80 -81 -114 -115 -128 -130 -142 -143 -155 -156 -167 -168 -178 -179 -189 0
-22 -42 -43 -80 -81 -114 -115 -129 -130 -142 -144 -155 -156 -167 -168 -178 -179 -189 0
-22 -42 -43 -80 -81 -114 -115 -129 -130 -143 -144 -155 -157 -167 -168 -178 -179 -189 0
-22 -42 -43 -80 -81 -114 -115 -129 -130 -143 -144 -156 -157 -167 -169 -178 -179 -189 0
-22 -42 -43 -80 -81 -114 -115 -129 -130 -143 -144 -156 -157 -168 -169 -178 -180 -189 0
-22 -42 -43 -80 -81 -114 -115 -129 -130 -143 -144 -156 -157 -168 -169 -179 -180 -190 0
-21 -41 -42 -79 -80 -113 -114 -128 -129 -142 -143 -155 -156 -167 -168 -178 -179 -199 0
-22 -41 -43 -79 -80 -113 -114 -128 -129 -142 -143 -155 -156 -167 -168 -178 -179 -199 0
-22 -42 -43 -79 -81 -113 -114 -128 -129 -142 -143 -155 -156 -167 -168 -178 -179 -199 0
-22 -42 -43 -80 -81 -113 -115 -128 -129 -142 -143 -155 -156 -167 -168 -178 -179 -199 0
-22 -42 -43 -80 -81 -114 -115 -128 -130 -142 -143 -155 -156 -167 -168 -178 -179 -199 0
-22 -42 -43 -80 -81 -114 -115 -129 -130 -142 -144 -155 -156 -167 -168 -178 -179 -199 0
-22 -42 -43 -80 -81 -114 -115 -129 -130 -143 -144 -155 -157 -167 -168 -178 -179 -199 0
-22 -42 -43 -80 -81 -114 -115 -129 -130 -143 -144 -156 -157 -167 -169 -178 -179 -199 0
-22 -42 -43 -80 -81 -114 -115 -129 -130 -143 -144 -156 -157 -168 -169 -178 -180 -199 0
-22 -42 -43 -80 -81 -114 -115 -129 -130 -143 -144 -156 -157 -168 -169 -179 -180 -200 0
-22 -42 -43 -80 -81 -114 -115 -129 -130 -143 -144 -156 -157 -168 -169 -179 -180 -209 0
-21 -41 -42 -79 -80 -113 -114 -128 -129 -142 -143 -155 -156 -167 -168 -189 -190 -199 0
-22 -41 -43 -79 -80 -113 -114 -128 -129 -142 -143 -155 -156 -167 -168 -189 -190 -199 0
-22 -42 -43 -79 -81 -113 -114 -128 -129 -142 -143 -155 -156 -167 -168 -189 -190 -199 0
-22 -42 -43 -80 -81 -113 -115 -128 -129 -142 -143 -155 -156 -167 -168 -189 -190 -199 0
-22 -42 -43 -80 -81 -114 -115 -128 -130 -142 -143 -155 -156 -167 -168 -189 -190 -199 0
-22 -42 -43 -80 -81 -114 -115 -129 -130 -142 -144 -155 -156 -167 -168 -189 -190 -199 0
-22 -42 -43 -80 -81 -114 -115 -129 -130 -143 -144 -155 -157 -167 -168 -189 -190 -199 0
-22 -42 -43 -80 -81 -114 -115 -129 -130 -143 -144 -156 -157 -167 -169 -189 -190 -199 0
-22 -42 -43 -80 -81 -114 -115 -129 -130 -143 -144 -156 -157 -168 -169 -189 -191 -199 0
-22 -42 -43 -80 -81 -114 -115 -129 -130 -143 -144 -156 -157 -168 -169 -190 -191 -200 0
-22 -42 -43 -80 -81 -114 -115 -129 -130 -143 -144 -156 -157 -168 -169 -190 -191 -209 0
-22 -42 -43 -80 -81 -114 -115 -129 -130 -143 -144 -156 -157 -168 -169 -200 -201 -209 0
-21 -41 -42 -79 -80 -113 -114 -128 -129 -142 -143 -155 -156 -179 -180 -189 -190 -199 0
-22 -41 -43 -79 -80 -113 -114 -128 -129 -142 -143 -155 -156 -179 -180 -189 -190 -199 0
-22 -42 -43 -79 -81 -113 -114 -128 -129 -142 -143 -155 -156 -179 -180 -189 -190 -199 0
-22 -42 -43 -80 -81 -113 -115 -128 -129 -142 -143 -155 -156 -179 -180 -189 -190 -199 0
-22 -42 -43 -80 -81 -114 -115 -128 -130 -142 -143 -155 -156 -179 -180 -189 -190 -199 0
-22 -42 -43 -80 -81 -114 -115 -129 -130 -142 -144 -155 -156 -179 -180 -189 -190 -199 0
-22 -42 -43 -80 -81 -114 -115 -129 -130 -143 -144 -155 -157 -179 -180 -189 -190 -199 0
-22 -42 -43 -80 -81 -114 -115 -129 -130 -143 -144 -156 -157 -179 -181 -189 -190 -199 0
-22 -42 -43 -80 -81 -114 -115 -129 -130 -143 -144 -156 -157 -180 -181 -189 -191 -199 0
-22 -42 -43 -80 -81 -114 -115 -129 -130 -143 -144 -156 -157 -180 -181 -190 -191 -200 0
-22 -42 -43 -80 -81 -114 -115 -129 -130 -143 -144 -156 -157 -180 -181 -190 -191 -209 0
-22 -42 -43 -80 -81 -114 -115 -129 -130 -143 -144 -156 -157 -180 -181 -200 -201 -209 0
-22 -42 -43 -80 -81 -114 -115 -129 -130 -143 -144 -156 -157 -191 -192 -200 -201 -209 0
-21 -41 -42 -79 -80 -113 -114 -128 -129 -142 -143 -168 -169 -179 -180 -189 -190 -199 0
-22 -41 -43 -79 -80 -113 -114 -128 -129 -142 -143 -168 -169 -179 -180 -189 -190 -199 0
-22 -42 -43 -79 -81 -113 -114 -128 -129 -142 -143 -168 -169 -179 -180 -189 -190 -199 0
-22 -42 -43 -80 -81 -113 -115 -128 -129 -142 -143 -168 -169 -179 -180 -189 -190 -199 0
-22 -42 -43 -80 -81 -114 -115 -128 -130 -142 -143 -168 -169 -179 -180 -189 -190 -199 0
-22 -42 -43 -80 -81 -114 -115 -129 -130 -142 -144 -168 -169 -179 -180 -189 -190 -199 0
-22 -42 -43 -80 -81 -114 -115 -129 -130 -143 -144 -168 -170 -179 -180 -189 -190 -199 0
-22 -42 -43 -80 -81 -114 -115 -129 -130 -143 -144 -169 -170 -179 -181 -189 -190 -199 0
-22 -42 -43 -80 -81 -114 -115 -129 -130 -143 -144 -169 -170 -180 -181 -189 -191 -199 0
-22 -42 -43 -80 -81 -114 -115 -129 -130 -143 -144 -169 -170 -180 -181 -190 -191 -200 0
-22 -42 -43 -80 -81 -114 -115 -129 -130 -143 -144 -169 -170 -180 -181 -190 -191 -209 0
-22 -42 -43 -80 -81 -114 -115 -129 -130 -143 -144 -169 -170 -180 -181 -200 -201 -209 0
-22 -42 -43 -80 -81 -114 -115 -129 -130 -143 -144 -169 -170 -191 -192 -200 -201 -209 0
-22 -42 -43 -80 -81 -114 -115 -129 -130 -143 -144 -181 -182 -191 -192 -200 -201 -209 0
-21 -41 -42 -79 -80 -113 -114 -128 -129 -156 -157 -168 -169 -179 -180 -189 -190 -199 0
-22 -41 -43 -79 -80 -113 -114 -128 -129 -156 -157 -168 -169 -179 -180 -189 -190 -199 0
-22 -42 -43 -79 -81 -113 -114 -128 -129 -156 -157 -168 -169 -179 -180 -189 -190 -199 0
-22 -42 -43 -80 -81 -113 -115 -128 -129 -156 -157 -168 -169 -179 -180 -189 -190 -199 0
-22 -42 -43 -80 -81 -114 -115 -128 -130 -156 -157 -168 -169 -179 -180 -189 -190 -199 0
-22 -42 -43 -80 -81 -114 -115 -129 -130 -156 -158 -168 -169 -179 -180 -189 -190 -199 0
-22 -42 -43 -80 -81 -114 -115 -129 -130 -157 -158 -168 -170 -179 -180 -189 -190 -199 0
-22 -42 -43 -80 -81 -114 -115 -129 -130 -157 -158 -169 -170 -179 -181 -189 -190 -199 0
-22 -42 -43 -80 -81 -114 -115 -129 -130 -157 -158 -169 -170 -180 -181 -189 -191 -199 0
-22 -42 -43 -80 -81 -114 -115 -129 -130 -157 -158 -169 -170 -180 -181 -190 -191 -200 0
-22 -42 -43 -80 -81 -114 -115 -129 -130 -157 -158 -169 -170 -180 -181 -190 -191 -209 0
-22 -42 -43 -80 -81 -114 -115 -129 -130 -157 -158 -169 -170 -180 -181 -200 -201 -209 0
-22 -42 -43 -80 -81 -114 -115 -129 -130 -157 -158 -169 -170 -191 -192 -200 -201 -209 0
-22 -42 -43 -80 -81 -114 -115 -129 -130 -157 -158 -181 -182 -191 -192 -200 -201 -209 0
-22 -42 -43 -80 -81 -114 -115 -129 -130 -170 -171 -181 -182 -191 -192 -200 -201 -209 0
-21 -41 -42 -79 -80 -113 -114 -143 -144 -156 -157 -168 -169 -179 -180 -189 -190 -199 0
-22 -41 -43 -79 -80 -113 -114 -143 -144 -156 -157 -168 -169 -179 -180 -189 -190 -199 0
-22 -42 -43 -79 -81 -113 -114 -143 -144 -156 -157 -168 -169 -179 -180 -189 -190 -199 0
-22 -42 -43 -80 -81 -113 -115 -143 -144 -156 -157 -168 -169 -179 -180 -189 -190 -199 0
-22 -42 -43 -80 -81 -114 -115 -143 -145 -156 -157 -168 -169 -179 -180 -189 -190 -199 0
-22 -42 -43 -80 -81 -114 -115 -144 -145 -156 -158 -168 -169 -179 -180 -189 -190 -199 0
-22 -42 -43 -80 -81 -114 -115 -144 -145 -157 -158 -168 -170 -179 -180 -189 -190 -199 0
-22 -42 -43 -80 -81 -114 -115 -144 -145 -157 -158 -169 -170 -179 -181 -189 -190 -199 0
-22 -42 -43 -80 -81 -114 -115 -144 -145 -157 -158 -169 -170 -180 -181 -189 -191 -199 0
-22 -42 -43 -80 -81 -114 -115 -144 -145 -157 -158 -169 -170 -180 -181 -190 -191 -200 0
-22 -42 -43 -80 -81 -114 -115 -144 -145 -157 -158 -169 -170 -180 -181 -190 -191 -209 0
-22 -42 -43 -80 -81 -114 -115 -144 -145 -157 -158 -169 -170 -180 -181 -200 -201 -209 0
-22 -42 -43 -80 -81 -114 -115 -144 -145 -157 -158 -169 -170 -191 -192 -200 -201 -209 0
-22 -42 -43 -80 -81 -114 -115 -144 -145 -157 -158 -181 -182 -191 -192 -200 -201 -209 0
-22 -42 -43 -80 -81 -114 -115 -144 -145 -170 -171 -181 -182 -191 -192 -200 -201 -209 0
-22 -42 -43 -80 -81 -114 -115 -158 -159 -170 -171 -181 -182 -191 -192 -200 -201 -209 0
-21 -41 -42 -79 -80 -129 -130 -143 -144 -156 -157 -168 -169 -179 -180 -189 -190 -199 0
-22 -41 -43 -79 -80 -129 -130 -143 -144 -156 -157 -168 -169 -179 -180 -189 -190 -199 0
-22 -42 -43 -79 -81 -129 -130 -143 -144 -156 -157 -168 -169 -179 -180 -189 -190 -199 0
-22 -42 -43 -80 -81 -129 -131 -143 -144 -156 -157 -168 -169 -179 -180 -189 -190 -199 0
-22 -42 -43 -80 -81 -130 -131 -143 -145 -156 -157 -168 -169 -179 -180 -189 -190 -199 0
-22 -42 -43 -80 -81 -130 -131 -144 -145 -156 -158 -168 -169 -179 -180 -189 -190 -199 0
-22 -42 -43 -80 -81 -130 -131 -144 -145 -157 -158 -168 -170 -179 -180 -189 -190 -199 0
-22 -42 -43 -80 -81 -130 -131 -144 -145 -157 -158 -169 -170 -179 -181 -189 -190 -199 0
-22 -42 -43 -80 -81 -130 -131 -144 -145 -157 -158 -169 -170 -180 -181 -189 -191 -199 0
-22 -42 -43 -80 -81 -130 -131 -144 -145 -157 -158 -169 -170 -180 -181 -190 -191 -200 0
-22 -42 -43 -80 -81 -130 -131 -144 -145 -157 -158 -169 -170 -180 -181 -190 -191 -209 0
-22 -42 -43 -80 -81 -130 -131 -144 -145 -157 -158 -169 -170 -180 -181 -200 -201 -209 0
-22 -42 -43 -80 -81 -130 -131 -144 -145 -157 -158 -169 -170 -191 -192 -200 -201 -209 0
-22 -42 -43 -80 -81 -130 -131 -144 -145 -157 -158 -181 -182 -191 -192 -200 -201 -209 0
-22 -42 -43 -80 -81 -130 -131 -144 -145 -170 -171 -181 -182 -191 -192 -200 -201 -209 0
-22 -42 -43 -80 -81 -130 -131 -158 -159 -170 -171 -181 -182 -191 -192 -200 -201 -209 0
-22 -42 -43 -80 -81 -145 -146 -158 -159 -170 -171 -181 -182 -191 -192 -200 -201 -209 0
-20 -40 -41 -96 -97 -112 -113 -127 -128 -141 -142 -154 -155 -166 -167 -177 -178 -188 0
-21 -40 -42 -96 -97 -112 -113 -127 -128 -141 -142 -154 -155 -166 -167 -177 -178 -188 0
-22 -40 -43 -96 -97 -112 -113 -127 -128 -141 -142 -154 -155 -166 -167 -177 -178 -188 0
-21 -41 -42 -96 -98 -112 -113 -127 -128 -141 -142 -154 -155 -166 -167 -177 -178 -188 0
-22 -41 -43 -96 -98 -112 -113 -127 -128 -141 -142 -154 -155 -166 -167 -177 -178 -188 0
-22 -42 -43 -96 -99 -112 -113 -127 -128 -141 -142 -154 -155 -166 -167 -177 -178 -188 0
-21 -41 -42 -97 -98 -112 -114 -127 -128 -141 -142 -154 -155 -166 -167 -177 -178 -188 0
-22 -41 -43 -97 -98 -112 -114 -127 -128 -141 -142 -154 -155 -166 -167 -177 -178 -188 0
-22 -42 -43 -97 -99 -112 -114 -127 -128 -141 -142 -154 -155 -166 -167 -177 -178 -188 0
-22 -42 -43 -98 -99 -112 -115 -127 -128 -141 -142 -154 -155 -166 -167 -177 -178 -188 0
-21 -41 -42 -97 -98 -113 -114 -127 -129 -141 -142 -154 -155 -166 -167 -177 -178 -188 0
-22 -41 -43 -97 -98 -113 -114 -127 -129 -141 -142 -154 -155 -166 -167 -177 -178 -188 0
-22 -42 -43 -97 -99 -113 -114 -127 -129 -141 -142 -154 -155 -166 -167 -177 -178 -188 0
-22 -42 -43 -98 -99 -113 -115 -127 -129 -141 -142 -154 -155 -166 -167 -177 -178 -188 0
-22 -42 -43 -98 -99 -114 -115 -127 -130 -141 -142 -154 -155 -166 -167 -177 -178 -188 0
-21 -41 -42 -97 -98 -113 -114 -128 -129 -141 -143 -154 -155 -166 -167 -177 -178 -188 0
-22 -41 -43 -97 -98 -113 -114 -128 -129 -141 -143 -154 -155 -166 -167 -177 -178 -188 0
-22 -42 -43 -97 -99 -113 -114 -128 -129 -141 -143 -154 -155 -166 -167 -177 -178 -188 0
-22 -42 -43 -98 -99 -113 -115 -128 -129 -141 -143 -154 -155 -166 -167 -177 -178 -188 0
-22 -42 -43 -98 -99 -114 -115 -128 -130 -141 -143 -154 -155 -166 -167 -177 -178 -188 0
-22 -42 -43 -98 -99 -114 -115 -129 -130 -141 -144 -154 -155 -166 -167 -177 -178 -188 0
-21 -41 -42 -97 -98 -113 -114 -128 -129 -142 -143 -154 -156 -166 -167 -177 -178 -188 0
-22 -41 -43 -97 -98 -113 -114 -128 -129 -142 -143 -154 -156 -166 -167 -177 -178 -188 0
-22 -42 -43 -97 -99 -113 -114 -128 -129 -142 -143 -154 -156 -166 -167 -177 -178 -188 0
-22 -42 -43 -98 -99 -113 -115 -128 -129 -142 -143 -154 -156 -166 -167 -177 -178 -188 0
-22 -42 -43 -98 -99 -114 -115 -128 -130 -142 -143 -154 -156 -166 -167 -177 -178 -188 0
-22 -42 -43 -98 -99 -114 -115 -129 -130 -142 -144 -154 -156 -166 -167 -177 -178 -188 0
-22 -42 -43 -98 -99 -114 -115 -129 -130 -143 -144 -154 -157 -166 -167 -177 -178 -188 0
-21 -41 -42 -97 -98 -113 -114 -128 -129 -142 -143 -155 -156 -166 -168 -177 -178 -188 0
-22 -41 -43 -97 -98 -113 -114 -128 -129 -142 -143 -155 -156 -166 -168 -177 -178 -188 0
-22 -42 -43 -97 -99 -113 -114 -128 -129 -142 -143 -155 -156 -166 -168 -177 -178 -188 0
-22 -42 -43 -98 -99 -113 -115 -128 -129 -142 -143 -155 -156 -166 -168 -177 -178 -188 0
-22 -42 -43 -98 -99 -114 -115 -128 -130 -142 -143 -155 -156 -166 -168 -177 -178 -188 0
-22 -42 -43 -98 -99 -114 -115 -129 -130 -142 -144 -155 -156 -166 -168 -177 -178 -188 0
-22 -42 -43 -98 -99 -114 -115 -129 -130 -143 -144 -155 -157 -166 -168 -177 -178 -188 0
-22 -42 -43 -98 -99 -114 -115 -129 -130 -143 -144 -156 -157 -166 -169 -177 -178 -188 0
-21 -41 -42 -97 -98 -113 -114 -128 -129 -142 -143 -155 -156 -167 -168 -177 -179 -188 0
-22 -41 -43 -97 -98 -113 -114 -128 -129 -142 -143 -155 -156 -167 -168 -177 -179 -188 0
-22 -42 -43 -97 -99 -113 -114 -128 -129 -142 -143 -155 -156 -167 -168 -177 -179 -188 0
-22 -42 -43 -98 -99 -113 -115 -128 -129 -142 -143 -155 -156 -167 -168 -177 -179 -188 0
-22 -42 -43 -98 -99 -114 -115 -128 -130 -142 -143 -155 -156 -167 -168 -177 -179 -188 0
-22 -42 -43 -98 -99 -114 -115 -129 -130 -142 -144 -155 -156 -167 -168 -177 -179 -188 0
-22 -42 -43 -98 -99 -114 -115 -129 -130 -143 -144 -155 -157 -167 -168 -177 -179 -188 0
-22 -42 -43 -98 -99 -114 -115 -129 -130 -143 -144 -156 -157 -167 -169 -177 -179 -188 0
-22 -42 -43 -98 -99 -114 -115 -129 -130 -143 -144 -156 -157 -168 -169 -177 -180 -188 0
-21 -41 -42 -97 -98 -113 -114 -128 -129 -142 -143 -155 -156 -167 -168 -178 -179 -189 0
-22 -41 -43 -97 -98 -113 -114 -128 -129 -142 -143 -155 -156 -167 -168 -178 -179 -189 0
-22 -42 -43 -97 -99 -113 -114 -128 -129 -142 -143 -155 -156 -167 -168 -178 -179 -189 0
-22 -42 -43 -98 -99 -113 -115 -128 -129 -142 -143 -155 -156 -167 -168 -178 -179 -189 0
-22 -42 -43 -98 -99 -114 -115 -128 -130 -142 -143 -155 -156 -167 -168 -178 -179 -189 0
-22 -42 -43 -98 -99 -114 -115 -129 -130 -142 -144 -155 -156 -167 -168 -178 -179 -189 0
-22 -42 -43 -98 -99 -114 -115 -129 -130 -143 -144 -155 -157 -167 -168 -178 -179 -189 0
-22 -42 -43 -98 -99 -114 -115 -129 -130 -143 -144 -156 -157 -167 -169 -178 -179 -189 0
-22 -42 -43 -98 -99 -114 -115 -129 -130 -143 -144 -156 -157 -168 -169 -178 -180 -189 0
-22 -42 -43 -98 -99 -114 -115 -129 -130 -143 -144 -156 -157 -168 -169 -179 -180 -190 0
-21 -41 -42 -97 -98 -113 -114 -128 -129 -142 -143 -155 -156 -167 -168 -178 -179 -199 0
-22 -41 -43 -97 -98 -113 -114 -128 -129 -142 -143 -155 -156 -167 -168 -178 -179 -199 0
-22 -42 -43 -97 -99 -113 -114 -128 -129 -142 -143 -155 -156 -167 -168 -178 -179 -199 0
-22 -42 -43 -98 -99 -113 -115 -128 -129 -142 -143 -155 -156 -167 -168 -178 -179 -199 0
-22 -42 -43 -98 -99 -114 -115 -128 -130 -142 -143 -155 -156 -167 -168 -178 -179 -199 0
-22 -42 -43 -98 -99 -114 -115 -129 -130 -142 -144 -155 -156 -167 -168 -178 -179 -199 0
-22 -42 -43 -98 -99 -114 -115 -129 -130 -143 -144 -155 -157 -167 -168 -178 -179 -199 0
-22 -42 -43 -98 -99 -114 -115 -129 -130 -143 -144 -156 -157 -167 -169 -178 -179 -199 0
-22 -42 -43 -98 -99 -114 -115 -129 -130 -143 -144 -156 -157 -168 -169 -178 -180 -199 0
-22 -42 -43 -98 -99 -114 -115 -129 -130 -143 -144 -156 -157 -168 -169 -179 -180 -200 0
-22 -42 -43 -98 -99 -114 -115 -129 -130 -143 -144 -156 -157 -168 -169 -179 -180 -209 0
-21 -41 -42 -97 -98 -113 -114 -128 -129 -142 -143 -155 -156 -167 -168 -189 -190 -199 0
-22 -41 -43 -97 -98 -113 -114 -128 -129 -142 -143 -155 -156 -167 -168 -189 -190 -199 0
-22 -42 -43 -97 -99 -113 -114 -128 -129 -142 -143 -155 -156 -167 -168 -189 -190 -199 0
-22 -42 -43 -98 -99 -113 -115 -128 -129 -142 -143 -155 -156 -167 -168 -189 -190 -199 0
-22 -42 -43 -98 -99 -114 -115 -128 -130 -142 -143 -155 -156 -167 -168 -189 -190 -199 0
-22 -42 -43 -98 -99 -114 -115 -129 -130 -142 -144 -155 -156 -167 -168 -189 -190 -199 0
-22 -42 -43 -98 -99 -114 -115 -129 -130 -143 -144 -155 -157 -167 -168 -189 -190 -199 0
-22 -42 -43 -98 -99 -114 -115 -129 -130 -143 -144 -156 -157 -167 -169 -189 -190 -199 0
-22 -42 -43 -98 -99 -114 -115 -129 -130 -143 -144 -156 -157 -168 -169 -189 -191 -199 0
-22 -42 -43 -98 -99 -114 -115 -129 -130 -143 -144 -156 -157 -168 -169 -190 -191 -200 0
-22 -42 -43 -98 -99 -114 -115 -129 -130 -143 -144 -156 -157 -168 -169 -190 -191 -209 0
-22 -42 -43 -98 -99 -114 -115 -129 -130 -143 -144 -156 -157 -168 -169 -200 -201 -209 0
-21 -41 -42 -97 -98 -113 -114 -128 -129 -142 -143 -155 -156 -179 -180 -189 -190 -199 0
-22 -41 -43 -97 -98 -113 -114 -128 -129 -142 -143 -155 -156 -179 -180 -189 -190 -199 0
-22 -42 -43 -97 -99 -113 -114 -128 -129 -142 -143 -155 -156 -179 -180 -189 -190 -199 0
-22 -42 -43 -98 -99 -113 -115 -128 -129 -142 -143 -155 -156 -179 -180 -189 -190 -199 0
-22 -42 -43 -98 -99 -114 -115 -128 -130 -142 -143 -155 -156 -179 -180 -189 -190 -199 0
-22 -42 -43 -98 -99 -114 -115 -129 -130 -142 -144 -155 -156 -179 -180 -189 -190 -199 0
-22 -42 -43 -98 -99 -114 -115 -129 -130 -143 -144 -155 -157 -179 -180 -189 -190 -199 0
-22 -42 -43 -98 -99 -114 -115 -129 -130 -143 -144 -156 -157 -179 -181 -189 -190 -199 0
-22 -42 -43 -98 -99 -114 -115 -129 -130 -143 -144 -156 -157 -180 -181 -189 -191 -199 0
-22 -42 -43 -98 -99 -114 -115 -129 -130 -143 -144 -156 -157 -180 -181 -190 -191 -200 0
-22 -42 -43 -98 -99 -114 -115 -129 -130 -143 -144 -156 -157 -180 -181 -190 -191 -209 0
-22 -42 -43 -98 -99 -114 -115 -129 -130 -143 -144 -156 -157 -180 -181 -200 -201 -209 0
-22 -42 -43 -98 -99 -114 -115 -129 -130 -143 -144 -156 -157 -191 -192 -200 -201 -209 0
-21 -41 -42 -97 -98 -113 -114 -128 -129 -142 -143 -168 -169 -179 -180 -189 -190 -199 0
-22 -41 -43 -97 -98 -113 -114 -128 -129 -142 -143 -168 -169 -179 -180 -189 -190 -199 0
-22 -42 -43 -97 -99 -113 -114 -128 -129 -142 -143 -168 -169 -179 -180 -189 -190 -199 0
-22 -42 -43 -98 -99 -113 -115 -128 -129 -142 -143 -168 -169 -179 -180 -189 -190 -199 0
-22 -42 -43 -98 -99 -114 -115 -128 -130 -142 -143 -168 -169 -179 -180 -189 -190 -199 0
-22 -42 -43 -98 -99 -114 -115 -129 -130 -142 -144 -168 -169 -179 -180 -189 -190 -199 0
-22 -42 -43 -98 -99 -114 -115 -129 -130 -143 -144 -168 -170 -179 -180 -189 -190 -199 0
-22 -42 -43 -98 -99 -114 -115 -129 -130 -143 -144 -169 -170 -179 -181 -189 -190 -199 0
-22 -42 -43 -98 -99 -114 -115 -129 -130 -143 -144 -169 -170 -180 -181 -189 -191 -199 0
-22 -42 -43 -98 -99 -114 -115 -129 -130 -143 -144 -169 -170 -180 -181 -190 -191 -200 0
-22 -42 -43 -98 -99 -114 -115 -129 -130 -143 -144 -169 -170 -180 -181 -190 -191 -209 0
-22 -42 -43 -98 -99 -114 -115 -129 -130 -143 -144 -169 -170 -180 -181 -200 -201 -209 0
-22 -42 -43 -98 -99 -114 -115 -129 -130 -143 -144 -169 -170 -191 -192 -200 -201 -209 0
-22 -42 -43 -98 -99 -114 -115 -129 -130 -143 -144 -181 -182 -191 -192 -200 -201 -209 0
-21 -41 -42 -97 -98 -113 -114 -128 -129 -156 -157 -168 -169 -179 -180 -189 -190 -199 0
-22 -41 -43 -97 -98 -113 -114 -128 -129 -156 -157 -168 -169 -179 -180 -189 -190 -199 0
-22 -42 -43 -97 -99 -113 -114 -128 -129 -156 -157 -168 -169 -179 -180 -189 -190 -199 0
-22 -42 -43 -98 -99 -113 -115 -128 -129 -156 -157 -168 -169 -179 -180 -189 -190 -199 0
-22 -42 -43 -98 -99 -114 -115 -128 -130 -156 -157 -168 -169 -179 -180 -189 -190 -199 0
-22 -42 -43 -98 -99 -114 -115 -129 -130 -156 -158 -168 -169 -179 -180 -189 -190 -199 0
-22 -42 -43 -98 -99 -114 -115 -129 -130 -157 -158 -168 -170 -179 -180 -189 -190 -199 0
-22 -42 -43 -98 -99 -114 -115 -129 -130 -157 -158 -169 -170 -179 -181 -189 -190 -199 0
-22 -42 -43 -98 -99 -114 -115 -129 -130 -157 -158 -169 -170 -180 -181 -189 -191 -199 0
-22 -42 -43 -98 -99 -114 -115 -129 -130 -157 -158 -169 -170 -180 -181 -190 -191 -200 0
-22 -42 -43 -98 -99 -114 -115 -129 -130 -157 -158 -169 -170 -180 -181 -190 -191 -209 0
-22 -42 -43 -98 -99 -114 -115 -129 -130 -157 -158 -169 -170 -180 -181 -200 -201 -209 0
-22 -42 -43 -98 -99 -114 -115 -129 -130 -157 -158 -169 -170 -191 -192 -200 -201 -209 0
-22 -42 -43 -98 -99 -114 -115 -129 -130 -157 -158 -181 -182 -191 -192 -200 -201 -209 0
-22 -42 -43 -98 -99 -114 -115 -129 -130 -170 -171 -181 -182 -191 -192 -200 -201 -209 0
-21 -41 -42 -97 -98 -113 -114 -143 -144 -156 -157 -168 -169 -179 -180 -189 -190 -199 0
-22 -41 -43 -97 -98 -113 -114 -143 -144 -156 -157 -168 -169 -179 -180 -189 -190 -199 0
-22 -42 -43 -97 -99 -113 -114 -143 -144 -156 -157 -168 -169 -179 -180 -189 -190 -199 0
-22 -42 -43 -98 -99 -113 -115 -143 -144 -156 -157 -168 -169 -179 -180 -189 -190 -199 0
-22 -42 -43 -98 -99 -114 -115 -143 -145 -156 -157 -168 -169 -179 -180 -189 -190 -199 0
-22 -42 -43 -98 -99 -114 -115 -144 -145 -156 -158 -168 -169 -179 -180 -189 -190 -199 0
-22 -42 -43 -98 -99 -114 -115 -144 -145 -157 -158 -168 -170 -179 -180 -189 -190 -199 0
-22 -42 -43 -98 -99 -114 -115 -144 -145 -157 -158 -169 -170 -179 -181 -189 -190 -199 0
-22 -42 -43 -98 -99 -114 -115 -144 -145 -157 -158 -169 -170 -180 -181 -189 -191 -199 0
-22 -42 -43 -98 -99 -114 -115 -144 -145 -157 -158 -169 -170 -180 -181 -190 -191 -200 0
-22 -42 -43 -98 -99 -114 -115 -144 -145 -157 -158 -169 -170 -180 -181 -190 -191 -209 0
-22 -42 -43 -98 -99 -114 -115 -144 -145 -157 -158 -169 -170 -180 -181 -200 -201 -209 0
-22 -42 -43 -98 -99 -114 -115 -144 -145 -157 -158 -169 -170 -191 -192 -200 -201 -209 0
-22 -42 -43 -98 -99 -114 -115 -144 -145 -157 -158 -181 -182 -191 -192 -200 -201 -209 0
-22 -42 -43 -98 -99 -114 -115 -144 -145 -170 -171 -181 -182 -191 -192 -200 -201 -209 0
-22 -42 -43 -98 -99 -114 -115 -158 -159 -170 -171 -181 -182 -191 -192 -200 -201 -209 0
-21 -41 -42 -97 -98 -129 -130 -143 -144 -156 -157 -168 -169 -179 -180 -189 -190 -199 0
-22 -41 -43 -97 -98 -129 -130 -143 -144 -156 -157 -168 -169 -179 -180 -189 -190 -199 0
-22 -42 -43 -97 -99 -129 -130 -143 -144 -156 -157 -168 -169 -179 -180 -189 -190 -199 0
-22 -42 -43 -98 -99 -129 -131 -143 -144 -156 -157 -168 -169 -179 -180 -189 -190 -199 0
-22 -42 -43 -98 -99 -130 -131 -143 -145 -156 -157 -168 -169 -179 -180 -189 -190 -199 0
-22 -42 -43 -98 -99 -130 -131 -144 -145 -156 -158 -168 -169 -179 -180 -189 -190 -199 0
-22 -42 -43 -98 -99 -130 -131 -144 -145 -157 -158 -168 -170 -179 -180 -189 -190 -199 0
-22 -42 -43 -98 -99 -130 -131 -144 -145 -157 -158 -169 -170 -179 -181 -189 -190 -199 0
-22 -42 -43 -98 -99 -130 -131 -144 -145 -157 -158 -169 -170 -180 -181 -189 -191 -199 0
-22 -42 -43 -98 -99 -130 -131 -144 -145 -157 -158 -169 -170 -180 -181 -190 -191 -200 0
-22 -42 -43 -98 -99 -130 -131 -144 -145 -157 -158 -169 -170 -180 -181 -190 -191 -209 0
-22 -42 -43 -98 -99 -130 -131 -144 -145 -157 -158 -169 -170 -180 -181 -200 -201 -209 0
-22 -42 -43 -98 -99 -130 -131 -144 -145 -157 -158 -169 -170 -191 -192 -200 -201 -209 0
-22 -42 -43 -98 -99 -130 -131 -144 -145 -157 -158 -181 -182 -191 -192 -200 -201 -209 0
-22 -42 -43 -98 -99 -130 -131 -144 -145 -170 -171 -181 -182 -191 -192 -200 -201 -209 0
-22 -42 -43 -98 -99 -130 -131 -158 -159 -170 -171 -181 -182 -191 -192 -200 -201 -209 0
-22 -42 -43 -98 -99 -145 -146 -158 -159 -170 -171 -181 -182 -191 -192 -200 -201 -209 0
-21 -41 -42 -114 -115 -129 -130 -143 -144 -156 -157 -168 -169 -179 -180 -189 -190 -199 0
-22 -41 -43 -114 -115 -129 -130 -143 -144 -156 -157 -168 -169 -179 -180 -189 -190 -199 0
-22 -42 -43 -114 -116 -129 -130 -143 -144 -156 -157 -168 -169 -179 -180 -189 -190 -199 0
-22 -42 -43 -115 -116 -129 -131 -143 -144 -156 -157 -168 -169 -179 -180 -189 -190 -199 0
-22 -42 -43 -115 -116 -130 -131 -143 -145 -156 -157 -168 -169 -179 -180 -189 -190 -199 0
-22 -42 -43 -115 -116 -130 -131 -144 -145 -156 -158 -168 -169 -179 -180 -189 -190 -199 0
-22 -42 -43 -115 -116 -130 -131 -144 -145 -157 -158 -168 -170 -179 -180 -189 -190 -199 0
-22 -42 -43 -115 -116 -130 -131 -144 -145 -157 -158 -169 -170 -179 -181 -189 -190 -199 0
-22 -42 -43 -115 -116 -130 -131 -144 -145 -157 -158 -169 -170 -180 -181 -189 -191 -199 0
-22 -42 -43 -115 -116 -130 -131 -144 -145 -157 -158 -169 -170 -180 -181 -190 -191 -200 0
-22 -42 -43 -115 -116 -130 -131 -144 -145 -157 -158 -169 -170 -180 -181 -190 -191 -209 0
-22 -42 -43 -115 -116 -130 -131 -144 -145 -157 -158 -169 -170 -180 -181 -200 -201 -209 0
-22 -42 -43 -115 -116 -130 -131 -144 -145 -157 -158 -169 -170 -191 -192 -200 -201 -209 0
-22 -42 -43 -115 -116 -130 -131 -144 -145 -157 -158 -181 -182 -191 -192 -200 -201 -209 0
-22 -42 -43 -115 -116 -130 -131 -144 -145 -170 -171 -181 -182 -191 -192 -200 -201 -209 0
-22 -42 -43 -115 -116 -130 -131 -158 -159 -170 -171 -181 -182 -191 -192 -200 -201 -209 0
-22 -42 -43 -115 -116 -145 -146 -158 -159 -170 -171 -181 -182 -191 -192 -200 -201 -209 0
-22 -42 -43 -131 -132 -145 -146 -158 -159 -170 -171 -181 -182 -191 -192 -200 -201 -209 0
-19 -59 -60 -77 -78 -94 -95 -110 -111 -125 -126 -139 -140 -152 -153 -164 -165 -176 0
-20 -59 -61 -77 -78 -94 -95 -110 -111 -125 -126 -139 -140 -152 -153 -164 -165 -176 0
-21 -59 -62 -77 -78 -94 -95 -110 -111 -125 -126 -139 -140 -152 -153 -164 -165 -176 0
-22 -59 -63 -77 -78 -94 -95 -110 -111 -125 -126 -139 -140 -152 -153 -164 -165 -176 0
-20 -60 -61 -77 -79 -94 -95 -110 -111 -125 -126 -139 -140 -152 -153 -164 -165 -176 0
-21 -60 -62 -77 -79 -94 -95 -110 -111 -125 -126 -139 -140 -152 -153 -164 -165 -176 0
-22 -60 -63 -77 -79 -94 -95 -110 -111 -125 -126 -139 -140 -152 -153 -164 -165 -176 0
-21 -61 -62 -77 -80 -94 -95 -110 -111 -125 -126 -139 -140 -152 -153 -164 -165 -176 0
-22 -61 -63 -77 -80 -94 -95 -110 -111 -125 -126 -139 -140 -152 -153 -164 -165 -176 0
-22 -62 -63 -77 -81 -94 -95 -110 -111 -125 -126 -139 -140 -152 -153 -164 -165 -176 0
-20 -60 -61 -78 -79 -94 -96 -110 -111 -125 -126 -139 -140 -152 -153 -164 -165 -176 0
-21 -60 -62 -78 -79 -94 -96 -110 -111 -125 -126 -139 -140 -152 -153 -164 -165 -176 0
-22 -60 -63 -78 -79 -94 -96 -110 -111 -125 -126 -139 -140 -152 -153 -164 -165 -176 0
-21 -61 -62 -78 -80 -94 -96 -110 -111 -125 -126 -139 -140 -152 -153 -164 -165 -176 0
-22 -61 -63 -78 -80 -94 -96 -110 -111 -125 -126 -139 -140 -152 -153 -164 -165 -176 0
-22 -62 -63 -78 -81 -94 -96 -110 -111 -125 -126 -139 -140 -152 -153 -164 -165 -176 0
-21 -61 -62 -79 -80 -94 -97 -110 -111 -125 -126 -139 -140 -152 -153 -164 -165 -176 0
-22 -61 -63 -79 -80 -94 -97 -110 -111 -125 -126 -139 -140 -152 -153 -164 -165 -176 0
-22 -62 -63 -79 -81 -94 -97 -110 -111 -125 -126 -139 -140 -152 -153 -164 -165 -176 0
-22 -62 -63 -80 -81 -94 -98 -110 -111 -125 -126 -139 -140 -152 -153 -164 -165 -176 0
-20 -60 -61 -78 -79 -95 -96 -110 -112 -125 -126 -139 -140 -152 -153 -164 -165 -176 0
-21 -60 -62 -78 -79 -95 -96 -110 -112 -125 -126 -139 -140 -152 -153 -164 -165 -176 0
-22 -60 -63 -78 -79 -95 -96 -110 -112 -125 -126 -139 -140 -152 -153 -164 -165 -176 0
-21 -61 -62 -78 -80 -95 -96 -110 -112 -125 -126 -139 -140 -152 -153 -164 -165 -176 0
-22 -61 -63 -78 -80 -95 -96 -110 -112 -125 -126 -139 -140 -152 -153 -164 -165 -176 0
-22 -62 -63 -78 -81 -95 -96 -110 -112 -125 -126 -139 -140 -152 -153 -164 -165 -176 0
-21 -61 -62 -79 -80 -95 -97 -110 -112 -125 -126 -139 -140 -152 -153 -164 -165 -176 0
-22 -61 -63 -79 -80 -95 -97 -110 -112 -125 -126 -139 -140 -152 -153 -164 -165 -176 0
-22 -62 -63 -79 -81 -95 -97 -110 -112 -125 -126 -139 -140 -152 -153 -164 -165 -176 0
-22 -62 -63 -80 -81 -95 -98 -110 -112 -125 -126 -139 -140 -152 -153 -164 -165 -176 0
-21 -61 -62 -79 -80 -96 -97 -110 -113 -125 -126 -139 -140 -152 -153 -164 -165 -176 0
-22 -61 -63 -79 -80 -96 -97 -110 -113 -125 -126 -139 -140 -152 -153 -164 -165 -176 0
-22 -62 -63 -79 -81 -96 -97 -110 -113 -125 -126 -139 -140 -152 -153 -164 -165 -176 0
-22 -62 -63 -80 -81 -96 -98 -110 -113 -125 -126 -139 -140 -152 -153 -164 -165 -176 0
-22 -62 -63 -80 -81 -97 -98 -110 -114 -125 -126 -139 -140 -152 -153 -164 -165 -176 0
-20 -60 -61 -78 -79 -95 -96 -111 -112 -125 -127 -139 -140 -152 -153 -164 -165 -176 0
-21 -60 -62 -78 -79 -95 -96 -111 -112 -125 -127 -139 -140 -152 -153 -164 -165 -176 0
-22 -60 -63 -78 -79 -95 -96 -111 -112 -125 -127 -139 -140 -152 -153 -164 -165 -176 0
-21 -61 -62 -78 -80 -95 -96 -111 -112 -125 -127 -139 -140 -152 -153 -164 -165 -176 0
-22 -61 -63 -78 -80 -95 -96 -111 -112 -125 -127 -139 -140 -152 -153 -164 -165 -176 0
-22 -62 -63 -78 -81 -95 -96 -111 -112 -125 -127 -139 -140 -152 -153 -164 -165 -176 0
-21 -61 -62 -79 -80 -95 -97 -111 -112 -125 -127 -139 -140 -152 -153 -164 -165 -176 0
-22 -61 -63 -79 -80 -95 -97 -111 -112 -125 -127 -139 -140 -152 -153 -164 -165 -176 0
-22 -62 -63 -79 -81 -95 -97 -111 -112 -125 -127 -139 -140 -152 -153 -164 -165 -176 0
-22 -62 -63 -80 -81 -95 -98 -111 -112 -125 -127 -139 -140 -152 -153 -164 -165 -176 0
-21 -61 -62 -79 -80 -96 -97 -111 -113 -125 -127 -139 -140 -152 -153 -164 -165 -176 0
-22 -61 -63 -79 -80 -96 -97 -111 -113 -125 -127 -139 -140 -152 -153 -164 -165 -176 0
-22 -62 -63 -79 -81 -96 -97 -111 -113 -125 -127 -139 -140 -152 -153 -164 -165 -176 0
-22 -62 -63 -80 -81 -96 -98 -111 -113 -125 -127 -139 -140 -152 -153 -164 -165 -176 0
-22 -62 -63 -80 -81 -97 -98 -111 -114 -125 -127 -139 -140 -152 -153 -164 -165 -176 0
-21 -61 -62 -79 -80 -96 -97 -112 -113 -125 -128 -139 -140 -152 -153 -164 -165 -176 0
-22 -61 -63 -79 -80 -96 -97 -112 -113 -125 -128 -139 -140 -152 -153 -164 -165 -176 0
-22 -62 -63 -79 -81 -96 -97 -112 -113 -125 -128 -139 -140 -152 -153 -164 -165 -176 0
-22 -62 -63 -80 -81 -96 -98 -112 -113 -125 -128 -139 -140 -152 -153 -164 -165 -176 0
-22 -62 -63 -80 -81 -97 -98 -112 -114 -125 -128 -139 -140 -152 -153 -164 -165 -176 0
-22 -62 -63 -80 -81 -97 -98 -113 -114 -125 -129 -139 -140 -152 -153 -164 -165 -176 0
-20 -60 -61 -78 -79 -95 -96 -111 -112 -126 -127 -139 -141 -152 -153 -164 -165 -176 0
-21 -60 -62 -78 -79 -95 -96 -111 -112 -126 -127 -139 -141 -152 -153 -164 -165 -176 0
-22 -60 -63 -78 -79 -95 -96 -111 -112 -126 -127 -139 -141 -152 -153 -164 -165 -176 0
-21 -61 -62 -78 -80 -95 -96 -111 -112 -126 -127 -139 -141 -152 -153 -164 -165 -176 0
-22 -61 -63 -78 -80 -95 -96 -111 -112 -126 -127 -139 -141 -152 -153 -164 -165 -176 0
-22 -62 -63 -78 -81 -95 -96 -111 -112 -126 -127 -139 -141 -152 -153 -164 -165 -176 0
-21 -61 -62 -79 -80 -95 -97 -111 -112 -126 -127 -139 -141 -152 -153 -164 -165 -176 0
-22 -61 -63 -79 -80 -95 -97 -111 -112 -126 -127 -139 -141 -152 -153 -164 -165 -176 0
-22 -62 -63 -79 -81 -95 -97 -111 -112 -126 -127 -139 -141 -152 -153 -164 -165 -176 0
-22 -62 -63 -80 -81 -95 -98 -111 -112 -126 -127 -139 -141 -152 -153 -164 -165 -176 0
-21 -61 -62 -79 -80 -96 -97 -111 -113 -126 -127 -139 -141 -152 -153 -164 -165 -176 0
-22 -61 -63 -79 -80 -96 -97 -111 -113 -126 -127 -139 -141 -152 -153 -164 -165 -176 0
-22 -62 -63 -79 -81 -96 -97 -111 -113 -126 -127 -139 -141 -152 -153 -164 -165 -176 0
-22 -62 -63 -80 -81 -96 -98 -111 -113 -126 -127 -139 -141 -152 -153 -164 -165 -176 0
-22 -62 -63 -80 -81 -97 -98 -111 -114 -126 -127 -139 -141 -152 -153 -164 -165 -176 0
-21 -61 -62 -79 -80 -96 -97 -112 -113 -126 -128 -139 -141 -152 -153 -164 -165 -176 0
-22 -61 -63 -79 -80 -96 -97 -112 -113 -126 -128 -139 -141 -152 -153 -164 -165 -176 0
-22 -62 -63 -79 -81 -96 -97 -112 -113 -126 -128 -139 -141 -152 -153 -164 -165 -176 0
-22 -62 -63 -80 -81 -96 -98 -112 -113 -126 -128 -139 -141 -152 -153 -164 -165 -176 0
-22 -62 -63 -80 -81 -97 -98 -112 -114 -126 -128 -139 -141 -152 -153 -164 -165 -176 0
-22 -62 -63 -80 -81 -97 -98 -113 -114 -126 -129 -139 -141 -152 -153 -164 -165 -176 0
-21 -61 -62 -79 -80 -96 -97 -112 -113 -127 -128 -139 -142 -152 -153 -164 -165 -176 0
-22 -61 -63 -79 -80 -96 -97 -112 -113 -127 -128 -139 -142 -152 -153 -164 -165 -176 0
-22 -62 -63 -79 -81 -96 -97 -112 -113 -127 -128 -139 -142 -152 -153 -164 -165 -176 0
-22 -62 -63 -80 -81 -96 -98 -112 -113 -127 -128 -139 -142 -152 -153 -164 -165 -176 0
-22 -62 -63 -80 -81 -97 -98 -112 -114 -127 -128 -139 -142 -152 -153 -164 -165 -176 0
-22 -62 -63 -80 -81 -97 -98 -113 -114 -127 -129 -139 -142 -152 -153 -164 -165 -176 0
-22 -62 -63 -80 -81 -97 -98 -113 -114 -128 -129 -139 -143 -152 -153 -164 -165 -176 0
-20 -60 -61 -78 -79 -95 -96 -111 -112 -126 -127 -140 -141 -152 -154 -164 -165 -176 0
-21 -60 -62 -78 -79 -95 -96 -111 -112 -126 -127 -140 -141 -152 -154 -164 -165 -176 0
-22 -60 -63 -78 -79 -95 -96 -111 -112 -126 -127 -140 -141 -152 -154 -164 -165 -176 0
-21 -61 -62 -78 -80 -95 -96 -111 -112 -126 -127 -140 -141 -152 -154 -164 -165 -176 0
-22 -61 -63 -78 -80 -95 -96 -111 -112 -126 -127 -140 -141 -152 -154 -164 -165 -176 0
-22 -62 -63 -78 -81 -95 -96 -111 -112 -126 -127 -140 -141 -152 -154 -164 -165 -176 0
-21 -61 -62 -79 -80 -95 -97 -111 -112 -126 -127 -140 -141 -152 -154 -164 -165 -176 0
-22 -61 -63 -79 -80 -95 -97 -111 -112 -126 -127 -140 -141 -152 -154 -164 -165 -176 0
-22 -62 -63 -79 -81 -95 -97 -111 -112 -126 -127 -140 -141 -152 -154 -164 -165 -176 0
-22 -62 -63 -80 -81 -95 -98 -111 -112 -126 -127 -140 -141 -152 -154 -164 -165 -176 0
-21 -61 -62 -79 -80 -96 -97 -111 -113 -126 -127 -140 -141 -152 -154 -164 -165 -176 0
-22 -61 -63 -79 -80 -96 -97 -111 -113 -126 -127 -140 -141 -152 -154 -164 -165 -176 0
-22 -62 -63 -79 -81 -96 -97 -111 -113 -126 -127 -140 -141 -152 -154 -164 -165 -176 0
-22 -62 -63 -80 -81 -96 -98 -111 -113 -126 -127 -140 -141 -152 -154 -164 -165 -176 0
-22 -62 -63 -80 -81 -97 -98 -111 -114 -126 -127 -140 -141 -152 -154 -164 -165 -176 0
-21 -61 -62 -79 -80 -96 -97 -112 -113 -126 -128 -140 -141 -152 -154 -164 -165 -176 0
-22 -61 -63 -79 -80 -96 -97 -112 -113 -126 -128 -140 -141 -152 -154 -164 -165 -176 0
-22 -62 -63 -79 -81 -96 -97 -112 -113 -126 -128 -140 -141 -152 -154 -164 -165 -176 0
-22 -62 -63 -80 -81 -96 -98 -112 -113 -126 -128 -140 -141 -152 -154 -164 -165 -176 0
-22 -62 -63 -80 -81 -97 -98 -112 -114 -126 -128 -140 -141 -152 -154 -164 -165 -176 0
-22 -62 -63 -80 -81 -97 -98 -113 -114 -126 -129 -140 -141 -152 -154 -164 -165 -176 0
-21 -61 -62 -79 -80 -96 -97 -112 -113 -127 -128 -140 -142 -152 -154 -164 -165 -176 0
-22 -61 -63 -79 -80 -96 -97 -112 -113 -127 -128 -140 -142 -152 -154 -164 -165 -176 0
-22 -62 -63 -79 -81 -96 -97 -112 -113 -127 -128 -140 -142 -152 -154 -164 -165 -176 0
-22 -62 -63 -80 -81 -96 -98 -112 -113 -127 -128 -140 -142 -152 -154 -164 -165 -176 0
-22 -62 -63 -80 -81 -97 -98 -112 -114 -127 -128 -140 -142 -152 -154 -164 -165 -176 0
-22 -62 -63 -80 -81 -97 -98 -113 -114 -127 -129 -140 -142 -152 -154 -164 -165 -176 0
-22 -62 -63 -80 -81 -97 -98 -113 -114 -128 -129 -140 -143 -152 -154 -164 -165 -176 0
-21 -61 -62 -79 -80 -96 -97 -112 -113 -127 -128 -141 -142 -152 -155 -164 -165 -176 0
-22 -61 -63 -79 -80 -96 -97 -112 -113 -127 -128 -141 -142 -152 -155 -164 -165 -176 0
-22 -62 -63 -79 -81 -96 -97 -112 -113 -127 -128 -141 -142 -152 -155 -164 -165 -176 0
-22 -62 -63 -80 -81 -96 -98 -112 -113 -127 -128 -141 -142 -152 -155 -164 -165 -176 0
-22 -62 -63 -80 -81 -97 -98 -112 -114 -127 -128 -141 -142 -152 -155 -164 -165 -176 0
-22 -62 -63 -80 -81 -97 -98 -113 -114 -127 -129 -141 -142 -152 -155 -164 -165 -176 0
-22 -62 -63 -80 -81 -97 -98 -113 -114 -128 -129 -141 -143 -152 -155 -164 -165 -176 0
-22 -62 -63 -80 -81 -97 -98 -113 -114 -128 -129 -142 -143 -152 -156 -164 -165 -176 0
-20 -60 -61 -78 -79 -95 -96 -111 -112 -126 -127 -140 -141 -153 -154 -164 -166 -176 0
-21 -60 -62 -78 -79 -95 -96 -111 -112 -126 -127 -140 -141 -153 -154 -164 -166 -176 0
-22 -60 -63 -78 -79 -95 -96 -111 -112 -126 -127 -140 -141 -153 -154 -164 -166 -176 0
-21 -61 -62 -78 -80 -95 -96 -111 -112 -126 -127 -140 -141 -153 -154 -164 -166 -176 0
-22 -61 -63 -78 -80 -95 -96 -111 -112 -126 -127 -140 -141 -153 -154 -164 -166 -176 0
-22 -62 -63 -78 -81 -95 -96 -111 -112 -126 -127 -140 -141 -153 -154 -164 -166 -176 0
-21 -61 -62 -79 -80 -95 -97 -111 -112 -126 -127 -140 -141 -153 -154 -164 -166 -176 0
-22 -61 -63 -79 -80 -95 -97 -111 -112 -126 -127 -140 -141 -153 -154 -164 -166 -176 0
-22 -62 -63 -79 -81 -95 -97 -111 -112 -126 -127 -140 -141 -153 -154 -164 -166 -176 0
-22 -62 -63 -80 -81 -95 -98 -111 -112 -126 -127 -140 -141 -153 -154 -164 -166 -176 0
-21 -61 -62 -79 -80 -96 -97 -111 -113 -126 -127 -140 -141 -153 -154 -164 -166 -176 0
-22 -61 -63 -79 -80 -96 -97 -111 -113 -126 -127 -140 -141 -153 -154 -164 -166 -176 0
-22 -62 -63 -79 -81 -96 -97 -111 -113 -126 -127 -140 -141 -153 -154 -164 -166 -176 0
-22 -62 -63 -80 -81 -96 -98 -111 -113 -126 -127 -140 -141 -153 -154 -164 -166 -176 0
-22 -62 -63 -80 -81 -97 -98 -111 -114 -126 -127 -140 -141 -153 -154 -164 -166 -176 0
-21 -61 -62 -79 -80 -96 -97 -112 -113 -126 -128 -140 -141 -153 -154 -164 -166 -176 0
-22 -61 -63 -79 -80 -96 -97 -112 -113 -126 -128 -140 -141 -153 -154 -164 -166 -176 0
-22 -62 -63 -79 -81 -96 -97 -112 -113 -126 -128 -140 -141 -153 -154 -164 -166 -176 0
-22 -62 -63 -80 -81 -96 -98 -112 -113 -126 -128 -140 -141 -153 -154 -164 -166 -176 0
-22 -62 -63 -80 -81 -97 -98 -112 -114 -126 -128 -140 -141 -153 -154 -164 -166 -176 0
-22 -62 -63 -80 -81 -97 -98 -113 -114 -126 -129 -140 -141 -153 -154 -164 -166 -176 0
-21 -61 -62 -79 -80 -96 -97 -112 -113 -127 -128 -140 -142 -153 -154 -164 -166 -176 0
-22 -61 -63 -79 -80 -96 -97 -112 -113 -127 -128 -140 -142 -153 -154 -164 -166 -176 0
-22 -62 -63 -79 -81 -96 -97 -112 -113 -127 -128 -140 -142 -153 -154 -164 -166 -176 0
-22 -62 -63 -80 -81 -96 -98 -112 -113 -127 -128 -140 -142 -153 -154 -164 -166 -176 0
-22 -62 -63 -80 -81 -97 -98 -112 -114 -127 -128 -140 -142 -153 -154 -164 -166 -176 0
-22 -62 -63 -80 -81 -97 -98 -113 -114 -127 -129 -140 -142 -153 -154 -164 -166 -176 0
-22 -62 -63 -80 -81 -97 -98 -113 -114 -128 -129 -140 -143 -153 -154 -164 -166 -176 0
-21 -61 -62 -79 -80 -96 -97 -112 -113 -127 -128 -141 -142 -153 -155 -164 -166 -176 0
-22 -61 -63 -79 -80 -96 -97 -112 -113 -127 -128 -141 -142 -153 -155 -164 -166 -176 0
-22 -62 -63 -79 -81 -96 -97 -112 -113 -127 -128 -141 -142 -153 -155 -164 -166 -176 0
-22 -62 -63 -80 -81 -96 -98 -112 -113 -127 -128 -141 -142 -153 -155 -164 -166 -176 0
-22 -62 -63 -80 -81 -97 -98 -112 -114 -127 -128 -141 -142 -153 -155 -164 -166 -176 0
-22 -62 -63 -80 -81 -97 -98 -113 -114 -127 -129 -141 -142 -153 -155 -164 -166 -176 0
-22 -62 -63 -80 -81 -97 -98 -113 -114 -128 -129 -141 -143 -153 -155 -164 -166 -176 0
-22 -62 -63 -80 -81 -97 -98 -113 -114 -128 -129 -142 -143 -153 -156 -164 -166 -176 0
-21 -61 -62 -79 -80 -96 -97 -112 -113 -127 -128 -141 -142 -154 -155 -164 -167 -176 0
-22 -61 -63 -79 -80 -96 -97 -112 -113 -127 -128 -141 -142 -154 -155 -164 -167 -176 0
-22 -62 -63 -79 -81 -96 -97 -112 -113 -127 -128 -141 -142 -154 -155 -164 -167 -176 0
-22 -62 -63 -80 -81 -96 -98 -112 -113 -127 -128 -141 -142 -154 -155 -164 -167 -176 0
-22 -62 -63 -80 -81 -97 -98 -112 -114 -127 -128 -141 -142 -154 -155 -164 -167 -176 0
-22 -62 -63 -80 -81 -97 -98 -113 -114 -127 -129 -141 -142 -154 -155 -164 -167 -176 0
-22 -62 -63 -80 -81 -97 -98 -113 -114 -128 -129 -141 -143 -154 -155 -164 -167 -176 0
-22 -62 -63 -80 -81 -97 -98 -113 -114 -128 -129 -142 -143 -154 -156 -164 -167 -176 0
-22 -62 -63 -80 -81 -97 -98 -113 -114 -128 -129 -142 -143 -155 -156 -164 -168 -176 0
-20 -60 -61 -78 -79 -95 -96 -111 -112 -126 -127 -140 -141 -153 -154 -165 -166 -177 0
-21 -60 -62 -78 -79 -95 -96 -111 -112 -126 -127 -140 -141 -153 -154 -165 -166 -177 0
-22 -60 -63 -78 -79 -95 -96 -111 -112 -126 -127 -140 -141 -153 -154 -165 -166 -177 0
-21 -61 -62 -78 -80 -95 -96 -111 -112 -126 -127 -140 -141 -153 -154 -165 -166 -177 0
-22 -61 -63 -78 -80 -95 -96 -111 -112 -126 -127 -140 -141 -153 -154 -165 -166 -177 0
-22 -62 -63 -78 -81 -95 -96 -111 -112 -126 -127 -140 -141 -153 -154 -165 -166 -177 0
-21 -61 -62 -79 -80 -95 -97 -111 -112 -126 -127 -140 -141 -153 -154 -165 -166 -177 0
-22 -61 -63 -79 -80 -95 -97 -111 -112 -126 -127 -140 -141 -153 -154 -165 -166 -177 0
-22 -62 -63 -79 -81 -95 -97 -111 -112 -126 -127 -140 -141 -153 -154 -165 -166 -177 0
-22 -62 -63 -80 -81 -95 -98 -111 -112 -126 -127 -140 -141 -153 -154 -165 -166 -177 0
-21 -61 -62 -79 -80 -96 -97 -111 -113 -126 -127 -140 -141 -153 -154 -165 -166 -177 0
-22 -61 -63 -79 -80 -96 -97 -111 -113 -126 -127 -140 -141 -153 -154 -165 -166 -177 0
-22 -62 -63 -79 -81 -96 -97 -111 -113 -126 -127 -140 -141 -153 -154 -165 -166 -177 0
-22 -62 -63 -80 -81 -96 -98 -111 -113 -126 -127 -140 -141 -153 -154 -165 -166 -177 0
-22 -62 -63 -80 -81 -97 -98 -111 -114 -126 -127 -140 -141 -153 -154 -165 -166 -177 0
-21 -61 -62 -79 -80 -96 -97 -112 -113 -126 -128 -140 -141 -153 -154 -165 -166 -177 0
-22 -61 -63 -79 -80 -96 -97 -112 -113 -126 -128 -140 -141 -153 -154 -165 -166 -177 0
-22 -62 -63 -79 -81 -96 -97 -112 -113 -126 -128 -140 -141 -153 -154 -165 -166 -177 0
-22 -62 -63 -80 -81 -96 -98 -112 -113 -126 -128 -140 -141 -153 -154 -165 -166 -177 0
-22 -62 -63 -80 -81 -97 -98 -112 -114 -126 -128 -140 -141 -153 -154 -165 -166 -177 0
-22 -62 -63 -80 -81 -97 -98 -113 -114 -126 -129 -140 -141 -153 -154 -165 -166 -177 0
-21 -61 -62 -79 -80 -96 -97 -112 -113 -127 -128 -140 -142 -153 -154 -165 -166 -177 0
-22 -61 -63 -79 -80 -96 -97 -112 -113 -127 -128 -140 -142 -153 -154 -165 -166 -177 0
-22 -62 -63 -79 -81 -96 -97 -112 -113 -127 -128 -140 -142 -153 -154 -165 -166 -177 0
-22 -62 -63 -80 -81 -96 -98 -112 -113 -127 -128 -140 -142 -153 -154 -165 -166 -177 0
-22 -62 -63 -80 -81 -97 -98 -112 -114 -127 -128 -140 -142 -153 -154 -165 -166 -177 0
-22 -62 -63 -80 -81 -97 -98 -113 -114 -127 -129 -140 -142 -153 -154 -165 -166 -177 0
-22 -62 -63 -80 -81 -97 -98 -113 -114 -128 -129 -140 -143 -153 -154 -165 -166 -177 0
-21 -61 -62 -79 -80 -96 -97 -112 -113 -127 -128 -141 -142 -153 -155 -165 -166 -177 0
-22 -61 -63 -79 -80 -96 -97 -112 -113 -127 -128 -141 -142 -153 -155 -165 -166 -177 0
-22 -62 -63 -79 -81 -96 -97 -112 -113 -127 -128 -141 -142 -153 -155 -165 -166 -177 0
-22 -62 -63 -80 -81 -96 -98 -112 -113 -127 -128 -141 -142 -153 -155 -165 -166 -177 0
-22 -62 -63 -80 -81 -97 -98 -112 -114 -127 -128 -141 -142 -153 -155 -165 -166 -177 0
-22 -62 -63 -80 -81 -97 -98 -113 -114 -127 -129 -141 -142 -153 -155 -165 -166 -177 0
-22 -62 -63 -80 -81 -97 -98 -113 -114 -128 -129 -141 -143 -153 -155 -165 -166 -177 0
-22 -62 -63 -80 -81 -97 -98 -113 -114 -128 -129 -142 -143 -153 -156 -165 -166 -177 0
-21 -61 -62 -79 -80 -96 -97 -112 -113 -127 -128 -141 -142 -154 -155 -165 -167 -177 0
-22 -61 -63 -79 -80 -96 -97 -112 -113 -127 -128 -141 -142 -154 -155 -165 -167 -177 0
-22 -62 -63 -79 -81 -96 -97 -112 -113 -127 -128 -141 -142 -154 -155 -165 -167 -177 0
-22 -62 -63 -80 -81 -96 -98 -112 -113 -127 -128 -141 -142 -154 -155 -165 -167 -177 0
-22 -62 -63 -80 -81 -97 -98 -112 -114 -127 -128 -141 -142 -154 -155 -165 -167 -177 0
-22 -62 -63 -80 -81 -97 -98 -113 -114 -127 -129 -141 -142 -154 -155 -165 -167 -177 0
-22 -62 -63 -80 -81 -97 -98 -113 -114 -128 -129 -141 -143 -154 -155 -165 -167 -177 0
-22 -62 -63 -80 -81 -97 -98 -113 -114 -128 -129 -142 -143 -154 -156 -165 -167 -177 0
-22 -62 -63 -80 -81 -97 -98 -113 -114 -128 -129 -142 -143 -155 -156 -165 -168 -177 0
-21 -61 -62 -79 -80 -96 -97 -112 -113 -127 -128 -141 -142 -154 -155 -166 -167 -178 0
-22 -61 -63 -79 -80 -96 -97 -112 -113 -127 -128 -141 -142 -154 -155 -166 -167 -178 0
-22 -62 -63 -79 -81 -96 -97 -112 -113 -127 -128 -141 -142 -154 -155 -166 -167 -178 0
-22 -62 -63 -80 -81 -96 -98 -112 -113 -127 -128 -141 -142 -154 -155 -166 -167 -178 0
-22 -62 -63 -80 -81 -97 -98 -112 -114 -127 -128 -141 -142 -154 -155 -166 -167 -178 0
-22 -62 -63 -80 -81 -97 -98 -113 -114 -127 -129 -141 -142 -154 -155 -166 -167 -178 0
-22 -62 -63 -80 -81 -97 -98 -113 -114 -128 -129 -141 -143 -154 -155 -166 -167 -178 0
-22 -62 -63 -80 -81 -97 -98 -113 -114 -128 -129 -142 -143 -154 -156 -166 -167 -178 0
-22 -62 -63 -80 -81 -97 -98 -113 -114 -128 -129 -142 -143 -155 -156 -166 -168 -178 0
-22 -62 -63 -80 -81 -97 -98 -113 -114 -128 -129 -142 -143 -155 -156 -167 -168 -179 0
-20 -60 -61 -78 -79 -95 -96 -111 -112 -126 -127 -140 -141 -153 -154 -165 -166 -188 0
-21 -60 -62 -78 -79 -95 -96 -111 -112 -126 -127 -140 -141 -153 -154 -165 -166 -188 0
-22 -60 -63 -78 -79 -95 -96 -111 -112 -126 -127 -140 -141 -153 -154 -165 -166 -188 0
-21 -61 -62 -78 -80 -95 -96 -111 -112 -126 -127 -140 -141 -153 -154 -165 -166 -188 0
-22 -61 -63 -78 -80 -95 -96 -111 -112 -126 -127 -140 -141 -153 -154 -165 -166 -188 0
-22 -62 -63 -78 -81 -95 -96 -111 -112 -126 -127 -140 -141 -153 -154 -165 -166 -188 0
-21 -61 -62 -79 -80 -95 -97 -111 -112 -126 -127 -140 -141 -153 -154 -165 -166 -188 0
-22 -61 -63 -79 -80 -95 -97 -111 -112 -126 -127 -140 -141 -153 -154 -165 -166 -188 0
-22 -62 -63 -79 -81 -95 -97 -111 -112 -126 -127 -140 -141 -153 -154 -165 -166 -188 0
-22 -62 -63 -80 -81 -95 -98 -111 -112 -126 -127 -140 -141 -153 -154 -165 -166 -188 0
-21 -61 -62 -79 -80 -96 -97 -111 -113 -126 -127 -140 -141 -153 -154 -165 -166 -188 0
-22 -61 -63 -79 -80 -96 -97 -111 -113 -126 -127 -140 -141 -153 -154 -165 -166 -188 0
-22 -62 -63 -79 -81 -96 -97 -111 -113 -126 -127 -140 -141 -153 -154 -165 -166 -188 0
-22 -62 -63 -80 -81 -96 -98 -111 -113 -126 -127 -140 -141 -153 -154 -165 -166 -188 0
-22 -62 -63 -80 -81 -97 -98 -111 -114 -126 -127 -140 -141 -153 -154 -165 -166 -188 0
-21 -61 -62 -79 -80 -96 -97 -112 -113 -126 -128 -140 -141 -153 -154 -165 -166 -188 0
-22 -61 -63 -79 -80 -96 -97 -112 -113 -126 -128 -140 -141 -153 -154 -165 -166 -188 0
-22 -62 -63 -79 -81 -96 -97 -112 -113 -126 -128 -140 -141 -153 -154 -165 -166 -188 0
-22 -62 -63 -80 -81 -96 -98 -112 -113 -126 -128 -140 -141 -153 -154 -165 -166 -188 0
-22 -62 -63 -80 -81 -97 -98 -112 -114 -126 -128 -140 -141 -153 -154 -165 -166 -188 0
-22 -62 -63 -80 -81 -97 -98 -113 -114 -126 -129 -140 -141 -153 -154 -165 -166 -188 0
-21 -61 -62 -79 -80 -96 -97 -112 -113 -127 -128 -140 -142 -153 -154 -165 -166 -188 0
-22 -61 -63 -79 -80 -96 -97 -112 -113 -127 -128 -140 -142 -153 -154 -165 -166 -188 0
-22 -62 -63 -79 -81 -96 -97 -112 -113 -127 -128 -140 -142 -153 -154 -165 -166 -188 0
-22 -62 -63 -80 -81 -96 -98 -112 -113 -127 -128 -140 -142 -153 -154 -165 -166 -188 0
-22 -62 -63 -80 -81 -97 -98 -112 -114 -127 -128 -140 -142 -153 -154 -165 -166 -188 0
-22 -62 -63 -80 -81 -97 -98 -113 -114 -127 -129 -140 -142 -153 -154 -165 -166 -188 0
-22 -62 -63 -80 -81 -97 -98 -113 -114 -128 -129 -140 -143 -153 -154 -165 -166 -188 0
-21 -61 -62 -79 -80 -96 -97 -112 -113 -127 -128 -141 -142 -153 -155 -165 -166 -188 0
-22 -61 -63 -79 -80 -96 -97 -112 -113 -127 -128 -141 -142 -153 -155 -165 -166 -188 0
-22 -62 -63 -79 -81 -96 -97 -112 -113 -127 -128 -141 -142 -153 -155 -165 -166 -188 0
-22 -62 -63 -80 -81 -96 -98 -112 -113 -127 -128 -141 -142 -153 -155 -165 -166 -188 0
-22 -62 -63 -80 -81 -97 -98 -112 -114 -127 -128 -141 -142 -153 -155 -165 -166 -188 0
-22 -62 -63 -80 -81 -97 -98 -113 -114 -127 -129 -141 -142 -153 -155 -165 -166 -188 0
-22 -62 -63 -80 -81 -97 -98 -113 -114 -128 -129 -141 -143 -153 -155 -165 -166 -188 0
-22 -62 -63 -80 -81 -97 -98 -113 -114 -128 -129 -142 -143 -153 -156 -165 -166 -188 0
-21 -61 -62 -79 -80 -96 -97 -112 -113 -127 -128 -141 -142 -154 -155 -165 -167 -188 0
-22 -61 -63 -79 -80 -96 -97 -112 -113 -127 -128 -141 -142 -154 -155 -165 -167 -188 0
-22 -62 -63 -79 -81 -96 -97 -112 -113 -127 -128 -141 -142 -154 -155 -165 -167 -188 0
-22 -62 -63 -80 -81 -96 -98 -112 -113 -127 -128 -141 -142 -154 -155 -165 -167 -188 0
-22 -62 -63 -80 -81 -97 -98 -112 -114 -127 -128 -141 -142 -154 -155 -165 -167 -188 0
-22 -62 -63 -80 -81 -97 -98 -113 -114 -127 -129 -141 -142 -154 -155 -165 -167 -188 0
-22 -62 -63 -80 -81 -97 -98 -113 -114 -128 -129 -141 -143 -154 -155 -165 -167 -188 0
-22 -62 -63 -80 -81 -97 -98 -113 -114 -128 -129 -142 -143 -154 -156 -165 -167 -188 0
-22 -62 -63 -80 -81 -97 -98 -113 -114 -128 -129 -142 -143 -155 -156 -165 -168 -188 0
-21 -61 -62 -79 -80 -96 -97 -112 -113 -127 -128 -141 -142 -154 -155 -166 -167 -189 0
-22 -61 -63 -79 -80 -96 -97 -112 -113 -127 -128 -141 -142 -154 -155 -166 -167 -189 0
-22 -62 -63 -79 -81 -96 -97 -112 -113 -127 -128 -141 -142 -154 -155 -166 -167 -189 0
-22 -62 -63 -80 -81 -96 -98 -112 -113 -127 -128 -141 -142 -154 -155 -166 -167 -189 0
-22 -62 -63 -80 -81 -97 -98 -112 -114 -127 -128 -141 -142 -154 -155 -166 -167 -189 0
-22 -62 -63 -80 -81 -97 -98 -113 -114 -127 -129 -141 -142 -154 -155 -166 -167 -189 0
-22 -62 -63 -80 -81 -97 -98 -113 -114 -128 -129 -141 -143 -154 -155 -166 -167 -189 0
-22 -62 -63 -80 -81 -97 -98 -113 -114 -128 -129 -142 -143 -154 -156 -166 -167 -189 0
-22 -62 -63 -80 -81 -97 -98 -113 -114 -128 -129 -142 -143 -155 -156 -166 -168 -189 0
-22 -62 -63 -80 -81 -97 -98 -113 -114 -128 -129 -142 -143 -155 -156 -167 -168 -190 0
-21 -61 -62 -79 -80 -96 -97 -112 -113 -127 -128 -141 -142 -154 -155 -166 -167 -199 0
-22 -61 -63 -79 -80 -96 -97 -112 -113 -127 -128 -141 -142 -154 -155 -166 -167 -199 0
-22 -62 -63 -79 -81 -96 -97 -112 -113 -127 -128 -141 -142 -154 -155 -166 -167 -199 0
-22 -62 -63 -80 -81 -96 -98 -112 -113 -127 -128 -141 -142 -154 -155 -166 -167 -199 0
-22 -62 -63 -80 -81 -97 -98 -112 -114 -127 -128 -141 -142 -154 -155 -166 -167 -199 0
-22 -62 -63 -80 -81 -97 -98 -113 -114 -127 -129 -141 -142 -154 -155 -166 -167 -199 0
-22 -62 -63 -80 -81 -97 -98 -113 -114 -128 -129 -141 -143 -154 -155 -166 -167 -199 0
-22 -62 -63 -80 -81 -97 -98 -113 -114 -128 -129 -142 -143 -154 -156 -166 -167 -199 0
-22 -62 -63 -80 -81 -97 -98 -113 -114 -128 -129 -142 -143 -155 -156 -166 -168 -199 0
-22 -62 -63 -80 -81 -97 -98 -113 -114 -128 -129 -142 -143 -155 -156 -167 -168 -200 0
-22 -62 -63 -80 -81 -97 -98 -113 -114 -128 -129 -142 -143 -155 -156 -167 -168 -209 0
-20 -60 -61 -78 -79 -95 -96 -111 -112 -126 -127 -140 -141 -153 -154 -177 -178 -188 0
-21 -60 -62 -78 -79 -95 -96 -111 -112 -126 -127 -140 -141 -153 -154 -177 -178 -188 0
-22 -60 -63 -78 -79 -95 -96 -111 -112 -126 -127 -140 -141 -153 -154 -177 -178 -188 0
-21 -61 -62 -78 -80 -95 -96 -111 -112 -126 -127 -140 -141 -153 -154 -177 -178 -188 0
-22 -61 -63 -78 -80 -95 -96 -111 -112 -126 -127 -140 -141 -153 -154 -177 -178 -188 0
-22 -62 -63 -78 -81 -95 -96 -111 -112 -126 -127 -140 -141 -153 -154 -177 -178 -188 0
-21 -61 -62 -79 -80 -95 -97 -111 -112 -126 -127 -140 -141 -153 -154 -177 -178 -188 0
-22 -61 -63 -79 -80 -95 -97 -111 -112 -126 -127 -140 -141 -153 -154 -177 -178 -188 0
-22 -62 -63 -79 -81 -95 -97 -111 -112 -126 -127 -140 -141 -153 -154 -177 -178 -188 0
-22 -62 -63 -80 -81 -95 -98 -111 -112 -126 -127 -140 -141 -153 -154 -177 -178 -188 0
-21 -61 -62 -79 -80 -96 -97 -111 -113 -126 -127 -140 -141 -153 -154 -177 -178 -188 0
-22 -61 -63 -79 -80 -96 -97 -111 -113 -126 -127 -140 -141 -153 -154 -177 -178 -188 0
-22 -62 -63 -79 -81 -96 -97 -111 -113 -126 -127 -140 -141 -153 -154 -177 -178 -188 0
-22 -62 -63 -80 -81 -96 -98 -111 -113 -126 -127 -140 -141 -153 -154 -177 -178 -188 0
-22 -62 -63 -80 -81 -97 -98 -111 -114 -126 -127 -140 -141 -153 -154 -177 -178 -188 0
-21 -61 -62 -79 -80 -96 -97 -112 -113 -126 -128 -140 -141 -153 -154 -177 -178 -188 0
-22 -61 -63 -79 -80 -96 -97 -112 -113 -126 -128 -140 -141 -153 -154 -177 -178 -188 0
-22 -62 -63 -79 -81 -96 -97 -112 -113 -126 -128 -140 -141 -153 -154 -177 -178 -188 0
-22 -62 -63 -80 -81 -96 -98 -112 -113 -126 -128 -140 -141 -153 -154 -177 -178 -188 0
-22 -62 -63 -80 -81 -97 -98 -112 -114 -126 -128 -140 -141 -153 -154 -177 -178 -188 0
-22 -62 -63 -80 -81 -97 -98 -113 -114 -126 -129 -140 -141 -153 -154 -177 -178 -188 0
-21 -61 -62 -79 -80 -96 -97 -112 -113 -127 -128 -140 -142 -153 -154 -177 -178 -188 0
-22 -61 -63 -79 -80 -96 -97 -112 -113 -127 -128 -140 -142 -153 -154 -177 -178 -188 0
-22 -62 -63 -79 -81 -96 -97 -112 -113 -127 -128 -140 -142 -153 -154 -177 -178 -188 0
-22 -62 -63 -80 -81 -96 -98 -112 -113 -127 -128 -140 -142 -153 -154 -177 -178 -188 0
-22 -62 -63 -80 -81 -97 -98 -112 -114 -127 -128 -140 -142 -153 -154 -177 -178 -188 0
-22 -62 -63 -80 -81 -97 -98 -113 -114 -127 -129 -140 -142 -153 -154 -177 -178 -188 0
-22 -62 -63 -80 -81 -97 -98 -113 -114 -128 -129 -140 -143 -153 -154 -177 -178 -188 0
-21 -61 -62 -79 -80 -96 -97 -112 -113 -127 -128 -141 -142 -153 -155 -177 -178 -188 0
-22 -61 -63 -79 -80 -96 -97 -112 -113 -127 -128 -141 -142 -153 -155 -177 -178 -188 0
-22 -62 -63 -79 -81 -96 -97 -112 -113 -127 -128 -141 -142 -153 -155 -177 -178 -188 0
-22 -62 -63 -80 -81 -96 -98 -112 -113 -127 -128 -141 -142 -153 -155 -177 -178 -188 0
-22 -62 -63 -80 -81 -97 -98 -112 -114 -127 -128 -141 -142 -153 -155 -177 -178 -188 0
-22 -62 -63 -80 -81 -97 -98 -113 -114 -127 -129 -141 -142 -153 -155 -177 -178 -188 0
-22 -62 -63 -80 -81 -97 -98 -113 -114 -128 -129 -141 -143 -153 -155 -177 -178 -188 0
-22 -62 -63 -80 -81 -97 -98 -113 -114 -128 -129 -142 -143 -153 -156 -177 -178 -188 0
-21 -61 -62 -79 -80 -96 -97 -112 -113 -127 -128 -141 -142 -154 -155 -177 -179 -188 0
-22 -61 -63 -79 -80 -96 -97 -112 -113 -127 -128 -141 -142 -154 -155 -177 -179 -188 0
-22 -62 -63 -79 -81 -96 -97 -112 -113 -127 -128 -141 -142 -154 -155 -177 -179 -188 0
-22 -62 -63 -80 -81 -96 -98 -112 -113 -127 -128 -141 -142 -154 -155 -177 -179 -188 0
-22 -62 -63 -80 -81 -97 -98 -112 -114 -127 -128 -141 -142 -154 -155 -177 -179 -188 0
-22 -62 -63 -80 -81 -97 -98 -113 -114 -127 -129 -141 -142 -154 -155 -177 -179 -188 0
-22 -62 -63 -80 -81 -97 -98 -113 -114 -128 -129 -141 -143 -154 -155 -177 -179 -188 0
-22 -62 -63 -80 -81 -97 -98 -113 -114 -128 -129 -142 -143 -154 -156 -177 -179 -188 0
-22 -62 -63 -80 -81 -97 -98 -113 -114 -128 -129 -142 -143 -155 -156 -177 -180 -188 0
-21 -61 -62 -79 -80 -96 -97 -112 -113 -127 -128 -141 -142 -154 -155 -178 -179 -189 0
-22 -61 -63 -79 -80 -96 -97 -112 -113 -127 -128 -141 -142 -154 -155 -178 -179 -189 0
-22 -62 -63 -79 -81 -96 -97 -112 -113 -127 -128 -141 -142 -154 -155 -178 -179 -189 0
-22 -62 -63 -80 -81 -96 -98 -112 -113 -127 -128 -141 -142 -154 -155 -178 -179 -189 0
-22 -62 -63 -80 -81 -97 -98 -112 -114 -127 -128 -141 -142 -154 -155 -178 -179 -189 0
-22 -62 -63 -80 -81 -97 -98 -113 -114 -127 -129 -141 -142 -154 -155 -178 -179 -189 0
-22 -62 -63 -80 -81 -97 -98 -113 -114 -128 -129 -141 -143 -154 -155 -178 -179 -189 0
-22 -62 -63 -80 -81 -97 -98 -113 -114 -128 -129 -142 -143 -154 -156 -178 -179 -189 0
-22 -62 -63 -80 -81 -97 -98 -113 -114 -128 -129 -142 -143 -155 -156 -178 -180 -189 0
-22 -62 -63 -80 -81 -97 -98 -113 -114 -128 -129 -142 -143 -155 -156 -179 -180 -190 0
-21 -61 -62 -79 -80 -96 -97 -112 -113 -127 -128 -141 -142 -154 -155 -178 -179 -199 0
-22 -61 -63 -79 -80 -96 -97 -112 -113 -127 -128 -141 -142 -154 -155 -178 -179 -199 0
-22 -62 -63 -79 -81 -96 -97 -112 -113 -127 -128 -141 -142 -154 -155 -178 -179 -199 0
-22 -62 -63 -80 -81 -96 -98 -112 -113 -127 -128 -141 -142 -154 -155 -178 -179 -199 0
-22 -62 -63 -80 -81 -97 -98 -112 -114 -127 -128 -141 -142 -154 -155 -178 -179 -199 0
-22 -62 -63 -80 -81 -97 -98 -113 -114 -127 -129 -141 -142 -154 -155 -178 -179 -199 0
-22 -62 -63 -80 -81 -97 -98 -113 -114 -128 -129 -141 -143 -154 -155 -178 -179 -199 0
-22 -62 -63 -80 -81 -97 -98 -113 -114 -128 -129 -142 -143 -154 -156 -178 -179 -199 0
-22 -62 -63 -80 -81 -97 -98 -113 -114 -128 -129 -142 -143 -155 -156 -178 -180 -199 0
-22 -62 -63 -80 -81 -97 -98 -113 -114 -128 -129 -142 -143 -155 -156 -179 -180 -200 0
-22 -62 -63 -80 -81 -97 -98 -113 -114 -128 -129 -142 -143 -155 -156 -179 -180 -209 0
-21 -61 -62 -79 -80 -96 -97 -112 -113 -127 -128 -141 -142 -154 -155 -189 -190 -199 0
-22 -61 -63 -79 -80 -96 -97 -112 -113 -127 -128 -141 -142 -154 -155 -189 -190 -199 0
-22 -62 -63 -79 -81 -96 -97 -112 -113 -127 -128 -141 -142 -154 -155 -189 -190 -199 0
-22 -62 -63 -80 -81 -96 -98 -112 -113 -127 -128 -141 -142 -154 -155 -189 -190 -199 0
-22 -62 -63 -80 -81 -97 -98 -112 -114 -127 -128 -141 -142 -154 -155 -189 -190 -199 0
-22 -62 -63 -80 -81 -97 -98 -113 -114 -127 -129 -141 -142 -154 -155 -189 -190 -199 0
-22 -62 -63 -80 -81 -97 -98 -113 -114 -128 -129 -141 -143 -154 -155 -189 -190 -199 0
-22 -62 -63 -80 -81 -97 -98 -113 -114 -128 -129 -142 -143 -154 -156 -189 -190 -199 0
-22 -62 -63 -80 -81 -97 -98 -113 -114 -128 -129 -142 -143 -155 -156 -189 -191 -199 0
-22 -62 -63 -80 -81 -97 -98 -113 -114 -128 -129 -142 -143 -155 -156 -190 -191 -200 0
-22 -62 -63 -80 -81 -97 -98 -113 -114 -128 -129 -142 -143 -155 -156 -190 -191 -209 0
-22 -62 -63 -80 -81 -97 -98 -113 -114 -128 -129 -142 -143 -155 -156 -200 -201 -209 0
-20 -60 -61 -78 -79 -95 -96 -111 -112 -126 -127 -140 -141 -166 -167 -177 -178 -188 0
-21 -60 -62 -78 -79 -95 -96 -111 -112 -126 -127 -140 -141 -166 -167 -177 -178 -188 0
-22 -60 -63 -78 -79 -95 -96 -111 -112 -126 -127 -140 -141 -166 -167 -177 -178 -188 0
-21 -61 -62 -78 -80 -95 -96 -111 -112 -126 -127 -140 -141 -166 -167 -177 -178 -188 0
-22 -61 -63 -78 -80 -95 -96 -111 -112 -126 -127 -140 -141 -166 -167 -177 -178 -188 0
-22 -62 -63 -78 -81 -95 -96 -111 -112 -126 -127 -140 -141 -166 -167 -177 -178 -188 0
-21 -61 -62 -79 -80 -95 -97 -111 -112 -126 -127 -140 -141 -166 -167 -177 -178 -188 0
-22 -61 -63 -79 -80 -95 -97 -111 -112 -126 -127 -140 -141 -166 -167 -177 -178 -188 0
-22 -62 -63 -79 -81 -95 -97 -111 -112 -126 -127 -140 -141 -166 -167 -177 -178 -188 0
-22 -62 -63 -80 -81 -95 -98 -111 -112 -126 -127 -140 -141 -166 -167 -177 -178 -188 0
-21 -61 -62 -79 -80 -96 -97 -111 -113 -126 -127 -140 -141 -166 -167 -177 -178 -188 0
-22 -61 -63 -79 -80 -96 -97 -111 -113 -126 -127 -140 -141 -166 -167 -177 -178 -188 0
-22 -62 -63 -79 -81 -96 -97 -111 -113 -126 -127 -140 -141 -166 -167 -177 -178 -188 0
-22 -62 -63 -80 -81 -96 -98 -111 -113 -126 -127 -140 -141 -166 -167 -177 -178 -188 0
-22 -62 -63 -80 -81 -97 -98 -111 -114 -126 -127 -140 -141 -166 -167 -177 -178 -188 0
-21 -61 -62 -79 -80 -96 -97 -112 -113 -126 -128 -140 -141 -166 -167 -177 -178 -188 0
-22 -61 -63 -79 -80 -96 -97 -112 -113 -126 -128 -140 -141 -166 -167 -177 -178 -188 0
-22 -62 -63 -79 -81 -96 -97 -112 -113 -126 -128 -140 -141 -166 -167 -177 -178 -188 0
-22 -62 -63 -80 -81 -96 -98 -112 -113 -126 -128 -140 -141 -166 -167 -177 -178 -188 0
-22 -62 -63 -80 -81 -97 -98 -112 -114 -126 -128 -140 -141 -166 -167 -177 -178 -188 0
-22 -62 -63 -80 -81 -97 -98 -113 -114 -126 -129 -140 -141 -166 -167 -177 -178 -188 0
-21 -61 -62 -79 -80 -96 -97 -112 -113 -127 -128 -140 -142 -166 -167 -177 -178 -188 0
-22 -61 -63 -79 -80 -96 -97 -112 -113 -127 -128 -140 -142 -166 -167 -177 -178 -188 0
-22 -62 -63 -79 -81 -96 -97 -112 -113 -127 -128 -140 -142 -166 -167 -177 -178 -188 0
-22 -62 -63 -80 -81 -96 -98 -112 -113 -127 -128 -140 -142 -166 -167 -177 -178 -188 0
-22 -62 -63 -80 -81 -97 -98 -112 -114 -127 -128 -140 -142 -166 -167 -177 -178 -188 0
-22 -62 -63 -80 -81 -97 -98 -113 -114 -127 -129 -140 -142 -166 -167 -177 -178 -188 0
-22 -62 -63 -80 -81 -97 -98 -113 -114 -128 -129 -140 -143 -166 -167 -177 -178 -188 0
-21 -61 -62 -79 -80 -96 -97 -112 -113 -127 -128 -141 -142 -166 -168 -177 -178 -188 0
-22 -61 -63 -79 -80 -96 -97 -112 -113 -127 -128 -141 -142 -166 -168 -177 -178 -188 0
-22 -62 -63 -79 -81 -96 -97 -112 -113 -127 -128 -141 -142 -166 -168 -177 -178 -188 0
-22 -62 -63 -80 -81 -96 -98 -112 -113 -127 -128 -141 -142 -166 -168 -177 -178 -188 0
-22 -62 -63 -80 -81 -97 -98 -112 -114 -127 -128 -141 -142 -166 -168 -177 -178 -188 0
-22 -62 -63 -80 -81 -97 -98 -113 -114 -127 -129 -141 -142 -166 -168 -177 -178 -188 0
-22 -62 -63 -80 -81 -97 -98 -113 -114 -128 -129 -141 -143 -166 -168 -177 -178 -188 0
-22 -62 -63 -80 -81 -97 -98 -113 -114 -128 -129 -142 -143 -166 -169 -177 -178 -188 0
-21 -61 -62 -79 -80 -96 -97 -112 -113 -127 -128 -141 -142 -167 -168 -177 -179 -188 0
-22 -61 -63 -79 -80 -96 -97 -112 -113 -127 -128 -141 -142 -167 -168 -177 -179 -188 0
-22 -62 -63 -79 -81 -96 -97 -112 -113 -127 -128 -141 -142 -167 -168 -177 -179 -188 0
-22 -62 -63 -80 -81 -96 -98 -112 -113 -127 -128 -141 -142 -167 -168 -177 -179 -188 0
-22 -62 -63 -80 -81 -97 -98 -112 -114 -127 -128 -141 -142 -167 -168 -177 -179 -188 0
-22 -62 -63 -80 -81 -97 -98 -113 -114 -127 -129 -141 -142 -167 -168 -177 -179 -188 0
-22 -62 -63 -80 -81 -97 -98 -113 -114 -128 -129 -141 -143 -167 -168 -177 -179 -188 0
-22 -62 -63 -80 -81 -97 -98 -113 -114 -128 -129 -142 -143 -167 -169 -177 -179 -188 0
-22 -62 -63 -80 -81 -97 -98 -113 -114 -128 -129 -142 -143 -168 -169 -177 -180 -188 0
-21 -61 -62 -79 -80 -96 -97 -112 -113 -127 -128 -141 -142 -167 -168 -178 -179 -189 0
-22 -61 -63 -79 -80 -96 -97 -112 -113 -127 -128 -141 -142 -167 -168 -178 -179 -189 0
-22 -62 -63 -79 -81 -96 -97 -112 -113 -127 -128 -141 -142 -167 -168 -178 -179 -189 0
-22 -62 -63 -80 -81 -96 -98 -112 -113 -127 -128 -141 -142 -167 -168 -178 -179 -189 0
-22 -62 -63 -80 -81 -97 -98 -112 -114 -127 -128 -141 -142 -167 -168 -178 -179 -189 0
-22 -62 -63 -80 -81 -97 -98 -113 -114 -127 -129 -141 -142 -167 -168 -178 -179 -189 0
-22 -62 -63 -80 -81 -97 -98 -113 -114 -128 -129 -141 -143 -167 -168 -178 -179 -189 0
-22 -62 -63 -80 -81 -97 -98 -113 -114 -128 -129 -142 -143 -167 -169 -178 -179 -189 0
-22 -62 -63 -80 -81 -97 -98 -113 -114 -128 -129 -142 -143 -168 -169 -178 -180 -189 0
-22 -62 -63 -80 -81 -97 -98 -113 -114 -128 -129 -142 -143 -168 -169 -179 -180 -190 0
-21 -61 -62 -79 -80 -96 -97 -112 -113 -127 -128 -141 -142 -167 -168 -178 -179 -199 0
-22 -61 -63 -79 -80 -96 -97 -112 -113 -127 -128 -141 -142 -167 -168 -178 -179 -199 0
-22 -62 -63 -79 -81 -96 -97 -112 -113 -127 -128 -141 -142 -167 -168 -178 -179 -199 0
-22 -62 -63 -80 -81 -96 -98 -112 -113 -127 -128 -141 -142 -167 -168 -178 -179 -199 0
-22 -62 -63 -80 -81 -97 -98 -112 -114 -127 -128 -141 -142 -167 -168 -178 -179 -199 0
-22 -62 -63 -80 -81 -97 -98 -113 -114 -127 -129 -141 -142 -167 -168 -178 -179 -199 0
-22 -62 -63 -80 -81 -97 -98 -113 -114 -128 -129 -141 -143 -167 -168 -178 -179 -199 0
-22 -62 -63 -80 -81 -97 -98 -113 -114 -128 -129 -142 -143 -167 -169 -178 -179 -199 0
-22 -62 -63 -80 -81 -97 -98 -113 -114 -128 -129 -142 -143 -168 -169 -178 -180 -199 0
-22 -62 -63 -80 -81 -97 -98 -113 -114 -128 -129 -142 -143 -168 -169 -179 -180 -200 0
-22 -62 -63 -80 -81 -97 -98 -113 -114 -128 -129 -142 -143 -168 -169 -179 -180 -209 0
-21 -61 -62 -79 -80 -96 -97 -112 -113 -127 -128 -141 -142 -167 -168 -189 -190 -199 0
-22 -61 -63 -79 -80 -96 -97 -112 -113 -127 -128 -141 -142 -167 -168 -189 -190 -199 0
-22 -62 -63 -79 -81 -96 -97 -112 -113 -127 -128 -141 -142 -167 -168 -189 -190 -199 0
-22 -62 -63 -80 -81 -96 -98 -112 -113 -127 -128 -141 -142 -167 -168 -189 -190 -199 0
-22 -62 -63 -80 -81 -97 -98 -112 -114 -127 -128 -141 -142 -167 -168 -189 -190 -199 0
-22 -62 -63 -80 -81 -97 -98 -113 -114 -127 -129 -141 -142 -167 -168 -189 -190 -199 0
-22 -62 -63 -80 -81 -97 -98 -113 -114 -128 -129 -141 -143 -167 -168 -189 -190 -199 0
-22 -62 -63 -80 -81 -97 -98 -113 -114 -128 -129 -142 -143 -167 -169 -189 -190 -199 0
-22 -62 -63 -80 -81 -97 -98 -113 -114 -128 -129 -142 -143 -168 -169 -189 -191 -199 0
-22 -62 -63 -80 -81 -97 -98 -113 -114 -128 -129 -142 -143 -168 -169 -190 -191 -200 0
-22 -62 -63 -80 -81 -97 -98 -113 -114 -128 -129 -142 -143 -168 -169 -190 -191 -209 0
-22 -62 -63 -80 -81 -97 -98 -113 -114 -128 -129 -142 -143 -168 -169 -200 -201 -209 0
-21 -61 -62 -79 -80 -96 -97 -112 -113 -127 -128 -141 -142 -179 -180 -189 -190 -199 0
-22 -61 -63 -79 -80 -96 -97 -112 -113 -127 -128 -141 -142 -179 -180 -189 -190 -199 0
-22 -62 -63 -79 -81 -96 -97 -112 -113 -127 -128 -141 -142 -179 -180 -189 -190 -199 0
-22 -62 -63 -80 -81 -96 -98 -112 -113 -127 -128 -141 -142 -179 -180 -189 -190 -199 0
-22 -62 -63 -80 -81 -97 -98 -112 -114 -127 -128 -141 -142 -179 -180 -189 -190 -199 0
-22 -62 -63 -80 -81 -97 -98 -113 -114 -127 -129 -141 -142 -179 -180 -189 -190 -199 0
-22 -62 -63 -80 -81 -97 -98 -113 -114 -128 -129 -141 -143 -179 -180 -189 -190 -199 0
-22 -62 -63 -80 -81 -97 -98 -113 -114 -128 -129 -142 -143 -179 -181 -189 -190 -199 0
-22 -62 -63 -80 -81 -97 -98 -113 -114 -128 -129 -142 -143 -180 -181 -189 -191 -199 0
-22 -62 -63 -80 -81 -97 -98 -113 -114 -128 -129 -142 -143 -180 -181 -190 -191 -200 0
-22 -62 -63 -80 -81 -97 -98 -113 -114 -128 -129 -142 -143 -180 -181 -190 -191 -209 0
-22 -62 -63 -80 -81 -97 -98 -113 -114 -128 -129 -142 -143 -180 -181 -200 -201 -209 0
-22 -62 -63 -80 -81 -97 -98 -113 -114 -128 -129 -142 -143 -191 -192 -200 -201 -209 0
-20 -60 -61 -78 -79 -95 -96 -111 -112 -126 -127 -154 -155 -166 -167 -177 -178 -188 0
-21 -60 -62 -78 -79 -95 -96 -111 -112 -126 -127 -154 -155 -166 -167 -177 -178 -188 0
-22 -60 -63 -78 -79 -95 -96 -111 -112 -126 -127 -154 -155 -166 -167 -177 -178 -188 0
-21 -61 -62 -78 -80 -95 -96 -111 -112 -126 -127 -154 -155 -166 -167 -177 -178 -188 0
-22 -61 -63 -78 -80 -95 -96 -111 -112 -126 -127 -154 -155 -166 -167 -177 -178 -188 0
-22 -62 -63 -78 -81 -95 -96 -111 -112 -126 -127 -154 -155 -166 -167 -177 -178 -188 0
-21 -61 -62 -79 -80 -95 -97 -111 -112 -126 -127 -154 -155 -166 -167 -177 -178 -188 0
-22 -61 -63 -79 -80 -95 -97 -111 -112 -126 -127 -154 -155 -166 -167 -177 -178 -188 0
-22 -62 -63 -79 -81 -95 -97 -111 -112 -126 -127 -154 -155 -166 -167 -177 -178 -188 0
-22 -62 -63 -80 -81 -95 -98 -111 -112 -126 -127 -154 -155 -166 -167 -177 -178 -188 0
-21 -61 -62 -79 -80 -96 -97 -111 -113 -126 -127 -154 -155 -166 -167 -177 -178 -188 0
-22 -61 -63 -79 -80 -96 -97 -111 -113 -126 -127 -154 -155 -166 -167 -177 -178 -188 0
-22 -62 -63 -79 -81 -96 -97 -111 -113 -126 -127 -154 -155 -166 -167 -177 -178 -188 0
-22 -62 -63 -80 -81 -96 -98 -111 -113 -126 -127 -154 -155 -166 -167 -177 -178 -188 0
-22 -62 -63 -80 -81 -97 -98 -111 -114 -126 -127 -154 -155 -166 -167 -177 -178 -188 0
-21 -61 -62 -79 -80 -96 -97 -112 -113 -126 -128 -154 -155 -166 -167 -177 -178 -188 0
-22 -61 -63 -79 -80 -96 -97 -112 -113 -126 -128 -154 -155 -166 -167 -177 -178 -188 0
-22 -62 -63 -79 -81 -96 -97 -112 -113 -126 -128 -154 -155 -166 -167 -177 -178 -188 0
-22 -62 -63 -80 -81 -96 -98 -112 -113 -126 -128 -154 -155 -166 -167 -177 -178 -188 0
-22 -62 -63 -80 -81 -97 -98 -112 -114 -126 -128 -154 -155 -166 -167 -177 -178 -188 0
-22 -62 -63 -80 -81 -97 -98 -113 -114 -126 -129 -154 -155 -166 -167 -177 -178 -188 0
-21 -61 -62 -79 -80 -96 -97 -112 -113 -127 -128 -154 -156 -166 -167 -177 -178 -188 0
-22 -61 -63 -79 -80 -96 -97 -112 -113 -127 -128 -154 -156 -166 -167 -177 -178 -188 0
-22 -62 -63 -79 -81 -96 -97 -112 -113 -127 -128 -154 -156 -166 -167 -177 -178 -188 0
-22 -62 -63 -80 -81 -96 -98 -112 -113 -127 -128 -154 -156 -166 -167 -177 -178 -188 0
-22 -62 -63 -80 -81 -97 -98 -112 -114 -127 -128 -154 -156 -166 -167 -177 -178 -188 0
-22 -62 -63 -80 -81 -97 -98 -113 -114 -127 -129 -154 -156 -166 -167 -177 -178 -188 0
-22 -62 -63 -80 -81 -97 -98 -113 -114 -128 -129 -154 -157 -166 -167 -177 -178 -188 0
-21 -61 -62 -79 -80 -96 -97 -112 -113 -127 -128 -155 -156 -166 -168 -177 -178 -188 0
-22 -61 -63 -79 -80 -96 -97 -112 -113 -127 -128 -155 -156 -166 -168 -177 -178 -188 0
-22 -62 -63 -79 -81 -96 -97 -112 -113 -127 -128 -155 -156 -166 -168 -177 -178 -188 0
-22 -62 -63 -80 -81 -96 -98 -112 -113 -127 -128 -155 -156 -166 -168 -177 -178 -188 0
-22 -62 -63 -80 -81 -97 -98 -112 -114 -127 -128 -155 -156 -166 -168 -177 -178 -188 0
-22 -62 -63 -80 -81 -97 -98 -113 -114 -127 -129 -155 -156 -166 -168 -177 -178 -188 0
-22 -62 -63 -80 -81 -97 -98 -113 -114 -128 -129 -155 -157 -166 -168 -177 -178 -188 0
-22 -62 -63 -80 -81 -97 -98 -113 -114 -128 -129 -156 -157 -166 -169 -177 -178 -188 0
-21 -61 -62 -79 -80 -96 -97 -112 -113 -127 -128 -155 -156 -167 -168 -177 -179 -188 0
-22 -61 -63 -79 -80 -96 -97 -112 -113 -127 -128 -155 -156 -167 -168 -177 -179 -188 0
-22 -62 -63 -79 -81 -96 -97 -112 -113 -127 -128 -155 -156 -167 -168 -177 -179 -188 0
-22 -62 -63 -80 -81 -96 -98 -112 -113 -127 -128 -155 -156 -167 -168 -177 -179 -188 0
-22 -62 -63 -80 -81 -97 -98 -112 -114 -127 -128 -155 -156 -167 -168 -177 -179 -188 0
-22 -62 -63 -80 -81 -97 -98 -113 -114 -127 -129 -155 -156 -167 -168 -177 -179 -188 0
-22 -62 -63 -80 -81 -97 -98 -113 -114 -128 -129 -155 -157 -167 -168 -177 -179 -188 0
-22 -62 -63 -80 -81 -97 -98 -113 -114 -128 -129 -156 -157 -167 -169 -177 -179 -188 0
-22 -62 -63 -80 -81 -97 -98 -113 -114 -128 -129 -156 -157 -168 -169 -177 -180 -188 0
-21 -61 -62 -79 -80 -96 -97 -112 -113 -127 -128 -155 -156 -167 -168 -178 -179 -189 0
-22 -61 -63 -79 -80 -96 -97 -112 -113 -127 -128 -155 -156 -167 -168 -178 -179 -189 0
-22 -62 -63 -79 -81 -96 -97 -112 -113 -127 -128 -155 -156 -167 -168 -178 -179 -189 0
-22 -62 -63 -80 -81 -96 -98 -112 -113 -127 -128 -155 -156 -167 -168 -178 -179 -189 0
-22 -62 -63 -80 -81 -97 -98 -112 -114 -127 -128 -155 -156 -167 -168 -178 -179 -189 0
-22 -62 -63 -80 -81 -97 -98 -113 -114 -127 -129 -155 -156 -167 -168 -178 -179 -189 0
-22 -62 -63 -80 -81 -97 -98 -113 -114 -128 -129 -155 -157 -167 -168 -178 -179 -189 0
-22 -62 -63 -80 -81 -97 -98 -113 -114 -128 -129 -156 -157 -167 -169 -178 -179 -189 0
-22 -62 -63 -80 -81 -97 -98 -113 -114 -128 -129 -156 -157 -168 -169 -178 -180 -189 0
-22 -62 -63 -80 -81 -97 -98 -113 -114 -128 -129 -156 -157 -168 -169 -179 -180 -190 0
-21 -61 -62 -79 -80 -96 -97 -112 -113 -127 -128 -155 -156 -167 -168 -178 -179 -199 0
-22 -61 -63 -79 -80 -96 -97 -112 -113 -127 -128 -155 -156 -167 -168 -178 -179 -199 0
-22 -62 -63 -79 -81 -96 -97 -112 -113 -127 -128 -155 -156 -167 -168 -178 -179 -199 0
-22 -62 -63 -80 -81 -96 -98 -112 -113 -127 -128 -155 -156 -167 -168 -178 -179 -199 0
-22 -62 -63 -80 -81 -97 -98 -112 -114 -127 -128 -155 -156 -167 -168 -178 -179 -199 0
-22 -62 -63 -80 -81 -97 -98 -113 -114 -127 -129 -155 -156 -167 -168 -178 -179 -199 0
-22 -62 -63 -80 -81 -97 -98 -113 -114 -128 -129 -155 -157 -167 -168 -178 -179 -199 0
-22 -62 -63 -80 -81 -97 -98 -113 -114 -128 -129 -156 -157 -167 -169 -178 -179 -199 0
-22 -62 -63 -80 -81 -97 -98 -113 -114 -128 -129 -156 -157 -168 -169 -178 -180 -199 0
-22 -62 -63 -80 -81 -97 -98 -113 -114 -128 -129 -156 -157 -168 -169 -179 -180 -200 0
-22 -62 -63 -80 -81 -97 -98 -113 -114 -128 -129 -156 -157 -168 -169 -179 -180 -209 0
-21 -61 -62 -79 -80 -96 -97 -112 -113 -127 -128 -155 -156 -167 -168 -189 -190 -199 0
-22 -61 -63 -79 -80 -96 -97 -112 -113 -127 -128 -155 -156 -167 -168 -189 -190 -199 0
-22 -62 -63 -79 -81 -96 -97 -112 -113 -127 -128 -155 -156 -167 -168 -189 -190 -199 0
-22 -62 -63 -80 -81 -96 -98 -112 -113 -127 -128 -155 -156 -167 -168 -189 -190 -199 0
-22 -62 -63 -80 -81 -97 -98 -112 -114 -127 -128 -155 -156 -167 -168 -189 -190 -199 0
-22 -62 -63 -80 -81 -97 -98 -113 -114 -127 -129 -155 -156 -167 -168 -189 -190 -199 0
-22 -62 -63 -80 -81 -97 -98 -113 -114 -128 -129 -155 -157 -167 -168 -189 -190 -199 0
-22 -62 -63 -80 -81 -97 -98 -113 -114 -128 -129 -156 -157 -167 -169 -189 -190 -199 0
-22 -62 -63 -80 -81 -97 -98 -113 -114 -128 -129 -156 -157 -168 -169 -189 -191 -199 0
-22 -62 -63 -80 -81 -97 -98 -113 -114 -128 -129 -156 -157 -168 -169 -190 -191 -200 0
-22 -62 -63 -80 -81 -97 -98 -113 -114 -128 -129 -156 -157 -168 -169 -190 -191 -209 0
-22 -62 -63 -80 -81 -97 -98 -113 -114 -128 -129 -156 -157 -168 -169 -200 -201 -209 0
-21 -61 -62 -79 -80 -96 -97 -112 -113 -127 -128 -155 -156 -179 -180 -189 -190 -199 0
-22 -61 -63 -79 -80 -96 -97 -112 -113 -127 -128 -155 -156 -179 -180 -189 -190 -199 0
-22 -62 -63 -79 -81 -96 -97 -112 -113 -127 -128 -155 -156 -179 -180 -189 -190 -199 0
-22 -62 -63 -80 -81 -96 -98 -112 -113 -127 -128 -155 -156 -179 -180 -189 -190 -199 0
-22 -62 -63 -80 -81 -97 -98 -112 -114 -127 -128 -155 -156 -179 -180 -189 -190 -199 0
-22 -62 -63 -80 -81 -97 -98 -113 -114 -127 -129 -155 -156 -179 -180 -189 -190 -199 0
-22 -62 -63 -80 -81 -97 -98 -113 -114 -128 -129 -155 -157 -179 -180 -189 -190 -199 0
-22 -62 -63 -80 -81 -97 -98 -113 -114 -128 -129 -156 -157 -179 -181 -189 -190 -199 0
-22 -62 -63 -80 -81 -97 -98 -113 -114 -128 -129 -156 -157 -180 -181 -189 -191 -199 0
-22 -62 -63 -80 -81 -97 -98 -113 -114 -128 -129 -156 -157 -180 -181 -190 -191 -200 0
-22 -62 -63 -80 -81 -97 -98 -113 -114 -128 -129 -156 -157 -180 -181 -190 -191 -209 0
-22 -62 -63 -80 -81 -97 -98 -113 -114 -128 -129 -156 -157 -180 -181 -200 -201 -209 0
-22 -62 -63 -80 -81 -97 -98 -113 -114 -128 -129 -156 -157 -191 -192 -200 -201 -209 0
-21 -61 -62 -79 -80 -96 -97 -112 -113 -127 -128 -168 -169 -179 -180 -189 -190 -199 0
-22 -61 -63 -79 -80 -96 -97 -112 -113 -127 -128 -168 -169 -179 -180 -189 -190 -199 0
-22 -62 -63 -79 -81 -96 -97 -112 -113 -127 -128 -168 -169 -179 -180 -189 -190 -199 0
-22 -62 -63 -80 -81 -96 -98 -112 -113 -127 -128 -168 -169 -179 -180 -189 -190 -199 0
-22 -62 -63 -80 -81 -97 -98 -112 -114 -127 -128 -168 -169 -179 -180 -189 -190 -199 0
-22 -62 -63 -80 -81 -97 -98 -113 -114 -127 -129 -168 -169 -179 -180 -189 -190 -199 0
-22 -62 -63 -80 -81 -97 -98 -113 -114 -128 -129 -168 -170 -179 -180 -189 -190 -199 0
-22 -62 -63 -80 -81 -97 -98 -113 -114 -128 -129 -169 -170 -179 -181 -189 -190 -199 0
-22 -62 -63 -80 -81 -97 -98 -113 -114 -128 -129 -169 -170 -180 -181 -189 -191 -199 0
-22 -62 -63 -80 -81 -97 -98 -113 -114 -128 -129 -169 -170 -180 -181 -190 -191 -200 0
-22 -62 -63 -80 -81 -97 -98 -113 -114 -128 -129 -169 -170 -180 -181 -190 -191 -209 0
-22 -62 -63 -80 -81 -97 -98 -113 -114 -128 -129 -169 -170 -180 -181 -200 -201 -209 0
-22 -62 -63 -80 -81 -97 -98 -113 -114 -128 -129 -169 -170 -191 -192 -200 -201 -209 0
-22 -62 -63 -80 -81 -97 -98 -113 -114 -128 -129 -181 -182 -191 -192 -200 -201 -209 0
-20 -60 -61 -78 -79 -95 -96 -111 -112 -141 -142 -154 -155 -166 -167 -177 -178 -188 0
-21 -60 -62 -78 -79 -95 -96 -111 -112 -141 -142 -154 -155 -166 -167 -177 -178 -188 0
-22 -60 -63 -78 -79 -95 -96 -111 -112 -141 -142 -154 -155 -166 -167 -177 -178 -188 0
-21 -61 -62 -78 -80 -95 -96 -111 -112 -141 -142 -154 -155 -166 -167 -177 -178 -188 0
-22 -61 -63 -78 -80 -95 -96 -111 -112 -141 -142 -154 -155 -166 -167 -177 -178 -188 0
-22 -62 -63 -78 -81 -95 -96 -111 -112 -141 -142 -154 -155 -166 -167 -177 -178 -188 0
-21 -61 -62 -79 -80 -95 -97 -111 -112 -141 -142 -154 -155 -166 -167 -177 -178 -188 0
-22 -61 -63 -79 -80 -95 -97 -111 -112 -141 -142 -154 -155 -166 -167 -177 -178 -188 0
-22 -62 -63 -79 -81 -95 -97 -111 -112 -141 -142 -154 -155 -166 -167 -177 -178 -188 0
-22 -62 -63 -80 -81 -95 -98 -111 -112 -141 -142 -154 -155 -166 -167 -177 -178 -188 0
-21 -61 -62 -79 -80 -96 -97 -111 -113 -141 -142 -154 -155 -166 -167 -177 -178 -188 0
-22 -61 -63 -79 -80 -96 -97 -111 -113 -141 -142 -154 -155 -166 -167 -177 -178 -188 0
-22 -62 -63 -79 -81 -96 -97 -111 -113 -141 -142 -154 -155 -166 -167 -177 -178 -188 0
-22 -62 -63 -80 -81 -96 -98 -111 -113 -141 -142 -154 -155 -166 -167 -177 -178 -188 0
-22 -62 -63 -80 -81 -97 -98 -111 -114 -141 -142 -154 -155 -166 -167 -177 -178 -188 0
-21 -61 -62 -79 -80 -96 -97 -112 -113 -141 -143 -154 -155 -166 -167 -177 -178 -188 0
-22 -61 -63 -79 -80 -96 -97 -112 -113 -141 -143 -154 -155 -166 -167 -177 -178 -188 0
-22 -62 -63 -79 -81 -96 -97 -112 -113 -141 -143 -154 -155 -166 -167 -177 -178 -188 0
-22 -62 -63 -80 -81 -96 -98 -112 -113 -141 -143 -154 -155 -166 -167 -177 -178 -188 0
-22 -62 -63 -80 -81 -97 -98 -112 -114 -141 -143 -154 -155 -166 -167 -177 -178 -188 0
-22 -62 -63 -80 -81 -97 -98 -113 -114 -141 -144 -154 -155 -166 -167 -177 -178 -188 0
-21 -61 -62 -79 -80 -96 -97 -112 -113 -142 -143 -154 -156 -166 -167 -177 -178 -188 0
-22 -61 -63 -79 -80 -96 -97 -112 -113 -142 -143 -154 -156 -166 -167 -177 -178 -188 0
-22 -62 -63 -79 -81 -96 -97 -112 -113 -142 -143 -154 -156 -166 -167 -177 -178 -188 0
-22 -62 -63 -80 -81 -96 -98 -112 -113 -142 -143 -154 -156 -166 -167 -177 -178 -188 0
-22 -62 -63 -80 -81 -97 -98 -112 -114 -142 -143 -154 -156 -166 -167 -177 -178 -188 0
-22 -62 -63 -80 -81 -97 -98 -113 -114 -142 -144 -154 -156 -166 -167 -177 -178 -188 0
-22 -62 -63 -80 -81 -97 -98 -113 -114 -143 -144 -154 -157 -166 -167 -177 -178 -188 0
-21 -61 -62 -79 -80 -96 -97 -112 -113 -142 -143 -155 -156 -166 -168 -177 -178 -188 0
-22 -61 -63 -79 -80 -96 -97 -112 -113 -142 -143 -155 -156 -166 -168 -177 -178 -188 0
-22 -62 -63 -79 -81 -96 -97 -112 -113 -142 -143 -155 -156 -166 -168 -177 -178 -188 0
-22 -62 -63 -80 -81 -96 -98 -112 -113 -142 -143 -155 -156 -166 -168 -177 -178 -188 0
-22 -62 -63 -80 -81 -97 -98 -112 -114 -142 -143 -155 -156 -166 -168 -177 -178 -188 0
-22 -62 -63 -80 -81 -97 -98 -113 -114 -142 -144 -155 -156 -166 -168 -177 -178 -188 0
-22 -62 -63 -80 -81 -97 -98 -113 -114 -143 -144 -155 -157 -166 -168 -177 -178 -188 0
-22 -62 -63 -80 -81 -97 -98 -113 -114 -143 -144 -156 -157 -166 -169 -177 -178 -188 0
-21 -61 -62 -79 -80 -96 -97 -112 -113 -142 -143 -155 -156 -167 -168 -177 -179 -188 0
-22 -61 -63 -79 -80 -96 -97 -112 -113 -142 -143 -155 -156 -167 -168 -177 -179 -188 0
-22 -62 -63 -79 -81 -96 -97 -112 -113 -142 -143 -155 -156 -167 -168 -177 -179 -188 0
-22 -62 -63 -80 -81 -96 -98 -112 -113 -142 -143 -155 -156 -167 -168 -177 -179 -188 0
-22 -62 -63 -80 -81 -97 -98 -112 -114 -142 -143 -155 -156 -167 -168 -177 -179 -188 0
-22 -62 -63 -80 -81 -97 -98 -113 -114 -142 -144 -155 -156 -167 -168 -177 -179 -188 0
-22 -62 -63 -80 -81 -97 -98 -113 -114 -143 -144 -155 -157 -167 -168 -177 -179 -188 0
-22 -62 -63 -80 -81 -97 -98 -113 -114 -143 -144 -156 -157 -167 -169 -177 -179 -188 0
-22 -62 -63 -80 -81 -97 -98 -113 -114 -143 -144 -156 -157 -168 -169 -177 -180 -188 0
-21 -61 -62 -79 -80 -96 -97 -112 -113 -142 -143 -155 -156 -167 -168 -178 -179 -189 0
-22 -61 -63 -79 -80 -96 -97 -112 -113 -142 -143 -155 -156 -167 -168 -178 -179 -189 0
-22 -62 -63 -79 -81 -96 -97 -112 -113 -142 -143 -155 -156 -167 -168 -178 -179 -189 0
-22 -62 -63 -80 -81 -96 -98 -112 -113 -142 -143 -155 -156 -167 -168 -178 -179 -189 0
-22 -62 -63 -80 -81 -97 -98 -112 -114 -142 -143 -155 -156 -167 -168 -178 -179 -189 0
-22 -62 -63 -80 -81 -97 -98 -113 -114 -142 -144 -155 -156 -167 -168 -178 -179 -189 0
-22 -62 -63 -80 -81 -97 -98 -113 -114 -143 -144 -155 -157 -167 -168 -178 -179 -189 0
-22 -62 -63 -80 -81 -97 -98 -113 -114 -143 -144 -156 -157 -167 -169 -178 -179 -189 0
-22 -62 -63 -80 -81 -97 -98 -113 -114 -143 -144 -156 -157 -168 -169 -178 -180 -189 0
-22 -62 -63 -80 -81 -97 -98 -113 -114 -143 -144 -156 -157 -168 -169 -179 -180 -190 0
-21 -61 -62 -79 -80 -96 -97 -112 -113 -142 -143 -155 -156 -167 -168 -178 -179 -199 0
-22 -61 -63 -79 -80 -96 -97 -112 -113 -142 -143 -155 -156 -167 -168 -178 -179 -199 0
-22 -62 -63 -79 -81 -96 -97 -112 -113 -142 -143 -155 -156 -167 -168 -178 -179 -199 0
-22 -62 -63 -80 -81 -96 -98 -112 -113 -142 -143 -155 -156 -167 -168 -178 -179 -199 0
-22 -62 -63 -80 -81 -97 -98 -112 -114 -142 -143 -155 -156 -167 -168 -178 -179 -199 0
-22 -62 -63 -80 -81 -97 -98 -113 -114 -142 -144 -155 -156 -167 -168 -178 -179 -199 0
-22 -62 -63 -80 -81 -97 -98 -113 -114 -143 -144 -155 -157 -167 -168 -178 -179 -199 0
-22 -62 -63 -80 -81 -97 -98 -113 -114 -143 -144 -156 -157 -167 -169 -178 -179 -199 0
-22 -62 -63 -80 -81 -97 -98 -113 -114 -143 -144 -156 -157 -168 -169 -178 -180 -199 0
-22 -62 -63 -80 -81 -97 -98 -113 -114 -143 -144 -156 -157 -168 -169 -179 -180 -200 0
-22 -62 -63 -80 -81 -97 -98 -113 -114 -143 -144 -156 -157 -168 -169 -179 -180 -209 0
-21 -61 -62 -79 -80 -96 -97 -112 -113 -142 -143 -155 -156 -167 -168 -189 -190 -199 0
-22 -61 -63 -79 -80 -96 -97 -112 -113 -142 -143 -155 -156 -167 -168 -189 -190 -199 0
-22 -62 -63 -79 -81 -96 -97 -112 -113 -142 -143 -155 -156 -167 -168 -189 -190 -199 0
-22 -62 -63 -80 -81 -96 -98 -112 -113 -142 -143 -155 -156 -167 -168 -189 -190 -199 0
-22 -62 -63 -80 -81 -97 -98 -112 -114 -142 -143 -155 -156 -167 -168 -189 -190 -199 0
-22 -62 -63 -80 -81 -97 -98 -113 -114 -142 -144 -155 -156 -167 -168 -189 -190 -199 0
-22 -62 -63 -80 -81 -97 -98 -113 -114 -143 -144 -155 -157 -167 -168 -189 -190 -199 0
-22 -62 -63 -80 -81 -97 -98 -113 -114 -143 -144 -156 -157 -167 -169 -189 -190 -199 0
-22 -62 -63 -80 -81 -97 -98 -113 -114 -143 -144 -156 -157 -168 -169 -189 -191 -199 0
-22 -62 -63 -80 -81 -97 -98 -113 -114 -143 -144 -156 -157 -168 -169 -190 -191 -200 0
-22 -62 -63 -80 -81 -97 -98 -113 -114 -143 -144 -156 -157 -168 -169 -190 -191 -209 0
-22 -62 -63 -80 -81 -97 -98 -113 -114 -143 -144 -156 -157 -168 -169 -200 -201 -209 0
-21 -61 -62 -79 -80 -96 -97 -112 -113 -142 -143 -155 -156 -179 -180 -189 -190 -199 0
-22 -61 -63 -79 -80 -96 -97 -112 -113 -142 -143 -155 -156 -179 -180 -189 -190 -199 0
-22 -62 -63 -79 -81 -96 -97 -112 -113 -142 -143 -155 -156 -179 -180 -189 -190 -199 0
-22 -62 -63 -80 -81 -96 -98 -112 -113 -142 -143 -155 -156 -179 -180 -189 -190 -199 0
-22 -62 -63 -80 -81 -97 -98 -112 -114 -142 -143 -155 -156 -179 -180 -189 -190 -199 0
-22 -62 -63 -80 -81 -97 -98 -113 -114 -142 -144 -155 -156 -179 -180 -189 -190 -199 0
-22 -62 -63 -80 -81 -97 -98 -113 -114 -143 -144 -155 -157 -179 -180 -189 -190 -199 0
-22 -62 -63 -80 -81 -97 -98 -113 -114 -143 -144 -156 -157 -179 -181 -189 -190 -199 0
-22 -62 -63 -80 -81 -97 -98 -113 -114 -143 -144 -156 -157 -180 -181 -189 -191 -199 0
-22 -62 -63 -80 -81 -97 -98 -113 -114 -143 -144 -156 -157 -180 -181 -190 -191 -200 0
-22 -62 -63 -80 -81 -97 -98 -113 -114 -143 -144 -156 -157 -180 -181 -190 -191 -209 0
-22 -62 -63 -80 -81 -97 -98 -113 -114 -143 -144 -156 -157 -180 -181 -200 -201 -209 0
-22 -62 -63 -80 -81 -97 -98 -113 -114 -143 -144 -156 -157 -191 -192 -200 -201 -209 0
-21 -61 -62 -79 -80 -96 -97 -112 -113 -142 -143 -168 -169 -179 -180 -189 -190 -199 0
-22 -61 -63 -79 -80 -96 -97 -112 -113 -142 -143 -168 -169 -179 -180 -189 -190 -199 0
-22 -62 -63 -79 -81 -96 -97 -112 -113 -142 -143 -168 -169 -179 -180 -189 -190 -199 0
-22 -62 -63 -80 -81 -96 -98 -112 -113 -142 -143 -168 -169 -179 -180 -189 -190 -199 0
-22 -62 -63 -80 -81 -97 -98 -112 -114 -142 -143 -168 -169 -179 -180 -189 -190 -199 0
-22 -62 -63 -80 -81 -97 -98 -113 -114 -142 -144 -168 -169 -179 -180 -189 -190 -199 0
-22 -62 -63 -80 -81 -97 -98 -113 -114 -143 -144 -168 -170 -179 -180 -189 -190 -199 0
-22 -62 -63 -80 -81 -97 -98 -113 -114 -143 -144 -169 -170 -179 -181 -189 -190 -199 0
-22 -62 -63 -80 -81 -97 -98 -113 -114 -143 -144 -169 -170 -180 -181 -189 -191 -199 0
-22 -62 -63 -80 -81 -97 -98 -113 -114 -143 -144 -169 -170 -180 -181 -190 -191 -200 0
-22 -62 -63 -80 -81 -97 -98 -113 -114 -143 -144 -169 -170 -180 -181 -190 -191 -209 0
-22 -62 -63 -80 -81 -97 -98 -113 -114 -143 -144 -169 -170 -180 -181 -200 -201 -209 0
-22 -62 -63 -80 -81 -97 -98 -113 -114 -143 -144 -169 -170 -191 -192 -200 -201 -209 0
-22 -62 -63 -80 -81 -97 -98 -113 -114 -143 -144 -181 -182 -191 -192 -200 -201 -209 0
-21 -61 -62 -79 -80 -96 -97 -112 -113 -156 -157 -168 -169 -179 -180 -189 -190 -199 0
-22 -61 -63 -79 -80 -96 -97 -112 -113 -156 -157 -168 -169 -179 -180 -189 -190 -199 0
-22 -62 -63 -79 -81 -96 -97 -112 -113 -156 -157 -168 -169 -179 -180 -189 -190 -199 0
-22 -62 -63 -80 -81 -96 -98 -112 -113 -156 -157 -168 -169 -179 -180 -189 -190 -199 0
-22 -62 -63 -80 -81 -97 -98 -112 -114 -156 -157 -168 -169 -179 -180 -189 -190 -199 0
-22 -62 -63 -80 -81 -97 -98 -113 -114 -156 -158 -168 -169 -179 -180 -189 -190 -199 0
-22 -62 -63 -80 -81 -97 -98 -113 -114 -157 -158 -168 -170 -179 -180 -189 -190 -199 0
-22 -62 -63 -80 -81 -97 -98 -113 -114 -157 -158 -169 -170 -179 -181 -189 -190 -199 0
-22 -62 -63 -80 -81 -97 -98 -113 -114 -157 -158 -169 -170 -180 -181 -189 -191 -199 0
-22 -62 -63 -80 -81 -97 -98 -113 -114 -157 -158 -169 -170 -180 -181 -190 -191 -200 0
-22 -62 -63 -80 -81 -97 -98 -113 -114 -157 -158 -169 -170 -180 -181 -190 -191 -209 0
-22 -62 -63 -80 -81 -97 -98 -113 -114 -157 -158 -169 -170 -180 -181 -200 -201 -209 0
-22 -62 -63 -80 -81 -97 -98 -113 -114 -157 -158 -169 -170 -191 -192 -200 -201 -209 0
-22 -62 -63 -80 -81 -97 -98 -113 -114 -157 -158 -181 -182 -191 -192 -200 -201 -209 0
-22 -62 -63 -80 -81 -97 -98 -113 -114 -170 -171 -181 -182 -191 -192 -200 -201 -209 0
-20 -60 -61 -78 -79 -95 -96 -127 -128 -141 -142 -154 -155 -166 -167 -177 -178 -188 0
-21 -60 -62 -78 -79 -95 -96 -127 -128 -141 -142 -154 -155 -166 -167 -177 -178 -188 0
-22 -60 -63 -78 -79 -95 -96 -127 -128 -141 -142 -154 -155 -166 -167 -177 -178 -188 0
-21 -61 -62 -78 -80 -95 -96 -127 -128 -141 -142 -154 -155 -166 -167 -177 -178 -188 0
-22 -61 -63 -78 -80 -95 -96 -127 -128 -141 -142 -154 -155 -166 -167 -177 -178 -188 0
-22 -62 -63 -78 -81 -95 -96 -127 -128 -141 -142 -154 -155 -166 -167 -177 -178 -188 0
-21 -61 -62 -79 -80 -95 -97 -127 -128 -141 -142 -154 -155 -166 -167 -177 -178 -188 0
-22 -61 -63 -79 -80 -95 -97 -127 -128 -141 -142 -154 -155 -166 -167 -177 -178 -188 0
-22 -62 -63 -79 -81 -95 -97 -127 -128 -141 -142 -154 -155 -166 -167 -177 -178 -188 0
-22 -62 -63 -80 -81 -95 -98 -127 -128 -141 -142 -154 -155 -166 -167 -177 -178 -188 0
-21 -61 -62 -79 -80 -96 -97 -127 -129 -141 -142 -154 -155 -166 -167 -177 -178 -188 0
-22 -61 -63 -79 -80 -96 -97 -127 -129 -141 -142 -154 -155 -166 -167 -177 -178 -188 0
-22 -62 -63 -79 -81 -96 -97 -127 -129 -141 -142 -154 -155 -166 -167 -177 -178 -188 0
-22 -62 -63 -80 -81 -96 -98 -127 -129 -141 -142 -154 -155 -166 -167 -177 -178 -188 0
-22 -62 -63 -80 -81 -97 -98 -127 -130 -141 -142 -154 -155 -166 -167 -177 -178 -188 0
-21 -61 -62 -79 -80 -96 -97 -128 -129 -141 -143 -154 -155 -166 -167 -177 -178 -188 0
-22 -61 -63 -79 -80 -96 -97 -128 -129 -141 -143 -154 -155 -166 -167 -177 -178 -188 0
-22 -62 -63 -79 -81 -96 -97 -128 -129 -141 -143 -154 -155 -166 -167 -177 -178 -188 0
-22 -62 -63 -80 -81 -96 -98 -128 -129 -141 -143 -154 -155 -166 -167 -177 -178 -188 0
-22 -62 -63 -80 -81 -97 -98 -128 -130 -141 -143 -154 -155 -166 -167 -177 -178 -188 0
-22 -62 -63 -80 -81 -97 -98 -129 -130 -141 -144 -154 -155 -166 -167 -177 -178 -188 0
-21 -61 -62 -79 -80 -96 -97 -128 -129 -142 -143 -154 -156 -166 -167 -177 -178 -188 0
-22 -61 -63 -79 -80 -96 -97 -128 -129 -142 -143 -154 -156 -166 -167 -177 -178 -188 0
-22 -62 -63 -79 -81 -96 -97 -128 -129 -142 -143 -154 -156 -166 -167 -177 -178 -188 0
-22 -62 -63 -80 -81 -96 -98 -128 -129 -142 -143 -154 -156 -166 -167 -177 -178 -188 0
-22 -62 -63 -80 -81 -97 -98 -128 -130 -142 -143 -154 -156 -166 -167 -177 -178 -188 0
-22 -62 -63 -80 -81 -97 -98 -129 -130 -142 -144 -154 -156 -166 -167 -177 -178 -188 0
-22 -62 -63 -80 -81 -97 -98 -129 -130 -143 -144 -154 -157 -166 -167 -177 -178 -188 0
-21 -61 -62 -79 -80 -96 -97 -128 -129 -142 -143 -155 -156 -166 -168 -177 -178 -188 0
-22 -61 -63 -79 -80 -96 -97 -128 -129 -142 -143 -155 -156 -166 -168 -177 -178 -188 0
-22 -62 -63 -79 -81 -96 -97 -128 -129 -142 -143 -155 -156 -166 -168 -177 -178 -188 0
-22 -62 -63 -80 -81 -96 -98 -128 -129 -142 -143 -155 -156 -166 -168 -177 -178 -188 0
-22 -62 -63 -80 -81 -97 -98 -128 -130 -142 -143 -155 -156 -166 -168 -177 -178 -188 0
-22 -62 -63 -80 -81 -97 -98 -129 -130 -142 -144 -155 -156 -166 -168 -177 -178 -188 0
-22 -62 -63 -80 -81 -97 -98 -129 -130 -143 -144 -155 -157 -166 -168 -177 -178 -188 0
-22 -62 -63 -80 -81 -97 -98 -129 -130 -143 -144 -156 -157 -166 -169 -177 -178 -188 0
-21 -61 -62 -79 -80 -96 -97 -128 -129 -142 -143 -155 -156 -167 -168 -177 -179 -188 0
-22 -61 -63 -79 -80 -96 -97 -128 -129 -142 -143 -155 -156 -167 -168 -177 -179 -188 0
-22 -62 -63 -79 -81 -96 -97 -128 -129 -142 -143 -155 -156 -167 -168 -177 -179 -188 0
-22 -62 -63 -80 -81 -96 -98 -128 -129 -142 -143 -155 -156 -167 -168 -177 -179 -188 0
-22 -62 -63 -80 -81 -97 -98 -128 -130 -142 -143 -155 -156 -167 -168 -177 -179 -188 0
-22 -62 -63 -80 -81 -97 -98 -129 -130 -142 -144 -155 -156 -167 -168 -177 -179 -188 0
-22 -62 -63 -80 -81 -97 -98 -129 -130 -143 -144 -155 -157 -167 -168 -177 -179 -188 0
-22 -62 -63 -80 -81 -97 -98 -129 -130 -143 -144 -156 -157 -167 -169 -177 -179 -188 0
-22 -62 -63 -80 -81 -97 -98 -129 -130 -143 -144 -156 -157 -168 -169 -177 -180 -188 0
-21 -61 -62 -79 -80 -96 -97 -128 -129 -142 -143 -155 -156 -167 -168 -178 -179 -189 0
-22 -61 -63 -79 -80 -96 -97 -128 -129 -142 -143 -155 -156 -167 -168 -178 -179 -189 0
-22 -62 -63 -79 -81 -96 -97 -128 -129 -142 -143 -155 -156 -167 -168 -178 -179 -189 0
-22 -62 -63 -80 -81 -96 -98 -128 -129 -142 -143 -155 -156 -167 -168 -178 -179 -189 0
-22 -62 -63 -80 -81 -97 -98 -128 -130 -142 -143 -155 -156 -167 -168 -178 -179 -189 0
-22 -62 -63 -80 -81 -97 -98 -129 -130 -142 -144 -155 -156 -167 -168 -178 -179 -189 0
-22 -62 -63 -80 -81 -97 -98 -129 -130 -143 -144 -155 -157 -167 -168 -178 -179 -189 0
-22 -62 -63 -80 -81 -97 -98 -129 -130 -143 -144 -156 -157 -167 -169 -178 -179 -189 0
-22 -62 -63 -80 -81 -97 -98 -129 -130 -143 -144 -156 -157 -168 -169 -178 -180 -189 0
-22 -62 -63 -80 -81 -97 -98 -129 -130 -143 -144 -156 -157 -168 -169 -179 -180 -190 0
-21 -61 -62 -79 -80 -96 -97 -128 -129 -142 -143 -155 -156 -167 -168 -178 -179 -199 0
-22 -61 -63 -79 -80 -96 -97 -128 -129 -142 -143 -155 -156 -167 -168 -178 -179 -199 0
-22 -62 -63 -79 -81 -96 -97 -128 -129 -142 -143 -155 -156 -167 -168 -178 -179 -199 0
-22 -62 -63 -80 -81 -96 -98 -128 -129 -142 -143 -155 -156 -167 -168 -178 -179 -199 0
-22 -62 -63 -80 -81 -97 -98 -128 -130 -142 -143 -155 -156 -167 -168 -178 -179 -199 0
-22 -62 -63 -80 -81 -97 -98 -129 -130 -142 -144 -155 -156 -167 -168 -178 -179 -199 0
-22 -62 -63 -80 -81 -97 -98 -129 -130 -143 -144 -155 -157 -167 -168 -178 -179 -199 0
-22 -62 -63 -80 -81 -97 -98 -129 -130 -143 -144 -156 -157 -167 -169 -178 -179 -199 0
-22 -62 -63 -80 -81 -97 -98 -129 -130 -143 -144 -156 -157 -168 -169 -178 -180 -199 0
-22 -62 -63 -80 -81 -97 -98 -129 -130 -143 -144 -156 -157 -168 -169 -179 -180 -200 0
-22 -62 -63 -80 -81 -97 -98 -129 -130 -143 -144 -156 -157 -168 -169 -179 -180 -209 0
-21 -61 -62 -79 -80 -96 -97 -128 -129 -142 -143 -155 -156 -167 -168 -189 -190 -199 0
-22 -61 -63 -79 -80 -96 -97 -128 -129 -142 -143 -155 -156 -167 -168 -189 -190 -199 0
-22 -62 -63 -79 -81 -96 -97 -128 -129 -142 -143 -155 -156 -167 -168 -189 -190 -199 0
-22 -62 -63 -80 -81 -96 -98 -128 -129 -142 -143 -155 -156 -167 -168 -189 -190 -199 0
-22 -62 -63 -80 -81 -97 -98 -128 -130 -142 -143 -155 -156 -167 -168 -189 -190 -199 0
-22 -62 -63 -80 -81 -97 -98 -129 -130 -142 -144 -155 -156 -167 -168 -189 -190 -199 0
-22 -62 -63 -80 -81 -97 -98 -129 -130 -143 -144 -155 -157 -167 -168 -189 -190 -199 0
-22 -62 -63 -80 -81 -97 -98 -129 -130 -143 -144 -156 -157 -167 -169 -189 -190 -199 0
-22 -62 -63 -80 -81 -97 -98 -129 -130 -143 -144 -156 -157 -168 -169 -189 -191 -199 0
-22 -62 -63 -80 -81 -97 -98 -129 -130 -143 -144 -156 -157 -168 -169 -190 -191 -200 0
-22 -62 -63 -80 -81 -97 -98 -129 -130 -143 -144 -156 -157 -168 -169 -190 -191 -209 0
-22 -62 -63 -80 -81 -97 -98 -129 -130 -143 -144 -156 -157 -168 -169 -200 -201 -209 0
-21 -61 -62 -79 -80 -96 -97 -128 -129 -142 -143 -155 -156 -179 -180 -189 -190 -199 0
-22 -61 -63 -79 -80 -96 -97 -128 -129 -142 -143 -155 -156 -179 -180 -189 -190 -199 0
-22 -62 -63 -79 -81 -96 -97 -128 -129 -142 -143 -155 -156 -179 -180 -189 -190 -199 0
-22 -62 -63 -80 -81 -96 -98 -128 -129 -142 -143 -155 -156 -179 -180 -189 -190 -199 0
-22 -62 -63 -80 -81 -97 -98 -128 -130 -142 -143 -155 -156 -179 -180 -189 -190 -199 0
-22 -62 -63 -80 -81 -97 -98 -129 -130 -142 -144 -155 -156 -179 -180 -189 -190 -199 0
-22 -62 -63 -80 -81 -97 -98 -129 -130 -143 -144 -155 -157 -179 -180 -189 -190 -199 0
-22 -62 -63 -80 -81 -97 -98 -129 -130 -143 -144 -156 -157 -179 -181 -189 -190 -199 0
-22 -62 -63 -80 -81 -97 -98 -129 -130 -143 -144 -156 -157 -180 -181 -189 -191 -199 0
-22 -62 -63 -80 -81 -97 -98 -129 -130 -143 -144 -156 -157 -180 -181 -190 -191 -200 0
-22 -62 -63 -80 -81 -97 -98 -129 -130 -143 -144 -156 -157 -180 -181 -190 -191 -209 0
-22 -62 -63 -80 -81 -97 -98 -129 -130 -143 -144 -156 -157 -180 -181 -200 -201 -209 0
-22 -62 -63 -80 -81 -97 -98 -129 -130 -143 -144 -156 -157 -191 -192 -200 -201 -209 0
-21 -61 -62 -79 -80 -96 -97 -128 -129 -142 -143 -168 -169 -179 -180 -189 -190 -199 0
-22 -61 -63 -79 -80 -96 -97 -128 -129 -142 -143 -168 -169 -179 -180 -189 -190 -199 0
-22 -62 -63 -79 -81 -96 -97 -128 -129 -142 -143 -168 -169 -179 -180 -189 -190 -199 0
-22 -62 -63 -80 -81 -96 -98 -128 -129 -142 -143 -168 -169 -179 -180 -189 -190 -199 0
-22 -62 -63 -80 -81 -97 -98 -128 -130 -142 -143 -168 -169 -179 -180 -189 -190 -199 0
-22 -62 -63 -80 -81 -97 -98 -129 -130 -142 -144 -168 -169 -179 -180 -189 -190 -199 0
-22 -62 -63 -80 -81 -97 -98 -129 -130 -143 -144 -168 -170 -179 -180 -189 -190 -199 0
-22 -62 -63 -80 -81 -97 -98 -129 -130 -143 -144 -169 -170 -179 -181 -189 -190 -199 0
-22 -62 -63 -80 -81 -97 -98 -129 -130 -143 -144 -169 -170 -180 -181 -189 -191 -199 0
-22 -62 -63 -80 -81 -97 -98 -129 -130 -143 -144 -169 -170 -180 -181 -190 -191 -200 0
-22 -62 -63 -80 -81 -97 -98 -129 -130 -143 -144 -169 -170 -180 -181 -190 -191 -209 0
-22 -62 -63 -80 -81 -97 -98 -129 -130 -143 -144 -169 -170 -180 -181 -200 -201 -209 0
-22 -62 -63 -80 -81 -97 -98 -129 -130 -143 -144 -169 -170 -191 -192 -200 -201 -209 0
-22 -62 -63 -80 -81 -97 -98 -129 -130 -143 -144 -181 -182 -191 -192 -200 -201 -209 0
-21 -61 -62 -79 -80 -96 -97 -128 -129 -156 -157 -168 -169 -179 -180 -189 -190 -199 0
-22 -61 -63 -79 -80 -96 -97 -128 -129 -156 -157 -168 -169 -179 -180 -189 -190 -199 0
-22 -62 -63 -79 -81 -96 -97 -128 -129 -156 -157 -168 -169 -179 -180 -189 -190 -199 0
-22 -62 -63 -80 -81 -96 -98 -128 -129 -156 -157 -168 -169 -179 -180 -189 -190 -199 0
-22 -62 -63 -80 -81 -97 -98 -128 -130 -156 -157 -168 -169 -179 -180 -189 -190 -199 0
-22 -62 -63 -80 -81 -97 -98 -129 -130 -156 -158 -168 -169 -179 -180 -189 -190 -199 0
-22 -62 -63 -80 -81 -97 -98 -129 -130 -157 -158 -168 -170 -179 -180 -189 -190 -199 0
-22 -62 -63 -80 -81 -97 -98 -129 -130 -157 -158 -169 -170 -179 -181 -189 -190 -199 0
-22 -62 -63 -80 -81 -97 -98 -129 -130 -157 -158 -169 -170 -180 -181 -189 -191 -199 0
-22 -62 -63 -80 -81 -97 -98 -129 -130 -157 -158 -169 -170 -180 -181 -190 -191 -200 0
-22 -62 -63 -80 -81 -97 -98 -129 -130 -157 -158 -169 -170 -180 -181 -190 -191 -209 0
-22 -62 -63 -80 -81 -97 -98 -129 -130 -157 -158 -169 -170 -180 -181 -200 -201 -209 0
-22 -62 -63 -80 -81 -97 -98 -129 -130 -157 -158 -169 -170 -191 -192 -200 -201 -209 0
-22 -62 -63 -80 -81 -97 -98 -129 -130 -157 -158 -181 -182 -191 -192 -200 -201 -209 0
-22 -62 -63 -80 -81 -97 -98 -129 -130 -170 -171 -181 -182 -191 -192 -200 -201 -209 0
-21 -61 -62 -79 -80 -96 -97 -143 -144 -156 -157 -168 -169 -179 -180 -189 -190 -199 0
-22 -61 -63 -79 -80 -96 -97 -143 -144 -156 -157 -168 -169 -179 -180 -189 -190 -199 0
-22 -62 -63 -79 -81 -96 -97 -143 -144 -156 -157 -168 -169 -179 -180 -189 -190 -199 0
-22 -62 -63 -80 -81 -96 -98 -143 -144 -156 -157 -168 -169 -179 -180 -189 -190 -199 0
-22 -62 -63 -80 -81 -97 -98 -143 -145 -156 -157 -168 -169 -179 -180 -189 -190 -199 0
-22 -62 -63 -80 -81 -97 -98 -144 -145 -156 -158 -168 -169 -179 -180 -189 -190 -199 0
-22 -62 -63 -80 -81 -97 -98 -144 -145 -157 -158 -168 -170 -179 -180 -189 -190 -199 0
-22 -62 -63 -80 -81 -97 -98 -144 -145 -157 -158 -169 -170 -179 -181 -189 -190 -199 0
-22 -62 -63 -80 -81 -97 -98 -144 -145 -157 -158 -169 -170 -180 -181 -189 -191 -199 0
-22 -62 -63 -80 -81 -97 -98 -144 -145 -157 -158 -169 -170 -180 -181 -190 -191 -200 0
-22 -62 -63 -80 -81 -97 -98 -144 -145 -157 -158 -169 -170 -180 -181 -190 -191 -209 0
-22 -62 -63 -80 -81 -97 -98 -144 -145 -157 -158 -169 -170 -180 -181 -200 -201 -209 0
-22 -62 -63 -80 -81 -97 -98 -144 -145 -157 -158 -169 -170 -191 -192 -200 -201 -209 0
-22 -62 -63 -80 -81 -97 -98 -144 -145 -157 -158 -181 -182 -191 -192 -200 -201 -209 0
-22 -62 -63 -80 -81 -97 -98 -144 -145 -170 -171 -181 -182 -191 -192 -200 -201 -209 0
-22 -62 -63 -80 -81 -97 -98 -158 -159 -170 -171 -181 -182 -191 -192 -200 -201 -209 0
-20 -60 -61 -78 -79 -112 -113 -127 -128 -141 -142 -154 -155 -166 -167 -177 -178 -188 0
-21 -60 -62 -78 -79 -112 -113 -127 -128 -141 -142 -154 -155 -166 -167 -177 -178 -188 0
-22 -60 -63 -78 -79 -112 -113 -127 -128 -141 -142 -154 -155 -166 -167 -177 -178 -188 0
-21 -61 -62 -78 -80 -112 -113 -127 -128 -141 -142 -154 -155 -166 -167 -177 -178 -188 0
-22 -61 -63 -78 -80 -112 -113 -127 -128 -141 -142 -154 -155 -166 -167 -177 -178 -188 0
-22 -62 -63 -78 -81 -112 -113 -127 -128 -141 -142 -154 -155 -166 -167 -177 -178 -188 0
-21 -61 -62 -79 -80 -112 -114 -127 -128 -141 -142 -154 -155 -166 -167 -177 -178 -188 0
-22 -61 -63 -79 -80 -112 -114 -127 -128 -141 -142 -154 -155 -166 -167 -177 -178 -188 0
-22 -62 -63 -79 -81 -112 -114 -127 -128 -141 -142 -154 -155 -166 -167 -177 -178 -188 0
-22 -62 -63 -80 -81 -112 -115 -127 -128 -141 -142 -154 -155 -166 -167 -177 -178 -188 0
-21 -61 -62 -79 -80 -113 -114 -127 -129 -141 -142 -154 -155 -166 -167 -177 -178 -188 0
-22 -61 -63 -79 -80 -113 -114 -127 -129 -141 -142 -154 -155 -166 -167 -177 -178 -188 0
-22 -62 -63 -79 -81 -113 -114 -127 -129 -141 -142 -154 -155 -166 -167 -177 -178 -188 0
-22 -62 -63 -80 -81 -113 -115 -127 -129 -141 -142 -154 -155 -166 -167 -177 -178 -188 0
-22 -62 -63 -80 -81 -114 -115 -127 -130 -141 -142 -154 -155 -166 -167 -177 -178 -188 0
-21 -61 -62 -79 -80 -113 -114 -128 -129 -141 -143 -154 -155 -166 -167 -177 -178 -188 0
-22 -61 -63 -79 -80 -113 -114 -128 -129 -141 -143 -154 -155 -166 -167 -177 -178 -188 0
-22 -62 -63 -79 -81 -113 -114 -128 -129 -141 -143 -154 -155 -166 -167 -177 -178 -188 0
-22 -62 -63 -80 -81 -113 -115 -128 -129 -141 -143 -154 -155 -166 -167 -177 -178 -188 0
-22 -62 -63 -80 -81 -114 -115 -128 -130 -141 -143 -154 -155 -166 -167 -177 -178 -188 0
-22 -62 -63 -80 -81 -114 -115 -129 -130 -141 -144 -154 -155 -166 -167 -177 -178 -188 0
-21 -61 -62 -79 -80 -113 -114 -128 -129 -142 -143 -154 -156 -166 -167 -177 -178 -188 0
-22 -61 -63 -79 -80 -113 -114 -128 -129 -142 -143 -154 -156 -166 -167 -177 -178 -188 0
-22 -62 -63 -79 -81 -113 -114 -128 -129 -142 -143 -154 -156 -166 -167 -177 -178 -188 0
-22 -62 -63 -80 -81 -113 -115 -128 -129 -142 -143 -154 -156 -166 -167 -177 -178 -188 0
-22 -62 -63 -80 -81 -114 -115 -128 -130 -142 -143 -154 -156 -166 -167 -177 -178 -188 0
-22 -62 -63 -80 -81 -114 -115 -129 -130 -142 -144 -154 -156 -166 -167 -177 -178 -188 0
-22 -62 -63 -80 -81 -114 -115 -129 -130 -143 -144 -154 -157 -166 -167 -177 -178 -188 0
-21 -61 -62 -79 -80 -113 -114 -128 -129 -142 -143 -155 -156 -166 -168 -177 -178 -188 0
-22 -61 -63 -79 -80 -113 -114 -128 -129 -142 -143 -155 -156 -166 -168 -177 -178 -188 0
-22 -62 -63 -79 -81 -113 -114 -128 -129 -142 -143 -155 -156 -166 -168 -177 -178 -188 0
-22 -62 -63 -80 -81 -113 -115 -128 -129 -142 -143 -155 -156 -166 -168 -177 -178 -188 0
-22 -62 -63 -80 -81 -114 -115 -128 -130 -142 -143 -155 -156 -166 -168 -177 -178 -188 0
-22 -62 -63 -80 -81 -114 -115 -129 -130 -142 -144 -155 -156 -166 -168 -177 -178 -188 0
-22 -62 -63 -80 -81 -114 -115 -129 -130 -143 -144 -155 -157 -166 -168 -177 -178 -188 0
-22 -62 -63 -80 -81 -114 -115 -129 -130 -143 -144 -156 -157 -166 -169 -177 -178 -188 0
-21 -61 -62 -79 -80 -113 -114 -128 -129 -142 -143 -155 -156 -167 -168 -177 -179 -188 0
-22 -61 -63 -79 -80 -113 -114 -128 -129 -142 -143 -155 -156 -167 -168 -177 -179 -188 0
-22 -62 -63 -79 -81 -113 -114 -128 -129 -142 -143 -155 -156 -167 -168 -177 -179 -188 0
-22 -62 -63 -80 -81 -113 -115 -128 -129 -142 -143 -155 -156 -167 -168 -177 -179 -188 0
-22 -62 -63 -80 -81 -114 -115 -128 -130 -142 -143 -155 -156 -167 -168 -177 -179 -188 0
-22 -62 -63 -80 -81 -114 -115 -129 -130 -142 -144 -155 -156 -167 -168 -177 -179 -188 0
-22 -62 -63 -80 -81 -114 -115 -129 -130 -143 -144 -155 -157 -167 -168 -177 -179 -188 0
-22 -62 -63 -80 -81 -114 -115 -129 -130 -143 -144 -156 -157 -167 -169 -177 -179 -188 0
-22 -62 -63 -80 -81 -114 -115 -129 -130 -143 -144 -156 -157 -168 -169 -177 -180 -188 0
-21 -61 -62 -79 -80 -113 -114 -128 -129 -142 -143 -155 -156 -167 -168 -178 -179 -189 0
-22 -61 -63 -79 -80 -113 -114 -128 -129 -142 -143 -155 -156 -167 -168 -178 -179 -189 0
-22 -62 -63 -79 -81 -113 -114 -128 -129 -142 -143 -155 -156 -167 -168 -178 -179 -189 0
-22 -62 -63 -80 -81 -113 -115 -128 -129 -142 -143 -155 -156 -167 -168 -178 -179 -189 0
-22 -62 -63 -80 -81 -114 -115 -128 -130 -142 -143 -155 -156 -167 -168 -178 -179 -189 0
-22 -62 -63 -80 -81 -114 -115 -129 -130 -142 -144 -155 -156 -167 -168 -178 -179 -189 0
-22 -62 -63 -80 -81 -114 -115 -129 -130 -143 -144 -155 -157 -167 -168 -178 -179 -189 0
-22 -62 -63 -80 -81 -114 -115 -129 -130 -143 -144 -156 -157 -167 -169 -178 -179 -189 0
-22 -62 -63 -80 -81 -114 -115 -129 -130 -143 -144 -156 -157 -168 -169 -178 -180 -189 0
-22 -62 -63 -80 -81 -114 -115 -129 -130 -143 -144 -156 -157 -168 -169 -179 -180 -190 0
-21 -61 -62 -79 -80 -113 -114 -128 -129 -142 -143 -155 -156 -167 -168 -178 -179 -199 0
-22 -61 -63 -79 -80 -113 -114 -128 -129 -142 -143 -155 -156 -167 -168 -178 -179 -199 0
-22 -62 -63 -79 -81 -113 -114 -128 -129 -142 -143 -155 -156 -167 -168 -178 -179 -199 0
-22 -62 -63 -80 -81 -113 -115 -128 -129 -142 -143 -155 -156 -167 -168 -178 -179 -199 0
-22 -62 -63 -80 -81 -114 -115 -128 -130 -142 -143 -155 -156 -167 -168 -178 -179 -199 0
-22 -62 -63 -80 -81 -114 -115 -129 -130 -142 -144 -155 -156 -167 -168 -178 -179 -199 0
-22 -62 -63 -80 -81 -114 -115 -129 -130 -143 -144 -155 -157 -167 -168 -178 -179 -199 0
-22 -62 -63 -80 -81 -114 -115 -129 -130 -143 -144 -156 -157 -167 -169 -178 -179 -199 0
-22 -62 -63 -80 -81 -114 -115 -129 -130 -143 -144 -156 -157 -168 -169 -178 -180 -199 0
-22 -62 -63 -80 -81 -114 -115 -129 -130 -143 -144 -156 -157 -168 -169 -179 -180 -200 0
-22 -62 -63 -80 -81 -114 -115 -129 -130 -143 -144 -156 -157 -168 -169 -179 -180 -209 0
-21 -61 -62 -79 -80 -113 -114 -128 -129 -142 -143 -155 -156 -167 -168 -189 -190 -199 0
-22 -61 -63 -79 -80 -113 -114 -128 -129 -142 -143 -155 -156 -167 -168 -189 -190 -199 0
-22 -62 -63 -79 -81 -113 -114 -128 -129 -142 -143 -155 -156 -167 -168 -189 -190 -199 0
-22 -62 -63 -80 -81 -113 -115 -128 -129 -142 -143 -155 -156 -167 -168 -189 -190 -199 0
-22 -62 -63 -80 -81 -114 -115 -128 -130 -142 -143 -155 -156 -167 -168 -189 -190 -199 0
-22 -62 -63 -80 -81 -114 -115 -129 -130 -142 -144 -155 -156 -167 -168 -189 -190 -199 0
-22 -62 -63 -80 -81 -114 -115 -129 -130 -143 -144 -155 -157 -167 -168 -189 -190 -199 0
-22 -62 -63 -80 -81 -114 -115 -129 -130 -143 -144 -156 -157 -167 -169 -189 -190 -199 0
-22 -62 -63 -80 -81 -114 -115 -129 -130 -143 -144 -156 -157 -168 -169 -189 -191 -199 0
-22 -62 -63 -80 -81 -114 -115 -129 -130 -143 -144 -156 -157 -168 -169 -190 -191 -200 0
-22 -62 -63 -80 -81 -114 -115 -129 -130 -143 -144 -156 -157 -168 -169 -190 -191 -209 0
-22 -62 -63 -80 -81 -114 -115 -129 -130 -143 -144 -156 -157 -168 -169 -200 -201 -209 0
-21 -61 -62 -79 -80 -113 -114 -128 -129 -142 -143 -155 -156 -179 -180 -189 -190 -199 0
-22 -61 -63 -79 -80 -113 -114 -128 -129 -142 -143 -155 -156 -179 -180 -189 -190 -199 0
-22 -62 -63 -79 -81 -113 -114 -128 -129 -142 -143 -155 -156 -179 -180 -189 -190 -199 0
-22 -62 -63 -80 -81 -113 -115 -128 -129 -142 -143 -155 -156 -179 -180 -189 -190 -199 0
-22 -62 -63 -80 -81 -114 -115 -128 -130 -142 -143 -155 -156 -179 -180 -189 -190 -199 0
-22 -62 -63 -80 -81 -114 -115 -129 -130 -142 -144 -155 -156 -179 -180 -189 -190 -199 0
-22 -62 -63 -80 -81 -114 -115 -129 -130 -143 -144 -155 -157 -179 -180 -189 -190 -199 0
-22 -62 -63 -80 -81 -114 -115 -129 -130 -143 -144 -156 -157 -179 -181 -189 -190 -199 0
-22 -62 -63 -80 -81 -114 -115 -129 -130 -143 -144 -156 -157 -180 -181 -189 -191 -199 0
-22 -62 -63 -80 -81 -114 -115 -129 -130 -143 -144 -156 -157 -180 -181 -190 -191 -200 0
-22 -62 -63 -80 -81 -114 -115 -129 -130 -143 -144 -156 -157 -180 -181 -190 -191 -209 0
-22 -62 -63 -80 -81 -114 -115 -129 -130 -143 -144 -156 -157 -180 -181 -200 -201 -209 0
-22 -62 -63 -80 -81 -114 -115 -129 -130 -143 -144 -156 -157 -191 -192 -200 -201 -209 0
-21 -61 -62 -79 -80 -113 -114 -128 -129 -142 -143 -168 -169 -179 -180 -189 -190 -199 0
-22 -61 -63 -79 -80 -113 -114 -128 -129 -142 -143 -168 -169 -179 -180 -189 -190 -199 0
-22 -62 -63 -79 -81 -113 -114 -128 -129 -142 -143 -168 -169 -179 -180 -189 -190 -199 0
-22 -62 -63 -80 -81 -113 -115 -128 -129 -142 -143 -168 -169 -179 -180 -189 -190 -199 0
-22 -62 -63 -80 -81 -114 -115 -128 -130 -142 -143 -168 -169 -179 -180 -189 -190 -199 0
-22 -62 -63 -80 -81 -114 -115 -129 -130 -142 -144 -168 -169 -179 -180 -189 -190 -199 0
-22 -62 -63 -80 -81 -114 -115 -129 -130 -143 -144 -168 -170 -179 -180 -189 -190 -199 0
-22 -62 -63 -80 -81 -114 -115 -129 -130 -143 -144 -169 -170 -179 -181 -189 -190 -199 0
-22 -62 -63 -80 -81 -114 -115 -129 -130 -143 -144 -169 -170 -180 -181 -189 -191 -199 0
-22 -62 -63 -80 -81 -114 -115 -129 -130 -143 -144 -169 -170 -180 -181 -190 -191 -200 0
-22 -62 -63 -80 -81 -114 -115 -129 -130 -143 -144 -169 -170 -180 -181 -190 -191 -209 0
-22 -62 -63 -80 -81 -114 -115 -129 -130 -143 -144 -169 -170 -180 -181 -200 -201 -209 0
-22 -62 -63 -80 -81 -114 -115 -129 -130 -143 -144 -169 -170 -191 -192 -200 -201 -209 0
-22 -62 -63 -80 -81 -114 -115 -129 -130 -143 -144 -181 -182 -191 -192 -200 -201 -209 0
-21 -61 -62 -79 -80 -113 -114 -128 -129 -156 -157 -168 -169 -179 -180 -189 -190 -199 0
-22 -61 -63 -79 -80 -113 -114 -128 -129 -156 -157 -168 -169 -179 -180 -189 -190 -199 0
-22 -62 -63 -79 -81 -113 -114 -128 -129 -156 -157 -168 -169 -179 -180 -189 -190 -199 0
-22 -62 -63 -80 -81 -113 -115 -128 -129 -156 -157 -168 -169 -179 -180 -189 -190 -199 0
-22 -62 -63 -80 -81 -114 -115 -128 -130 -156 -157 -168 -169 -179 -180 -189 -190 -199 0
-22 -62 -63 -80 -81 -114 -115 -129 -130 -156 -158 -168 -169 -179 -180 -189 -190 -199 0
-22 -62 -63 -80 -81 -114 -115 -129 -130 -157 -158 -168 -170 -179 -180 -189 -190 -199 0
-22 -62 -63 -80 -81 -114 -115 -129 -130 -157 -158 -169 -170 -179 -181 -189 -190 -199 0
-22 -62 -63 -80 -81 -114 -115 -129 -130 -157 -158 -169 -170 -180 -181 -189 -191 -199 0
-22 -62 -63 -80 -81 -114 -115 -129 -130 -157 -158 -169 -170 -180 -181 -190 -191 -200 0
-22 -62 -63 -80 -81 -114 -115 -129 -130 -157 -158 -169 -170 -180 -181 -190 -191 -209 0
-22 -62 -63 -80 -81 -114 -115 -129 -130 -157 -158 -169 -170 -180 -181 -200 -201 -209 0
-22 -62 -63 -80 -81 -114 -115 -129 -130 -157 -158 -169 -170 -191 -192 -200 -201 -209 0
-22 -62 -63 -80 -81 -114 -115 -129 -130 -157 -158 -181 -182 -191 -192 -200 -201 -209 0
-22 -62 -63 -80 -81 -114 -115 -129 -130 -170 -171 -181 -182 -191 -192 -200 -201 -209 0
-21 -61 -62 -79 -80 -113 -114 -143 -144 -156 -157 -168 -169 -179 -180 -189 -190 -199 0
-22 -61 -63 -79 -80 -113 -114 -143 -144 -156 -157 -168 -169 -179 -180 -189 -190 -199 0
-22 -62 -63 -79 -81 -113 -114 -143 -144 -156 -157 -168 -169 -179 -180 -189 -190 -199 0
-22 -62 -63 -80 -81 -113 -115 -143 -144 -156 -157 -168 -169 -179 -180 -189 -190 -199 0
-22 -62 -63 -80 -81 -114 -115 -143 -145 -156 -157 -168 -169 -179 -180 -189 -190 -199 0
-22 -62 -63 -80 -81 -114 -115 -144 -145 -156 -158 -168 -169 -179 -180 -189 -190 -199 0
-22 -62 -63 -80 -81 -114 -115 -144 -145 -157 -158 -168 -170 -179 -180 -189 -190 -199 0
-22 -62 -63 -80 -81 -114 -115 -144 -145 -157 -158 -169 -170 -179 -181 -189 -190 -199 0
-22 -62 -63 -80 -81 -114 -115 -144 -145 -157 -158 -169 -170 -180 -181 -189 -191 -199 0
-22 -62 -63 -80 -81 -114 -115 -144 -145 -157 -158 -169 -170 -180 -181 -190 -191 -200 0
-22 -62 -63 -80 -81 -114 -115 -144 -145 -157 -158 -169 -170 -180 -181 -190 -191 -209 0
-22 -62 -63 -80 -81 -114 -115 -144 -145 -157 -158 -169 -170 -180 -181 -200 -201 -209 0
-22 -62 -63 -80 -81 -114 -115 -144 -145 -157 -158 -169 -170 -191 -192 -200 -201 -209 0
-22 -62 -63 -80 -81 -114 -115 -144 -145 -157 -158 -181 -182 -191 -192 -200 -201 -209 0
-22 -62 -63 -80 -81 -114 -115 -144 -145 -170 -171 -181 -182 -191 -192 -200 -201 -209 0
-22 -62 -63 -80 -81 -114 -115 -158 -159 -170 -171 -181 -182 -191 -192 -200 -201 -209 0
-21 -61 -62 -79 -80 -129 -130 -143 -144 -156 -157 -168 -169 -179 -180 -189 -190 -199 0
-22 -61 -63 -79 -80 -129 -130 -143 -144 -156 -157 -168 -169 -179 -180 -189 -190 -199 0
-22 -62 -63 -79 -81 -129 -130 -143 -144 -156 -157 -168 -169 -179 -180 -189 -190 -199 0
-22 -62 -63 -80 -81 -129 -131 -143 -144 -156 -157 -168 -169 -179 -180 -189 -190 -199 0
-22 -62 -63 -80 -81 -130 -131 -143 -145 -156 -157 -168 -169 -179 -180 -189 -190 -199 0
-22 -62 -63 -80 -81 -130 -131 -144 -145 -156 -158 -168 -169 -179 -180 -189 -190 -199 0
-22 -62 -63 -80 -81 -130 -131 -144 -145 -157 -158 -168 -170 -179 -180 -189 -190 -199 0
-22 -62 -63 -80 -81 -130 -131 -144 -145 -157 -158 -169 -170 -179 -181 -189 -190 -199 0
-22 -62 -63 -80 -81 -130 -131 -144 -145 -157 -158 -169 -170 -180 -181 -189 -191 -199 0
-22 -62 -63 -80 -81 -130 -131 -144 -145 -157 -158 -169 -170 -180 -181 -190 -191 -200 0
-22 -62 -63 -80 -81 -130 -131 -144 -145 -157 -158 -169 -170 -180 -181 -190 -191 -209 0
-22 -62 -63 -80 -81 -130 -131 -144 -145 -157 -158 -169 -170 -180 -181 -200 -201 -209 0
-22 -62 -63 -80 -81 -130 -131 -144 -145 -157 -158 -169 -170 -191 -192 -200 -201 -209 0
-22 -62 -63 -80 -81 -130 -131 -144 -145 -157 -158 -181 -182 -191 -192 -200 -201 -209 0
-22 -62 -63 -80 -81 -130 -131 -144 -145 -170 -171 -181 -182 -191 -192 -200 -201 -209 0
-22 -62 -63 -80 -81 -130 -131 -158 -159 -170 -171 -181 -182 -191 -192 -200 -201 -209 0
-22 -62 -63 -80 -81 -145 -146 -158 -159 -170 -171 -181 -182 -191 -192 -200 -201 -209 0
-20 -60 -61 -96 -97 -112 -113 -127 -128 -141 -142 -154 -155 -166 -167 -177 -178 -188 0
-21 -60 -62 -96 -97 -112 -113 -127 -128 -141 -142 -154 -155 -166 -167 -177 -178 -188 0
-22 -60 -63 -96 -97 -112 -113 -127 -128 -141 -142 -154 -155 -166 -167 -177 -178 -188 0
-21 -61 -62 -96 -98 -112 -113 -127 -128 -141 -142 -154 -155 -166 -167 -177 -178 -188 0
-22 -61 -63 -96 -98 -112 -113 -127 -128 -141 -142 -154 -155 -166 -167 -177 -178 -188 0
-22 -62 -63 -96 -99 -112 -113 -127 -128 -141 -142 -154 -155 -166 -167 -177 -178 -188 0
-21 -61 -62 -97 -98 -112 -114 -127 -128 -141 -142 -154 -155 -166 -167 -177 -178 -188 0
-22 -61 -63 -97 -98 -112 -114 -127 -128 -141 -142 -154 -155 -166 -167 -177 -178 -188 0
-22 -62 -63 -97 -99 -112 -114 -127 -128 -141 -142 -154 -155 -166 -167 -177 -178 -188 0
-22 -62 -63 -98 -99 -112 -115 -127 -128 -141 -142 -154 -155 -166 -167 -177 -178 -188 0
-21 -61 -62 -97 -98 -113 -114 -127 -129 -141 -142 -154 -155 -166 -167 -177 -178 -188 0
-22 -61 -63 -97 -98 -113 -114 -127 -129 -141 -142 -154 -155 -166 -167 -177 -178 -188 0
-22 -62 -63 -97 -99 -113 -114 -127 -129 -141 -142 -154 -155 -166 -167 -177 -178 -188 0
-22 -62 -63 -98 -99 -113 -115 -127 -129 -141 -142 -154 -155 -166 -167 -177 -178 -188 0
-22 -62 -63 -98 -99 -114 -115 -127 -130 -141 -142 -154 -155 -166 -167 -177 -178 -188 0
-21 -61 -62 -97 -98 -113 -114 -128 -129 -141 -143 -154 -155 -166 -167 -177 -178 -188 0
-22 -61 -63 -97 -98 -113 -114 -128 -129 -141 -143 -154 -155 -166 -167 -177 -178 -188 0
-22 -62 -63 -97 -99 -113 -114 -128 -129 -141 -143 -154 -155 -166 -167 -177 -178 -188 0
-22 -62 -63 -98 -99 -113 -115 -128 -129 -141 -143 -154 -155 -166 -167 -177 -178 -188 0
-22 -62 -63 -98 -99 -114 -115 -128 -130 -141 -143 -154 -155 -166 -167 -177 -178 -188 0
-22 -62 -63 -98 -99 -114 -115 -129 -130 -141 -144 -154 -155 -166 -167 -177 -178 -188 0
-21 -61 -62 -97 -98 -113 -114 -128 -129 -142 -143 -154 -156 -166 -167 -177 -178 -188 0
-22 -61 -63 -97 -98 -113 -114 -128 -129 -142 -143 -154 -156 -166 -167 -177 -178 -188 0
-22 -62 -63 -97 -99 -113 -114 -128 -129 -142 -143 -154 -156 -166 -167 -177 -178 -188 0
-22 -62 -63 -98 -99 -113 -115 -128 -129 -142 -143 -154 -156 -166 -167 -177 -178 -188 0
-22 -62 -63 -98 -99 -114 -115 -128 -130 -142 -143 -154 -156 -166 -167 -177 -178 -188 0
-22 -62 -63 -98 -99 -114 -115 -129 -130 -142 -144 -154 -156 -166 -167 -177 -178 -188 0
-22 -62 -63 -98 -99 -114 -115 -129 -130 -143 -144 -154 -157 -166 -167 -177 -178 -188 0
-21 -61 -62 -97 -98 -113 -114 -128 -129 -142 -143 -155 -156 -166 -168 -177 -178 -188 0
-22 -61 -63 -97 -98 -113 -114 -128 -129 -142 -143 -155 -156 -166 -168 -177 -178 -188 0
-22 -62 -63 -97 -99 -113 -114 -128 -129 -142 -143 -155 -156 -166 -168 -177 -178 -188 0
-22 -62 -63 -98 -99 -113 -115 -128 -129 -142 -143 -155 -156 -166 -168 -177 -178 -188 0
-22 -62 -63 -98 -99 -114 -115 -128 -130 -142 -143 -155 -156 -166 -168 -177 -178 -188 0
-22 -62 -63 -98 -99 -114 -115 -129 -130 -142 -144 -155 -156 -166 -168 -177 -178 -188 0
-22 -62 -63 -98 -99 -114 -115 -129 -130 -143 -144 -155 -157 -166 -168 -177 -178 -188 0
-22 -62 -63 -98 -99 -114 -115 -129 -130 -143 -144 -156 -157 -166 -169 -177 -178 -188 0
-21 -61 -62 -97 -98 -113 -114 -128 -129 -142 -143 -155 -156 -167 -168 -177 -179 -188 0
-22 -61 -63 -97 -98 -113 -114 -128 -129 -142 -143 -155 -156 -167 -168 -177 -179 -188 0
-22 -62 -63 -97 -99 -113 -114 -128 -129 -142 -143 -155 -156 -167 -168 -177 -179 -188 0
-22 -62 -63 -98 -99 -113 -115 -128 -129 -142 -143 -155 -156 -167 -168 -177 -179 -188 0
-22 -62 -63 -98 -99 -114 -115 -128 -130 -142 -143 -155 -156 -167 -168 -177 -179 -188 0
-22 -62 -63 -98 -99 -114 -115 -129 -130 -142 -144 -155 -156 -167 -168 -177 -179 -188 0
-22 -62 -63 -98 -99 -114 -115 -129 -130 -143 -144 -155 -157 -167 -168 -177 -179 -188 0
-22 -62 -63 -98 -99 -114 -115 -129 -130 -143 -144 -156 -157 -167 -169 -177 -179 -188 0
-22 -62 -63 -98 -99 -114 -115 -129 -130 -143 -144 -156 -157 -168 -169 -177 -180 -188 0
-21 -61 -62 -97 -98 -113 -114 -128 -129 -142 -143 -155 -156 -167 -168 -178 -179 -189 0
-22 -61 -63 -97 -98 -113 -114 -128 -129 -142 -143 -155 -156 -167 -168 -178 -179 -189 0
-22 -62 -63 -97 -99 -113 -114 -128 -129 -142 -143 -155 -156 -167 -168 -178 -179 -189 0
-22 -62 -63 -98 -99 -113 -115 -128 -129 -142 -143 -155 -156 -167 -168 -178 -179 -189 0
-22 -62 -63 -98 -99 -114 -115 -128 -130 -142 -143 -155 -156 -167 -168 -178 -179 -189 0
-22 -62 -63 -98 -99 -114 -115 -129 -130 -142 -144 -155 -156 -167 -168 -178 -179 -189 0
-22 -62 -63 -98 -99 -114 -115 -129 -130 -143 -144 -155 -157 -167 -168 -178 -179 -189 0
-22 -62 -63 -98 -99 -114 -115 -129 -130 -143 -144 -156 -157 -167 -169 -178 -179 -189 0
-22 -62 -63 -98 -99 -114 -115 -129 -130 -143 -144 -156 -157 -168 -169 -178 -180 -189 0
-22 -62 -63 -98 -99 -114 -115 -129 -130 -143 -144 -156 -157 -168 -169 -179 -180 -190 0
-21 -61 -62 -97 -98 -113 -114 -128 -129 -142 -143 -155 -156 -167 -168 -178 -179 -199 0
-22 -61 -63 -97 -98 -113 -114 -128 -129 -142 -143 -155 -156 -167 -168 -178 -179 -199 0
-22 -62 -63 -97 -99 -113 -114 -128 -129 -142 -143 -155 -156 -167 -168 -178 -179 -199 0
-22 -62 -63 -98 -99 -113 -115 -128 -129 -142 -143 -155 -156 -167 -168 -178 -179 -199 0
-22 -62 -63 -98 -99 -114 -115 -128 -130 -142 -143 -155 -156 -167 -168 -178 -179 -199 0
-22 -62 -63 -98 -99 -114 -115 -129 -130 -142 -144 -155 -156 -167 -168 -178 -179 -199 0
-22 -62 -63 -98 -99 -114 -115 -129 -130 -143 -144 -155 -157 -167 -168 -178 -179 -199 0
-22 -62 -63 -98 -99 -114 -115 -129 -130 -143 -144 -156 -157 -167 -169 -178 -179 -199 0
-22 -62 -63 -98 -99 -114 -115 -129 -130 -143 -144 -156 -157 -168 -169 -178 -180 -199 0
-22 -62 -63 -98 -99 -114 -115 -129 -130 -143 -144 -156 -157 -168 -169 -179 -180 -200 0
-22 -62 -63 -98 -99 -114 -115 -129 -130 -143 -144 -156 -157 -168 -169 -179 -180 -209 0
-21 -61 -62 -97 -98 -113 -114 -128 -129 -142 -143 -155 -156 -167 -168 -189 -190 -199 0
-22 -61 -63 -97 -98 -113 -114 -128 -129 -142 -143 -155 -156 -167 -168 -189 -190 -199 0
-22 -62 -63 -97 -99 -113 -114 -128 -129 -142 -143 -155 -156 -167 -168 -189 -190 -199 0
-22 -62 -63 -98 -99 -113 -115 -128 -129 -142 -143 -155 -156 -167 -168 -189 -190 -199 0
-22 -62 -63 -98 -99 -114 -115 -128 -130 -142 -143 -155 -156 -167 -168 -189 -190 -199 0
-22 -62 -63 -98 -99 -114 -115 -129 -130 -142 -144 -155 -156 -167 -168 -189 -190 -199 0
-22 -62 -63 -98 -99 -114 -115 -129 -130 -143 -144 -155 -157 -167 -168 -189 -190 -199 0
-22 -62 -63 -98 -99 -114 -115 -129 -130 -143 -144 -156 -157 -167 -169 -189 -190 -199 0
-22 -62 -63 -98 -99 -114 -115 -129 -130 -143 -144 -156 -157 -168 -169 -189 -191 -199 0
-22 -62 -63 -98 -99 -114 -115 -129 -130 -143 -144 -156 -157 -168 -169 -190 -191 -200 0
-22 -62 -63 -98 -99 -114 -115 -129 -130 -143 -144 -156 -157 -168 -169 -190 -191 -209 0
-22 -62 -63 -98 -99 -114 -115 -129 -130 -143 -144 -156 -157 -168 -169 -200 -201 -209 0
-21 -61 -62 -97 -98 -113 -114 -128 -129 -142 -143 -155 -156 -179 -180 -189 -190 -199 0
-22 -61 -63 -97 -98 -113 -114 -128 -129 -142 -143 -155 -156 -179 -180 -189 -190 -199 0
-22 -62 -63 -97 -99 -113 -114 -128 -129 -142 -143 -155 -156 -179 -180 -189 -190 -199 0
-22 -62 -63 -98 -99 -113 -115 -128 -129 -142 -143 -155 -156 -179 -180 -189 -190 -199 0
-22 -62 -63 -98 -99 -114 -115 -128 -130 -142 -143 -155 -156 -179 -180 -189 -190 -199 0
-22 -62 -63 -98 -99 -114 -115 -129 -130 -142 -144 -155 -156 -179 -180 -189 -190 -199 0
-22 -62 -63 -98 -99 -114 -115 -129 -130 -143 -144 -155 -157 -179 -180 -189 -190 -199 0
-22 -62 -63 -98 -99 -114 -115 -129 -130 -143 -144 -156 -157 -179 -181 -189 -190 -199 0
-22 -62 -63 -98 -99 -114 -115 -129 -130 -143 -144 -156 -157 -180 -181 -189 -191 -199 0
-22 -62 -63 -98 -99 -114 -115 -129 -130 -143 -144 -156 -157 -180 -181 -190 -191 -200 0
-22 -62 -63 -98 -99 -114 -115 -129 -130 -143 -144 -156 -157 -180 -181 -190 -191 -209 0
-22 -62 -63 -98 -99 -114 -115 -129 -130 -143 -144 -156 -157 -180 -181 -200 -201 -209 0
-22 -62 -63 -98 -99 -114 -115 -129 -130 -143 -144 -156 -157 -191 -192 -200 -201 -209 0
-21 -61 -62 -97 -98 -113 -114 -128 -129 -142 -143 -168 -169 -179 -180 -189 -190 -199 0
-22 -61 -63 -97 -98 -113 -114 -128 -129 -142 -143 -168 -169 -179 -180 -189 -190 -199 0
-22 -62 -63 -97 -99 -113 -114 -128 -129 -142 -143 -168 -169 -179 -180 -189 -190 -199 0
-22 -62 -63 -98 -99 -113 -115 -128 -129 -142 -143 -168 -169 -179 -180 -189 -190 -199 0
-22 -62 -63 -98 -99 -114 -115 -128 -130 -142 -143 -168 -169 -179 -180 -189 -190 -199 0
-22 -62 -63 -98 -99 -114 -115 -129 -130 -142 -144 -168 -169 -179 -180 -189 -190 -199 0
-22 -62 -63 -98 -99 -114 -115 -129 -130 -143 -144 -168 -170 -179 -180 -189 -190 -199 0
-22 -62 -63 -98 -99 -114 -115 -129 -130 -143 -144 -169 -170 -179 -181 -189 -190 -199 0
-22 -62 -63 -98 -99 -114 -115 -129 -130 -143 -144 -169 -170 -180 -181 -189 -191 -199 0
-22 -62 -63 -98 -99 -114 -115 -129 -130 -143 -144 -169 -170 -180 -181 -190 -191 -200 0
-22 -62 -63 -98 -99 -114 -115 -129 -130 -143 -144 -169 -170 -180 -181 -190 -191 -209 0
-22 -62 -63 -98 -99 -114 -115 -129 -130 -143 -144 -169 -170 -180 -181 -200 -201 -209 0
-22 -62 -63 -98 -99 -114 -115 -129 -130 -143 -144 -169 -170 -191 -192 -200 -201 -209 0
-22 -62 -63 -98 -99 -114 -115 -129 -130 -143 -144 -181 -182 -191 -192 -200 -201 -209 0
-21 -61 -62 -97 -98 -113 -114 -128 -129 -156 -157 -168 -169 -179 -180 -189 -190 -199 0
-22 -61 -63 -97 -98 -113 -114 -128 -129 -156 -157 -168 -169 -179 -180 -189 -190 -199 0
-22 -62 -63 -97 -99 -113 -114 -128 -129 -156 -157 -168 -169 -179 -180 -189 -190 -199 0
-22 -62 -63 -98 -99 -113 -115 -128 -129 -156 -157 -168 -169 -179 -180 -189 -190 -199 0
-22 -62 -63 -98 -99 -114 -115 -128 -130 -156 -157 -168 -169 -179 -180 -189 -190 -199 0
-22 -62 -63 -98 -99 -114 -115 -129 -130 -156 -158 -168 -169 -179 -180 -189 -190 -199 0
-22 -62 -63 -98 -99 -114 -115 -129 -130 -157 -158 -168 -170 -179 -180 -189 -190 -199 0
-22 -62 -63 -98 -99 -114 -115 -129 -130 -157 -158 -169 -170 -179 -181 -189 -190 -199 0
-22 -62 -63 -98 -99 -114 -115 -129 -130 -157 -158 -169 -170 -180 -181 -189 -191 -199 0
-22 -62 -63 -98 -99 -114 -115 -129 -130 -157 -158 -169 -170 -180 -181 -190 -191 -200 0
-22 -62 -63 -98 -99 -114 -115 -129 -130 -157 -158 -169 -170 -180 -181 -190 -191 -209 0
-22 -62 -63 -98 -99 -114 -115 -129 -130 -157 -158 -169 -170 -180 -181 -200 -201 -209 0
-22 -62 -63 -98 -99 -114 -115 -129 -130 -157 -158 -169 -170 -191 -192 -200 -201 -209 0
-22 -62 -63 -98 -99 -114 -115 -129 -130 -157 -158 -181 -182 -191 -192 -200 -201 -209 0
-22 -62 -63 -98 -99 -114 -115 -129 -130 -170 -171 -181 -182 -191 -192 -200 -201 -209 0
-21 -61 -62 -97 -98 -113 -114 -143 -144 -156 -157 -168 -169 -179 -180 -189 -190 -199 0
-22 -61 -63 -97 -98 -113 -114 -143 -144 -156 -157 -168 -169 -179 -180 -189 -190 -199 0
-22 -62 -63 -97 -99 -113 -114 -143 -144 -156 -157 -168 -169 -179 -180 -189 -190 -199 0
-22 -62 -63 -98 -99 -113 -115 -143 -144 -156 -157 -168 -169 -179 -180 -189 -190 -199 0
-22 -62 -63 -98 -99 -114 -115 -143 -145 -156 -157 -168 -169 -179 -180 -189 -190 -199 0
-22 -62 -63 -98 -99 -114 -115 -144 -145 -156 -158 -168 -169 -179 -180 -189 -190 -199 0
-22 -62 -63 -98 -99 -114 -115 -144 -145 -157 -158 -168 -170 -179 -180 -189 -190 -199 0
-22 -62 -63 -98 -99 -114 -115 -144 -145 -157 -158 -169 -170 -179 -181 -189 -190 -199 0
-22 -62 -63 -98 -99 -114 -115 -144 -145 -157 -158 -169 -170 -180 -181 -189 -191 -199 0
-22 -62 -63 -98 -99 -114 -115 -144 -145 -157 -158 -169 -170 -180 -181 -190 -191 -200 0
-22 -62 -63 -98 -99 -114 -115 -144 -145 -157 -158 -169 -170 -180 -181 -190 -191 -209 0
-22 -62 -63 -98 -99 -114 -115 -144 -145 -157 -158 -169 -170 -180 -181 -200 -201 -209 0
-22 -62 -63 -98 -99 -114 -115 -144 -145 -157 -158 -169 -170 -191 -192 -200 -201 -209 0
-22 -62 -63 -98 -99 -114 -115 -144 -145 -157 -158 -181 -182 -191 -192 -200 -201 -209 0
-22 -62 -63 -98 -99 -114 -115 -144 -145 -170 -171 -181 -182 -191 -192 -200 -201 -209 0
-22 -62 -63 -98 -99 -114 -115 -158 -159 -170 -171 -181 -182 -191 -192 -200 -201 -209 0
-21 -61 -62 -97 -98 -129 -130 -143 -144 -156 -157 -168 -169 -179 -180 -189 -190 -199 0
-22 -61 -63 -97 -98 -129 -130 -143 -144 -156 -157 -168 -169 -179 -180 -189 -190 -199 0
-22 -62 -63 -97 -99 -129 -130 -143 -144 -156 -157 -168 -169 -179 -180 -189 -190 -199 0
-22 -62 -63 -98 -99 -129 -131 -143 -144 -156 -157 -168 -169 -179 -180 -189 -190 -199 0
-22 -62 -63 -98 -99 -130 -131 -143 -145 -156 -157 -168 -169 -179 -180 -189 -190 -199 0
-22 -62 -63 -98 -99 -130 -131 -144 -145 -156 -158 -168 -169 -179 -180 -189 -190 -199 0
-22 -62 -63 -98 -99 -130 -131 -144 -145 -157 -158 -168 -170 -179 -180 -189 -190 -199 0
-22 -62 -63 -98 -99 -130 -131 -144 -145 -157 -158 -169 -170 -179 -181 -189 -190 -199 0
-22 -62 -63 -98 -99 -130 -131 -144 -145 -157 -158 -169 -170 -180 -181 -189 -191 -199 0
-22 -62 -63 -98 -99 -130 -131 -144 -145 -157 -158 -169 -170 -180 -181 -190 -191 -200 0
-22 -62 -63 -98 -99 -130 -131 -144 -145 -157 -158 -169 -170 -180 -181 -190 -191 -209 0
-22 -62 -63 -98 -99 -130 -131 -144 -145 -157 -158 -169 -170 -180 -181 -200 -201 -209 0
-22 -62 -63 -98 -99 -130 -131 -144 -145 -157 -158 -169 -170 -191 -192 -200 -201 -209 0
-22 -62 -63 -98 -99 -130 -131 -144 -145 -157 -158 -181 -182 -191 -192 -200 -201 -209 0
-22 -62 -63 -98 -99 -130 -131 -144 -145 -170 -171 -181 -182 -191 -192 -200 -201 -209 0
-22 -62 -63 -98 -99 -130 -131 -158 -159 -170 -171 -181 -182 -191 -192 -200 -201 -209 0
-22 -62 -63 -98 -99 -145 -146 -158 -159 -170 -171 -181 -182 -191 -192 -200 -201 -209 0
-21 -61 -62 -114 -115 -129 -130 -143 -144 -156 -157 -168 -169 -179 -180 -189 -190 -199 0
-22 -61 -63 -114 -115 -129 -130 -143 -144 -156 -157 -168 -169 -179 -180 -189 -190 -199 0
-22 -62 -63 -114 -116 -129 -130 -143 -144 -156 -157 -168 -169 -179 -180 -189 -190 -199 0
-22 -62 -63 -115 -116 -129 -131 -143 -144 -156 -157 -168 -169 -179 -180 -189 -190 -199 0
-22 -62 -63 -115 -116 -130 -131 -143 -145 -156 -157 -168 -169 -179 -180 -189 -190 -199 0
-22 -62 -63 -115 -116 -130 -131 -144 -145 -156 -158 -168 -169 -179 -180 -189 -190 -199 0
-22 -62 -63 -115 -116 -130 -131 -144 -145 -157 -158 -168 -170 -179 -180 -189 -190 -199 0
-22 -62 -63 -115 -116 -130 -131 -144 -145 -157 -158 -169 -170 -179 -181 -189 -190 -199 0
-22 -62 -63 -115 -116 -130 -131 -144 -145 -157 -158 -169 -170 -180 -181 -189 -191 -199 0
-22 -62 -63 -115 -116 -130 -131 -144 -145 -157 -158 -169 -170 -180 -181 -190 -191 -200 0
-22 -62 -63 -115 -116 -130 -131 -144 -145 -157 -158 -169 -170 -180 -181 -190 -191 -209 0
-22 -62 -63 -115 -116 -130 -131 -144 -145 -157 -158 -169 -170 -180 -181 -200 -201 -209 0
-22 -62 -63 -115 -116 -130 -131 -144 -145 -157 -158 -169 -170 -191 -192 -200 -201 -209 0
-22 -62 -63 -115 -116 -130 -131 -144 -145 -157 -158 -181 -182 -191 -192 -200 -201 -209 0
-22 -62 -63 -115 -116 -130 -131 -144 -145 -170 -171 -181 -182 -191 -192 -200 -201 -209 0
-22 -62 -63 -115 -116 -130 -131 -158 -159 -170 -171 -181 -182 -191 -192 -200 -201 -209 0
-22 -62 -63 -115 -116 -145 -146 -158 -159 -170 -171 -181 -182 -191 -192 -200 -201 -209 0
-22 -62 -63 -131 -132 -145 -146 -158 -159 -170 -171 -181 -182 -191 -192 -200 -201 -209 0
-20 -79 -80 -96 -97 -112 -113 -127 -128 -141 -142 -154 -155 -166 -167 -177 -178 -188 0
-21 -79 -81 -96 -97 -112 -113 -127 -128 -141 -142 -154 -155 -166 -167 -177 -178 -188 0
-22 -79 -82 -96 -97 -112 -113 -127 -128 -141 -142 -154 -155 -166 -167 -177 -178 -188 0
-21 -80 -81 -96 -98 -112 -113 -127 -128 -141 -142 -154 -155 -166 -167 -177 -178 -188 0
-22 -80 -82 -96 -98 -112 -113 -127 -128 -141 -142 -154 -155 -166 -167 -177 -178 -188 0
-22 -81 -82 -96 -99 -112 -113 -127 -128 -141 -142 -154 -155 -166 -167 -177 -178 -188 0
-21 -80 -81 -97 -98 -112 -114 -127 -128 -141 -142 -154 -155 -166 -167 -177 -178 -188 0
-22 -80 -82 -97 -98 -112 -114 -127 -128 -141 -142 -154 -155 -166 -167 -177 -178 -188 0
-22 -81 -82 -97 -99 -112 -114 -127 -128 -141 -142 -154 -155 -166 -167 -177 -178 -188 0
-22 -81 -82 -98 -99 -112 -115 -127 -128 -141 -142 -154 -155 -166 -167 -177 -178 -188 0
-21 -80 -81 -97 -98 -113 -114 -127 -129 -141 -142 -154 -155 -166 -167 -177 -178 -188 0
-22 -80 -82 -97 -98 -113 -114 -127 -129 -141 -142 -154 -155 -166 -167 -177 -178 -188 0
-22 -81 -82 -97 -99 -113 -114 -127 -129 -141 -142 -154 -155 -166 -167 -177 -178 -188 0
-22 -81 -82 -98 -99 -113 -115 -127 -129 -141 -142 -154 -155 -166 -167 -177 -178 -188 0
-22 -81 -82 -98 -99 -114 -115 -127 -130 -141 -142 -154 -155 -166 -167 -177 -178 -188 0
-21 -80 -81 -97 -98 -113 -114 -128 -129 -141 -143 -154 -155 -166 -167 -177 -178 -188 0
-22 -80 -82 -97 -98 -113 -114 -128 -129 -141 -143 -154 -155 -166 -167 -177 -178 -188 0
-22 -81 -82 -97 -99 -113 -114 -128 -129 -141 -143 -154 -155 -166 -167 -177 -178 -188 0
-22 -81 -82 -98 -99 -113 -115 -128 -129 -141 -143 -154 -155 -166 -167 -177 -178 -188 0
-22 -81 -82 -98 -99 -114 -115 -128 -130 -141 -143 -154 -155 -166 -167 -177 -178 -188 0
-22 -81 -82 -98 -99 -114 -115 -129 -130 -141 -144 -154 -155 -166 -167 -177 -178 -188 0
-21 -80 -81 -97 -98 -113 -114 -128 -129 -142 -143 -154 -156 -166 -167 -177 -178 -188 0
-22 -80 -82 -97 -98 -113 -114 -128 -129 -142 -143 -154 -156 -166 -167 -177 -178 -188 0
-22 -81 -82 -97 -99 -113 -114 -128 -129 -142 -143 -154 -156 -166 -167 -177 -178 -188 0
-22 -81 -82 -98 -99 -113 -115 -128 -129 -142 -143 -154 -156 -166 -167 -177 -178 -188 0
-22 -81 -82 -98 -99 -114 -115 -128 -130 -142 -143 -154 -156 -166 -167 -177 -178 -188 0
-22 -81 -82 -98 -99 -114 -115 -129 -130 -142 -144 -154 -156 -166 -167 -177 -178 -188 0
-22 -81 -82 -98 -99 -114 -115 -129 -130 -143 -144 -154 -157 -166 -167 -177 -178 -188 0
-21 -80 -81 -97 -98 -113 -114 -128 -129 -142 -143 -155 -156 -166 -168 -177 -178 -188 0
-22 -80 -82 -97 -98 -113 -114 -128 -129 -142 -143 -155 -156 -166 -168 -177 -178 -188 0
-22 -81 -82 -97 -99 -113 -114 -128 -129 -142 -143 -155 -156 -166 -168 -177 -178 -188 0
-22 -81 -82 -98 -99 -113 -115 -128 -129 -142 -143 -155 -156 -166 -168 -177 -178 -188 0
-22 -81 -82 -98 -99 -114 -115 -128 -130 -142 -143 -155 -156 -166 -168 -177 -178 -188 0
-22 -81 -82 -98 -99 -114 -115 -129 -130 -142 -144 -155 -156 -166 -168 -177 -178 -188 0
-22 -81 -82 -98 -99 -114 -115 -129 -130 -143 -144 -155 -157 -166 -168 -177 -178 -188 0
-22 -81 -82 -98 -99 -114 -115 -129 -130 -143 -144 -156 -157 -166 -169 -177 -178 -188 0
-21 -80 -81 -97 -98 -113 -114 -128 -129 -142 -143 -155 -156 -167 -168 -177 -179 -188 0
-22 -80 -82 -97 -98 -113 -114 -128 -129 -142 -143 -155 -156 -167 -168 -177 -179 -188 0
-22 -81 -82 -97 -99 -113 -114 -128 -129 -142 -143 -155 -156 -167 -168 -177 -179 -188 0
-22 -81 -82 -98 -99 -113 -115 -128 -129 -142 -143 -155 -156 -167 -168 -177 -179 -188 0
-22 -81 -82 -98 -99 -114 -115 -128 -130 -142 -143 -155 -156 -167 -168 -177 -179 -188 0
-22 -81 -82 -98 -99 -114 -115 -129 -130 -142 -144 -155 -156 -167 -168 -177 -179 -188 0
-22 -81 -82 -98 -99 -114 -115 -129 -130 -143 -144 -155 -157 -167 -168 -177 -179 -188 0
-22 -81 -82 -98 -99 -114 -115 -129 -130 -143 -144 -156 -157 -167 -169 -177 -179 -188 0
-22 -81 -82 -98 -99 -114 -115 -129 -130 -143 -144 -156 -157 -168 -169 -177 -180 -188 0
-21 -80 -81 -97 -98 -113 -114 -128 -129 -142 -143 -155 -156 -167 -168 -178 -179 -189 0
-22 -80 -82 -97 -98 -113 -114 -128 -129 -142 -143 -155 -156 -167 -168 -178 -179 -189 0
-22 -81 -82 -97 -99 -113 -114 -128 -129 -142 -143 -155 -156 -167 -168 -178 -179 -189 0
-22 -81 -82 -98 -99 -113 -115 -128 -129 -142 -143 -155 -156 -167 -168 -178 -179 -189 0
-22 -81 -82 -98 -99 -114 -115 -128 -130 -142 -143 -155 -156 -167 -168 -178 -179 -189 0
-22 -81 -82 -98 -99 -114 -115 -129 -130 -142 -144 -155 -156 -167 -168 -178 -179 -189 0
-22 -81 -82 -98 -99 -114 -115 -129 -130 -143 -144 -155 -157 -167 -168 -178 -179 -189 0
-22 -81 -82 -98 -99 -114 -115 -129 -130 -143 -144 -156 -157 -167 -169 -178 -179 -189 0
-22 -81 -82 -98 -99 -114 -115 -129 -130 -143 -144 -156 -157 -168 -169 -178 -180 -189 0
-22 -81 -82 -98 -99 -114 -115 -129 -130 -143 -144 -156 -157 -168 -169 -179 -180 -190 0
-21 -80 -81 -97 -98 -113 -114 -128 -129 -142 -143 -155 -156 -167 -168 -178 -179 -199 0
-22 -80 -82 -97 -98 -113 -114 -128 -129 -142 -143 -155 -156 -167 -168 -178 -179 -199 0
-22 -81 -82 -97 -99 -113 -114 -128 -129 -142 -143 -155 -156 -167 -168 -178 -179 -199 0
-22 -81 -82 -98 -99 -113 -115 -128 -129 -142 -143 -155 -156 -167 -168 -178 -179 -199 0
-22 -81 -82 -98 -99 -114 -115 -128 -130 -142 -143 -155 -156 -167 -168 -178 -179 -199 0
-22 -81 -82 -98 -99 -114 -115 -129 -130 -142 -144 -155 -156 -167 -168 -178 -179 -199 0
-22 -81 -82 -98 -99 -114 -115 -129 -130 -143 -144 -155 -157 -167 -168 -178 -179 -199 0
-22 -81 -82 -98 -99 -114 -115 -129 -130 -143 -144 -156 -157 -167 -169 -178 -179 -199 0
-22 -81 -82 -98 -99 -114 -115 -129 -130 -143 -144 -156 -157 -168 -169 -178 -180 -199 0
-22 -81 -82 -98 -99 -114 -115 -129 -130 -143 -144 -156 -157 -168 -169 -179 -180 -200 0
-22 -81 -82 -98 -99 -114 -115 -129 -130 -143 -144 -156 -157 -168 -169 -179 -180 -209 0
-21 -80 -81 -97 -98 -113 -114 -128 -129 -142 -143 -155 -156 -167 -168 -189 -190 -199 0
-22 -80 -82 -97 -98 -113 -114 -128 -129 -142 -143 -155 -156 -167 -168 -189 -190 -199 0
-22 -81 -82 -97 -99 -113 -114 -128 -129 -142 -143 -155 -156 -167 -168 -189 -190 -199 0
-22 -81 -82 -98 -99 -113 -115 -128 -129 -142 -143 -155 -156 -167 -168 -189 -190 -199 0
-22 -81 -82 -98 -99 -114 -115 -128 -130 -142 -143 -155 -156 -167 -168 -189 -190 -199 0
-22 -81 -82 -98 -99 -114 -115 -129 -130 -142 -144 -155 -156 -167 -168 -189 -190 -199 0
-22 -81 -82 -98 -99 -114 -115 -129 -130 -143 -144 -155 -157 -167 -168 -189 -190 -199 0
-22 -81 -82 -98 -99 -114 -115 -129 -130 -143 -144 -156 -157 -167 -169 -189 -190 -199 0
-22 -81 -82 -98 -99 -114 -115 -129 -130 -143 -144 -156 -157 -168 -169 -189 -191 -199 0
-22 -81 -82 -98 -99 -114 -115 -129 -130 -143 -144 -156 -157 -168 -169 -190 -191 -200 0
-22 -81 -82 -98 -99 -114 -115 -129 -130 -143 -144 -156 -157 -168 -169 -190 -191 -209 0
-22 -81 -82 -98 -99 -114 -115 -129 -130 -143 -144 -156 -157 -168 -169 -200 -201 -209 0
-21 -80 -81 -97 -98 -113 -114 -128 -129 -142 -143 -155 -156 -179 -180 -189 -190 -199 0
-22 -80 -82 -97 -98 -113 -114 -128 -129 -142 -143 -155 -156 -179 -180 -189 -190 -199 0
-22 -81 -82 -97 -99 -113 -114 -128 -129 -142 -143 -155 -156 -179 -180 -189 -190 -199 0
-22 -81 -82 -98 -99 -113 -115 -128 -129 -142 -143 -155 -156 -179 -180 -189 -190 -199 0
-22 -81 -82 -98 -99 -114 -115 -128 -130 -142 -143 -155 -156 -179 -180 -189 -190 -199 0
-22 -81 -82 -98 -99 -114 -115 -129 -130 -142 -144 -155 -156 -179 -180 -189 -190 -199 0
-22 -81 -82 -98 -99 -114 -115 -129 -130 -143 -144 -155 -157 -179 -180 -189 -190 -199 0
-22 -81 -82 -98 -99 -114 -115 -129 -130 -143 -144 -156 -157 -179 -181 -189 -190 -199 0
-22 -81 -82 -98 -99 -114 -115 -129 -130 -143 -144 -156 -157 -180 -181 -189 -191 -199 0
-22 -81 -82 -98 -99 -114 -115 -129 -130 -143 -144 -156 -157 -180 -181 -190 -191 -200 0
-22 -81 -82 -98 -99 -114 -115 -129 -130 -143 -144 -156 -157 -180 -181 -190 -191 -209 0
-22 -81 -82 -98 -99 -114 -115 -129 -130 -143 -144 -156 -157 -180 -181 -200 -201 -209 0
-22 -81 -82 -98 -99 -114 -115 -129 -130 -143 -144 -156 -157 -191 -192 -200 -201 -209 0
-21 -80 -81 -97 -98 -113 -114 -128 -129 -142 -143 -168 -169 -179 -180 -189 -190 -199 0
-22 -80 -82 -97 -98 -113 -114 -128 -129 -142 -143 -168 -169 -179 -180 -189 -190 -199 0
-22 -81 -82 -97 -99 -113 -114 -128 -129 -142 -143 -168 -169 -179 -180 -189 -190 -199 0
-22 -81 -82 -98 -99 -113 -115 -128 -129 -142 -143 -168 -169 -179 -180 -189 -190 -199 0
-22 -81 -82 -98 -99 -114 -115 -128 -130 -142 -143 -168 -169 -179 -180 -189 -190 -199 0
-22 -81 -82 -98 -99 -114 -115 -129 -130 -142 -144 -168 -169 -179 -180 -189 -190 -199 0
-22 -81 -82 -98 -99 -114 -115 -129 -130 -143 -144 -168 -170 -179 -180 -189 -190 -199 0
-22 -81 -82 -98 -99 -114 -115 -129 -130 -143 -144 -169 -170 -179 -181 -189 -190 -199 0
-22 -81 -82 -98 -99 -114 -115 -129 -130 -143 -144 -169 -170 -180 -181 -189 -191 -199 0
-22 -81 -82 -98 -99 -114 -115 -129 -130 -143 -144 -169 -170 -180 -181 -190 -191 -200 0
-22 -81 -82 -98 -99 -114 -115 -129 -130 -143 -144 -169 -170 -180 -181 -190 -191 -209 0
-22 -81 -82 -98 -99 -114 -115 -129 -130 -143 -144 -169 -170 -180 -181 -200 -201 -209 0
-22 -81 -82 -98 -99 -114 -115 -129 -130 -143 -144 -169 -170 -191 -192 -200 -201 -209 0
-22 -81 -82 -98 -99 -114 -115 -129 -130 -143 -144 -181 -182 -191 -192 -200 -201 -209 0
-21 -80 -81 -97 -98 -113 -114 -128 -129 -156 -157 -168 -169 -179 -180 -189 -190 -199 0
-22 -80 -82 -97 -98 -113 -114 -128 -129 -156 -157 -168 -169 -179 -180 -189 -190 -199 0
-22 -81 -82 -97 -99 -113 -114 -128 -129 -156 -157 -168 -169 -179 -180 -189 -190 -199 0
-22 -81 -82 -98 -99 -113 -115 -128 -129 -156 -157 -168 -169 -179 -180 -189 -190 -199 0
-22 -81 -82 -98 -99 -114 -115 -128 -130 -156 -157 -168 -169 -179 -180 -189 -190 -199 0
-22 -81 -82 -98 -99 -114 -115 -129 -130 -156 -158 -168 -169 -179 -180 -189 -190 -199 0
-22 -81 -82 -98 -99 -114 -115 -129 -130 -157 -158 -168 -170 -179 -180 -189 -190 -199 0
-22 -81 -82 -98 -99 -114 -115 -129 -130 -157 -158 -169 -170 -179 -181 -189 -190 -199 0
-22 -81 -82 -98 -99 -114 -115 -129 -130 -157 -158 -169 -170 -180 -181 -189 -191 -199 0
-22 -81 -82 -98 -99 -114 -115 -129 -130 -157 -158 -169 -170 -180 -181 -190 -191 -200 0
-22 -81 -82 -98 -99 -114 -115 -129 -130 -157 -158 -169 -170 -180 -181 -190 -191 -209 0
-22 -81 -82 -98 -99 -114 -115 -129 -130 -157 -158 -169 -170 -180 -181 -200 -201 -209 0
-22 -81 -82 -98 -99 -114 -115 -129 -130 -157 -158 -169 -170 -191 -192 -200 -201 -209 0
-22 -81 -82 -98 -99 -114 -115 -129 -130 -157 -158 -181 -182 -191 -192 -200 -201 -209 0
-22 -81 -82 -98 -99 -114 -115 -129 -130 -170 -171 -181 -182 -191 -192 -200 -201 -209 0
-21 -80 -81 -97 -98 -113 -114 -143 -144 -156 -157 -168 -169 -179 -180 -189 -190 -199 0
-22 -80 -82 -97 -98 -113 -114 -143 -144 -156 -157 -168 -169 -179 -180 -189 -190 -199 0
-22 -81 -82 -97 -99 -113 -114 -143 -144 -156 -157 -168 -169 -179 -180 -189 -190 -199 0
-22 -81 -82 -98 -99 -113 -115 -143 -144 -156 -157 -168 -169 -179 -180 -189 -190 -199 0
-22 -81 -82 -98 -99 -114 -115 -143 -145 -156 -157 -168 -169 -179 -180 -189 -190 -199 0
-22 -81 -82 -98 -99 -114 -115 -144 -145 -156 -158 -168 -169 -179 -180 -189 -190 -199 0
-22 -81 -82 -98 -99 -114 -115 -144 -145 -157 -158 -168 -170 -179 -180 -189 -190 -199 0
-22 -81 -82 -98 -99 -114 -115 -144 -145 -157 -158 -169 -170 -179 -181 -189 -190 -199 0
-22 -81 -82 -98 -99 -114 -115 -144 -145 -157 -158 -169 -170 -180 -181 -189 -191 -199 0
-22 -81 -82 -98 -99 -114 -115 -144 -145 -157 -158 -169 -170 -180 -181 -190 -191 -200 0
-22 -81 -82 -98 -99 -114 -115 -144 -145 -157 -158 -169 -170 -180 -181 -190 -191 -209 0
-22 -81 -82 -98 -99 -114 -115 -144 -145 -157 -158 -169 -170 -180 -181 -200 -201 -209 0
-22 -81 -82 -98 -99 -114 -115 -144 -145 -157 -158 -169 -170 -191 -192 -200 -201 -209 0
-22 -81 -82 -98 -99 -114 -115 -144 -145 -157 -158 -181 -182 -191 -192 -200 -201 -209 0
-22 -81 -82 -98 -99 -114 -115 -144 -145 -170 -171 -181 -182 -191 -192 -200 -201 -209 0
-22 -81 -82 -98 -99 -114 -115 -158 -159 -170 -171 -181 -182 -191 -192 -200 -201 -209 0
-21 -80 -81 -97 -98 -129 -130 -143 -144 -156 -157 -168 -169 -179 -180 -189 -190 -199 0
-22 -80 -82 -97 -98 -129 -130 -143 -144 -156 -157 -168 -169 -179 -180 -189 -190 -199 0
-22 -81 -82 -97 -99 -129 -130 -143 -144 -156 -157 -168 -169 -179 -180 -189 -190 -199 0
-22 -81 -82 -98 -99 -129 -131 -143 -144 -156 -157 -168 -169 -179 -180 -189 -190 -199 0
-22 -81 -82 -98 -99 -130 -131 -143 -145 -156 -157 -168 -169 -179 -180 -189 -190 -199 0
-22 -81 -82 -98 -99 -130 -131 -144 -145 -156 -158 -168 -169 -179 -180 -189 -190 -199 0
-22 -81 -82 -98 -99 -130 -131 -144 -145 -157 -158 -168 -170 -179 -180 -189 -190 -199 0
-22 -81 -82 -98 -99 -130 -131 -144 -145 -157 -158 -169 -170 -179 -181 -189 -190 -199 0
-22 -81 -82 -98 -99 -130 -131 -144 -145 -157 -158 -169 -170 -180 -181 -189 -191 -199 0
-22 -81 -82 -98 -99 -130 -131 -144 -145 -157 -158 -169 -170 -180 -181 -190 -191 -200 0
-22 -81 -82 -98 -99 -130 -131 -144 -145 -157 -158 -169 -170 -180 -181 -190 -191 -209 0
-22 -81 -82 -98 -99 -130 -131 -144 -145 -157 -158 -169 -170 -180 -181 -200 -201 -209 0
-22 -81 -82 -98 -99 -130 -131 -144 -145 -157 -158 -169 -170 -191 -192 -200 -201 -209 0
-22 -81 -82 -98 -99 -130 -131 -144 -145 -157 -158 -181 -182 -191 -192 -200 -201 -209 0
-22 -81 -82 -98 -99 -130 -131 -144 -145 -170 -171 -181 -182 -191 -192 -200 -201 -209 0
-22 -81 -82 -98 -99 -130 -131 -158 -159 -170 -171 -181 -182 -191 -192 -200 -201 -209 0
-22 -81 -82 -98 -99 -145 -146 -158 -159 -170 -171 -181 -182 -191 -192 -200 -201 -209 0
-21 -80 -81 -114 -115 -129 -130 -143 -144 -156 -157 -168 -169 -179 -180 -189 -190 -199 0
-22 -80 -82 -114 -115 -129 -130 -143 -144 -156 -157 -168 -169 -179 -180 -189 -190 -199 0
-22 -81 -82 -114 -116 -129 -130 -143 -144 -156 -157 -168 -169 -179 -180 -189 -190 -199 0
-22 -81 -82 -115 -116 -129 -131 -143 -144 -156 -157 -168 -169 -179 -180 -189 -190 -199 0
-22 -81 -82 -115 -116 -130 -131 -143 -145 -156 -157 -168 -169 -179 -180 -189 -190 -199 0
-22 -81 -82 -115 -116 -130 -131 -144 -145 -156 -158 -168 -169 -179 -180 -189 -190 -199 0
-22 -81 -82 -115 -116 -130 -131 -144 -145 -157 -158 -168 -170 -179 -180 -189 -190 -199 0
-22 -81 -82 -115 -116 -130 -131 -144 -145 -157 -158 -169 -170 -179 -181 -189 -190 -199 0
-22 -81 -82 -115 -116 -130 -131 -144 -145 -157 -158 -169 -170 -180 -181 -189 -191 -199 0
-22 -81 -82 -115 -116 -130 -131 -144 -145 -157 -158 -169 -170 -180 -181 -190 -191 -200 0
-22 -81 -82 -115 -116 -130 -131 -144 -145 -157 -158 -169 -170 -180 -181 -190 -191 -209 0
-22 -81 -82 -115 -116 -130 -131 -144 -145 -157 -158 -169 -170 -180 -181 -200 -201 -209 0
-22 -81 -82 -115 -116 -130 -131 -144 -145 -157 -158 -169 -170 -191 -192 -200 -201 -209 0
-22 -81 -82 -115 -116 -130 -131 -144 -145 -157 -158 -181 -182 -191 -192 -200 -201 -209 0
-22 -81 -82 -115 -116 -130 -131 -144 -145 -170 -171 -181 -182 -191 -192 -200 -201 -209 0
-22 -81 -82 -115 -116 -130 -131 -158 -159 -170 -171 -181 -182 -191 -192 -200 -201 -209 0
-22 -81 -82 -115 -116 -145 -146 -158 -159 -170 -171 -181 -182 -191 -192 -200 -201 -209 0
-22 -81 -82 -131 -132 -145 -146 -158 -159 -170 -171 -181 -182 -191 -192 -200 -201 -209 0
-21 -98 -99 -114 -115 -129 -130 -143 -144 -156 -157 -168 -169 -179 -180 -189 -190 -199 0
-22 -98 -100 -114 -115 -129 -130 -143 -144 -156 -157 -168 -169 -179 -180 -189 -190 -199 0
-22 -99 -100 -114 -116 -129 -130 -143 -144 -156 -157 -168 -169 -179 -180 -189 -190 -199 0
-22 -99 -100 -115 -116 -129 -131 -143 -144 -156 -157 -168 -169 -179 -180 -189 -190 -199 0
-22 -99 -100 -115 -116 -130 -131 -143 -145 -156 -157 -168 -169 -179 -180 -189 -190 -199 0
-22 -99 -100 -115 -116 -130 -131 -144 -145 -156 -158 -168 -169 -179 -180 -189 -190 -199 0
-22 -99 -100 -115 -116 -130 -131 -144 -145 -157 -158 -168 -170 -179 -180 -189 -190 -199 0
-22 -99 -100 -115 -116 -130 -131 -144 -145 -157 -158 -169 -170 -179 -181 -189 -190 -199 0
-22 -99 -100 -115 -116 -130 -131 -144 -145 -157 -158 -169 -170 -180 -181 -189 -191 -199 0
-22 -99 -100 -115 -116 -130 -131 -144 -145 -157 -158 -169 -170 -180 -181 -190 -191 -200 0
-22 -99 -100 -115 -116 -130 -131 -144 -145 -157 -158 -169 -170 -180 -181 -190 -191 -209 0
-22 -99 -100 -115 -116 -130 -131 -144 -145 -157 -158 -169 -170 -180 -181 -200 -201 -209 0
-22 -99 -100 -115 -116 -130 -131 -144 -145 -157 -158 -169 -170 -191 -192 -200 -201 -209 0
-22 -99 -100 -115 -116 -130 -131 -144 -145 -157 -158 -181 -182 -191 -192 -200 -201 -209 0
-22 -99 -100 -115 -116 -130 -131 -144 -145 -170 -171 -181 -182 -191 -192 -200 -201 -209 0
-22 -99 -100 -115 -116 -130 -131 -158 -159 -170 -171 -181 -182 -191 -192 -200 -201 -209 0
-22 -99 -100 -115 -116 -145 -146 -158 -159 -170 -171 -181 -182 -191 -192 -200 -201 -209 0
-22 -99 -100 -131 -132 -145 -146 -158 -159 -170 -171 -181 -182 -191 -192 -200 -201 -209 0
-22 -116 -117 -131 -132 -145 -146 -158 -159 -170 -171 -181 -182 -191 -192 -200 -201 -209 0
-40 -59 -60 -77 -78 -94 -95 -110 -111 -125 -126 -139 -140 -152 -153 -164 -165 -176 0
-41 -59 -61 -77 -78 -94 -95 -110 -111 -125 -126 -139 -140 -152 -153 -164 -165 -176 0
-42 -59 -62 -77 -78 -94 -95 -110 -111 -125 -126 -139 -140 -152 -153 -164 -165 -176 0
-43 -59 -63 -77 -78 -94 -95 -110 -111 -125 -126 -139 -140 -152 -153 -164 -165 -176 0
-41 -60 -61 -77 -79 -94 -95 -110 -111 -125 -126 -139 -140 -152 -153 -164 -165 -176 0
-42 -60 -62 -77 -79 -94 -95 -110 -111 -125 -126 -139 -140 -152 -153 -164 -165 -176 0
-43 -60 -63 -77 -79 -94 -95 -110 -111 -125 -126 -139 -140 -152 -153 -164 -165 -176 0
-42 -61 -62 -77 -80 -94 -95 -110 -111 -125 -126 -139 -140 -152 -153 -164 -165 -176 0
-43 -61 -63 -77 -80 -94 -95 -110 -111 -125 -126 -139 -140 -152 -153 -164 -165 -176 0
-43 -62 -63 -77 -81 -94 -95 -110 -111 -125 -126 -139 -140 -152 -153 -164 -165 -176 0
-41 -60 -61 -78 -79 -94 -96 -110 -111 -125 -126 -139 -140 -152 -153 -164 -165 -176 0
-42 -60 -62 -78 -79 -94 -96 -110 -111 -125 -126 -139 -140 -152 -153 -164 -165 -176 0
-43 -60 -63 -78 -79 -94 -96 -110 -111 -125 -126 -139 -140 -152 -153 -164 -165 -176 0
-42 -61 -62 -78 -80 -94 -96 -110 -111 -125 -126 -139 -140 -152 -153 -164 -165 -176 0
-43 -61 -63 -78 -80 -94 -96 -110 -111 -125 -126 -139 -140 -152 -153 -164 -165 -176 0
-43 -62 -63 -78 -81 -94 -96 -110 -111 -125 -126 -139 -140 -152 -153 -164 -165 -176 0
-42 -61 -62 -79 -80 -94 -97 -110 -111 -125 -126 -139 -140 -152 -153 -164 -165 -176 0
-43 -61 -63 -79 -80 -94 -97 -110 -111 -125 -126 -139 -140 -152 -153 -164 -165 -176 0
-43 -62 -63 -79 -81 -94 -97 -110 -111 -125 -126 -139 -140 -152 -153 -164 -165 -176 0
-43 -62 -63 -80 -81 -94 -98 -110 -111 -125 -126 -139 -140 -152 -153 -164 -165 -176 0
-41 -60 -61 -78 -79 -95 -96 -110 -112 -125 -126 -139 -140 -152 -153 -164 -165 -176 0
-42 -60 -62 -78 -79 -95 -96 -110 -112 -125 -126 -139 -140 -152 -153 -164 -165 -176 0
-43 -60 -63 -78 -79 -95 -96 -110 -112 -125 -126 -139 -140 -152 -153 -164 -165 -176 0
-42 -61 -62 -78 -80 -95 -96 -110 -112 -125 -126 -139 -140 -152 -153 -164 -165 -176 0
-43 -61 -63 -78 -80 -95 -96 -110 -112 -125 -126 -139 -140 -152 -153 -164 -165 -176 0
-43 -62 -63 -78 -81 -95 -96 -110 -112 -125 -126 -139 -140 -152 -153 -164 -165 -176 0
-42 -61 -62 -79 -80 -95 -97 -110 -112 -125 -126 -139 -140 -152 -153 -164 -165 -176 0
-43 -61 -63 -79 -80 -95 -97 -110 -112 -125 -126 -139 -140 -152 -153 -164 -165 -176 0
-43 -62 -63 -79 -81 -95 -97 -110 -112 -125 -126 -139 -140 -152 -153 -164 -165 -176 0
-43 -62 -63 -80 -81 -95 -98 -110 -112 -125 -126 -139 -140 -152 -153 -164 -165 -176 0
-42 -61 -62 -79 -80 -96 -97 -110 -113 -125 -126 -139 -140 -152 -153 -164 -165 -176 0
-43 -61 -63 -79 -80 -96 -97 -110 -113 -125 -126 -139 -140 -152 -153 -164 -165 -176 0
-43 -62 -63 -79 -81 -96 -97 -110 -113 -125 -126 -139 -140 -152 -153 -164 -165 -176 0
-43 -62 -63 -80 -81 -96 -98 -110 -113 -125 -126 -139 -140 -152 -153 -164 -165 -176 0
-43 -62 -63 -80 -81 -97 -98 -110 -114 -125 -126 -139 -140 -152 -153 -164 -165 -176 0
-41 -60 -61 -78 -79 -95 -96 -111 -112 -125 -127 -139 -140 -152 -153 -164 -165 -176 0
-42 -60 -62 -78 -79 -95 -96 -111 -112 -125 -127 -139 -140 -152 -153 -164 -165 -176 0
-43 -60 -63 -78 -79 -95 -96 -111 -112 -125 -127 -139 -140 -152 -153 -164 -165 -176 0
-42 -61 -62 -78 -80 -95 -96 -111 -112 -125 -127 -139 -140 -152 -153 -164 -165 -176 0
-43 -61 -63 -78 -80 -95 -96 -111 -112 -125 -127 -139 -140 -152 -153 -164 -165 -176 0
-43 -62 -63 -78 -81 -95 -96 -111 -112 -125 -127 -139 -140 -152 -153 -164 -165 -176 0
-42 -61 -62 -79 -80 -95 -97 -111 -112 -125 -127 -139 -140 -152 -153 -164 -165 -176 0
-43 -61 -63 -79 -80 -95 -97 -111 -112 -125 -127 -139 -140 -152 -153 -164 -165 -176 0
-43 -62 -63 -79 -81 -95 -97 -111 -112 -125 -127 -139 -140 -152 -153 -164 -165 -176 0
-43 -62 -63 -80 -81 -95 -98 -111 -112 -125 -127 -139 -140 -152 -153 -164 -165 -176 0
-42 -61 -62 -79 -80 -96 -97 -111 -113 -125 -127 -139 -140 -152 -153 -164 -165 -176 0
-43 -61 -63 -79 -80 -96 -97 -111 -113 -125 -127 -139 -140 -152 -153 -164 -165 -176 0
-43 -62 -63 -79 -81 -96 -97 -111 -113 -125 -127 -139 -140 -152 -153 -164 -165 -176 0
-43 -62 -63 -80 -81 -96 -98 -111 -113 -125 -127 -139 -140 -152 -153 -164 -165 -176 0
-43 -62 -63 -80 -81 -97 -98 -111 -114 -125 -127 -139 -140 -152 -153 -164 -165 -176 0
-42 -61 -62 -79 -80 -96 -97 -112 -113 -125 -128 -139 -140 -152 -153 -164 -165 -176 0
-43 -61 -63 -79 -80 -96 -97 -112 -113 -125 -128 -139 -140 -152 -153 -164 -165 -176 0
-43 -62 -63 -79 -81 -96 -97 -112 -113 -125 -128 -139 -140 -152 -153 -164 -165 -176 0
-43 -62 -63 -80 -81 -96 -98 -112 -113 -125 -128 -139 -140 -152 -153 -164 -165 -176 0
-43 -62 -63 -80 -81 -97 -98 -112 -114 -125 -128 -139 -140 -152 -153 -164 -165 -176 0
-43 -62 -63 -80 -81 -97 -98 -113 -114 -125 -129 -139 -140 -152 -153 -164 -165 -176 0
-41 -60 -61 -78 -79 -95 -96 -111 -112 -126 -127 -139 -141 -152 -153 -164 -165 -176 0
-42 -60 -62 -78 -79 -95 -96 -111 -112 -126 -127 -139 -141 -152 -153 -164 -165 -176 0
-43 -60 -63 -78 -79 -95 -96 -111 -112 -126 -127 -139 -141 -152 -153 -164 -165 -176 0
-42 -61 -62 -78 -80 -95 -96 -111 -112 -126 -127 -139 -141 -152 -153 -164 -165 -176 0
-43 -61 -63 -78 -80 -95 -96 -111 -112 -126 -127 -139 -141 -152 -153 -164 -165 -176 0
-43 -62 -63 -78 -81 -95 -96 -111 -112 -126 -127 -139 -141 -152 -153 -164 -165 -176 0
-42 -61 -62 -79 -80 -95 -97 -111 -112 -126 -127 -139 -141 -152 -153 -164 -165 -176 0
-43 -61 -63 -79 -80 -95 -97 -111 -112 -126 -127 -139 -141 -152 -153 -164 -165 -176 0
-43 -62 -63 -79 -81 -95 -97 -111 -112 -126 -127 -139 -141 -152 -153 -164 -165 -176 0
-43 -62 -63 -80 -81 -95 -98 -111 -112 -126 -127 -139 -141 -152 -153 -164 -165 -176 0
-42 -61 -62 -79 -80 -96 -97 -111 -113 -126 -127 -139 -141 -152 -153 -164 -165 -176 0
-43 -61 -63 -79 -80 -96 -97 -111 -113 -126 -127 -139 -141 -152 -153 -164 -165 -176 0
-43 -62 -63 -79 -81 -96 -97 -111 -113 -126 -127 -139 -141 -152 -153 -164 -165 -176 0
-43 -62 -63 -80 -81 -96 -98 -111 -113 -126 -127 -139 -141 -152 -153 -164 -165 -176 0
-43 -62 -63 -80 -81 -97 -98 -111 -114 -126 -127 -139 -141 -152 -153 -164 -165 -176 0
-42 -61 -62 -79 -80 -96 -97 -112 -113 -126 -128 -139 -141 -152 -153 -164 -165 -176 0
-43 -61 -63 -79 -80 -96 -97 -112 -113 -126 -128 -139 -141 -152 -153 -164 -165 -176 0
-43 -62 -63 -79 -81 -96 -97 -112 -113 -126 -128 -139 -141 -152 -153 -164 -165 -176 0
-43 -62 -63 -80 -81 -96 -98 -112 -113 -126 -128 -139 -141 -152 -153 -164 -165 -176 0
-43 -62 -63 -80 -81 -97 -98 -112 -114 -126 -128 -139 -141 -152 -153 -164 -165 -176 0
-43 -62 -63 -80 -81 -97 -98 -113 -114 -126 -129 -139 -141 -152 -153 -164 -165 -176 0
-42 -61 -62 -79 -80 -96 -97 -112 -113 -127 -128 -139 -142 -152 -153 -164 -165 -176 0
-43 -61 -63 -79 -80 -96 -97 -112 -113 -127 -128 -139 -142 -152 -153 -164 -165 -176 0
-43 -62 -63 -79 -81 -96 -97 -112 -113 -127 -128 -139 -142 -152 -153 -164 -165 -176 0
-43 -62 -63 -80 -81 -96 -98 -112 -113 -127 -128 -139 -142 -152 -153 -164 -165 -176 0
-43 -62 -63 -80 -81 -97 -98 -112 -114 -127 -128 -139 -142 -152 -153 -164 -165 -176 0
-43 -62 -63 -80 -81 -97 -98 -113 -114 -127 -129 -139 -142 -152 -153 -164 -165 -176 0
-43 -62 -63 -80 -81 -97 -98 -113 -114 -128 -129 -139 -143 -152 -153 -164 -165 -176 0
-41 -60 -61 -78 -79 -95 -96 -111 -112 -126 -127 -140 -141 -152 -154 -164 -165 -176 0
-42 -60 -62 -78 -79 -95 -96 -111 -112 -126 -127 -140 -141 -152 -154 -164 -165 -176 0
-43 -60 -63 -78 -79 -95 -96 -111 -112 -126 -127 -140 -141 -152 -154 -164 -165 -176 0
-42 -61 -62 -78 -80 -95 -96 -111 -112 -126 -127 -140 -141 -152 -154 -164 -165 -176 0
-43 -61 -63 -78 -80 -95 -96 -111 -112 -126 -127 -140 -141 -152 -154 -164 -165 -176 0
-43 -62 -63 -78 -81 -95 -96 -111 -112 -126 -127 -140 -141 -152 -154 -164 -165 -176 0
-42 -61 -62 -79 -80 -95 -97 -111 -112 -126 -127 -140 -141 -152 -154 -164 -165 -176 0
-43 -61 -63 -79 -80 -95 -97 -111 -112 -126 -127 -140 -141 -152 -154 -164 -165 -176 0
-43 -62 -63 -79 -81 -95 -97 -111 -112 -126 -127 -140 -141 -152 -154 -164 -165 -176 0
-43 -62 -63 -80 -81 -95 -98 -111 -112 -126 -127 -140 -141 -152 -154 -164 -165 -176 0
-42 -61 -62 -79 -80 -96 -97 -111 -113 -126 -127 -140 -141 -152 -154 -164 -165 -176 0
-43 -61 -63 -79 -80 -96 -97 -111 -113 -126 -127 -140 -141 -152 -154 -164 -165 -176 0
-43 -62 -63 -79 -81 -96 -97 -111 -113 -126 -127 -140 -141 -152 -154 -164 -165 -176 0
-43 -62 -63 -80 -81 -96 -98 -111 -113 -126 -127 -140 -141 -152 -154 -164 -165 -176 0
-43 -62 -63 -80 -81 -97 -98 -111 -114 -126 -127 -140 -141 -152 -154 -164 -165 -176 0
-42 -61 -62 -79 -80 -96 -97 -112 -113 -126 -128 -140 -141 -152 -154 -164 -165 -176 0
-43 -61 -63 -79 -80 -96 -97 -112 -113 -126 -128 -140 -141 -152 -154 -164 -165 -176 0
-43 -62 -63 -79 -81 -96 -97 -112 -113 -126 -128 -140 -141 -152 -154 -164 -165 -176 0
-43 -62 -63 -80 -81 -96 -98 -112 -113 -126 -128 -140 -141 -152 -154 -164 -165 -176 0
-43 -62 -63 -80 -81 -97 -98 -112 -114 -126 -128 -140 -141 -152 -154 -164 -165 -176 0
-43 -62 -63 -80 -81 -97 -98 -113 -114 -126 -129 -140 -141 -152 -154 -164 -165 -176 0
-42 -61 -62 -79 -80 -96 -97 -112 -113 -127 -128 -140 -142 -152 -154 -164 -165 -176 0
-43 -61 -63 -79 -80 -96 -97 -112 -113 -127 -128 -140 -142 -152 -154 -164 -165 -176 0
-43 -62 -63 -79 -81 -96 -97 -112 -113 -127 -128 -140 -142 -152 -154 -164 -165 -176 0
-43 -62 -63 -80 -81 -96 -98 -112 -113 -127 -128 -140 -142 -152 -154 -164 -165 -176 0
-43 -62 -63 -80 -81 -97 -98 -112 -114 -127 -128 -140 -142 -152 -154 -164 -165 -176 0
-43 -62 -63 -80 -81 -97 -98 -113 -114 -127 -129 -140 -142 -152 -154 -164 -165 -176 0
-43 -62 -63 -80 -81 -97 -98 -113 -114 -128 -129 -140 -143 -152 -154 -164 -165 -176 0
-42 -61 -62 -79 -80 -96 -97 -112 -113 -127 -128 -141 -142 -152 -155 -164 -165 -176 0
-43 -61 -63 -79 -80 -96 -97 -112 -113 -127 -128 -141 -142 -152 -155 -164 -165 -176 0
-43 -62 -63 -79 -81 -96 -97 -112 -113 -127 -128 -141 -142 -152 -155 -164 -165 -176 0
-43 -62 -63 -80 -81 -96 -98 -112 -113 -127 -128 -141 -142 -152 -155 -164 -165 -176 0
-43 -62 -63 -80 -81 -97 -98 -112 -114 -127 -128 -141 -142 -152 -155 -164 -165 -176 0
-43 -62 -63 -80 -81 -97 -98 -113 -114 -127 -129 -141 -142 -152 -155 -164 -165 -176 0
-43 -62 -63 -80 -81 -97 -98 -113 -114 -128 -129 -141 -143 -152 -155 -164 -165 -176 0
-43 -62 -63 -80 -81 -97 -98 -113 -114 -128 -129 -142 -143 -152 -156 -164 -165 -176 0
-41 -60 -61 -78 -79 -95 -96 -111 -112 -126 -127 -140 -141 -153 -154 -164 -166 -176 0
-42 -60 -62 -78 -79 -95 -96 -111 -112 -126 -127 -140 -141 -153 -154 -164 -166 -176 0
-43 -60 -63 -78 -79 -95 -96 -111 -112 -126 -127 -140 -141 -153 -154 -164 -166 -176 0
-42 -61 -62 -78 -80 -95 -96 -111 -112 -126 -127 -140 -141 -153 -154 -164 -166 -176 0
-43 -61 -63 -78 -80 -95 -96 -111 -112 -126 -127 -140 -141 -153 -154 -164 -166 -176 0
-43 -62 -63 -78 -81 -95 -96 -111 -112 -126 -127 -140 -141 -153 -154 -164 -166 -176 0
-42 -61 -62 -79 -80 -95 -97 -111 -112 -126 -127 -140 -141 -153 -154 -164 -166 -176 0
-43 -61 -63 -79 -80 -95 -97 -111 -112 -126 -127 -140 -141 -153 -154 -164 -166 -176 0
-43 -62 -63 -79 -81 -95 -97 -111 -112 -126 -127 -140 -141 -153 -154 -164 -166 -176 0
-43 -62 -63 -80 -81 -95 -98 -111 -112 -126 -127 -140 -141 -153 -154 -164 -166 -176 0
-42 -61 -62 -79 -80 -96 -97 -111 -113 -126 -127 -140 -141 -153 -154 -164 -166 -176 0
-43 -61 -63 -79 -80 -96 -97 -111 -113 -126 -127 -140 -141 -153 -154 -164 -166 -176 0
-43 -62 -63 -79 -81 -96 -97 -111 -113 -126 -127 -140 -141 -153 -154 -164 -166 -176 0
-43 -62 -63 -80 -81 -96 -98 -111 -113 -126 -127 -140 -141 -153 -154 -164 -166 -176 0
-43 -62 -63 -80 -81 -97 -98 -111 -114 -126 -127 -140 -141 -153 -154 -164 -166 -176 0
-42 -61 -62 -79 -80 -96 -97 -112 -113 -126 -128 -140 -141 -153 -154 -164 -166 -176 0
-43 -61 -63 -79 -80 -96 -97 -112 -113 -126 -128 -140 -141 -153 -154 -164 -166 -176 0
-43 -62 -63 -79 -81 -96 -97 -112 -113 -126 -128 -140 -141 -153 -154 -164 -166 -176 0
-43 -62 -63 -80 -81 -96 -98 -112 -113 -126 -128 -140 -141 -153 -154 -164 -166 -176 0
-43 -62 -63 -80 -81 -97 -98 -112 -114 -126 -128 -140 -141 -153 -154 -164 -166 -176 0
-43 -62 -63 -80 -81 -97 -98 -113 -114 -126 -129 -140 -141 -153 -154 -164 -166 -176 0
-42 -61 -62 -79 -80 -96 -97 -112 -113 -127 -128 -140 -142 -153 -154 -164 -166 -176 0
-43 -61 -63 -79 -80 -96 -97 -112 -113 -127 -128 -140 -142 -153 -154 -164 -166 -176 0
-43 -62 -63 -79 -81 -96 -97 -112 -113 -127 -128 -140 -142 -153 -154 -164 -166 -176 0
-43 -62 -63 -80 -81 -96 -98 -112 -113 -127 -128 -140 -142 -153 -154 -164 -166 -176 0
-43 -62 -63 -80 -81 -97 -98 -112 -114 -127 -128 -140 -142 -153 -154 -164 -166 -176 0
-43 -62 -63 -80 -81 -97 -98 -113 -114 -127 -129 -140 -142 -153 -154 -164 -166 -176 0
-43 -62 -63 -80 -81 -97 -98 -113 -114 -128 -129 -140 -143 -153 -154 -164 -166 -176 0
-42 -61 -62 -79 -80 -96 -97 -112 -113 -127 -128 -141 -142 -153 -155 -164 -166 -176 0
-43 -61 -63 -79 -80 -96 -97 -112 -113 -127 -128 -141 -142 -153 -155 -164 -166 -176 0
-43 -62 -63 -79 -81 -96 -97 -112 -113 -127 -128 -141 -142 -153 -155 -164 -166 -176 0
-43 -62 -63 -80 -81 -96 -98 -112 -113 -127 -128 -141 -142 -153 -155 -164 -166 -176 0
-43 -62 -63 -80 -81 -97 -98 -112 -114 -127 -128 -141 -142 -153 -155 -164 -166 -176 0
-43 -62 -63 -80 -81 -97 -98 -113 -114 -127 -129 -141 -142 -153 -155 -164 -166 -176 0
-43 -62 -63 -80 -81 -97 -98 -113 -114 -128 -129 -141 -143 -153 -155 -164 -166 -176 0
-43 -62 -63 -80 -81 -97 -98 -113 -114 -128 -129 -142 -143 -153 -156 -164 -166 -176 0
-42 -61 -62 -79 -80 -96 -97 -112 -113 -127 -128 -141 -142 -154 -155 -164 -167 -176 0
-43 -61 -63 -79 -80 -96 -97 -112 -113 -127 -128 -141 -142 -154 -155 -164 -167 -176 0
-43 -62 -63 -79 -81 -96 -97 -112 -113 -127 -128 -141 -142 -154 -155 -164 -167 -176 0
-43 -62 -63 -80 -81 -96 -98 -112 -113 -127 -128 -141 -142 -154 -155 -164 -167 -176 0
-43 -62 -63 -80 -81 -97 -98 -112 -114 -127 -128 -141 -142 -154 -155 -164 -167 -176 0
-43 -62 -63 -80 -81 -97 -98 -113 -114 -127 -129 -141 -142 -154 -155 -164 -167 -176 0
-43 -62 -63 -80 -81 -97 -98 -113 -114 -128 -129 -141 -143 -154 -155 -164 -167 -176 0
-43 -62 -63 -80 -81 -97 -98 -113 -114 -128 -129 -142 -143 -154 -156 -164 -167 -176 0
-43 -62 -63 -80 -81 -97 -98 -113 -114 -128 -129 -142 -143 -155 -156 -164 -168 -176 0
-41 -60 -61 -78 -79 -95 -96 -111 -112 -126 -127 -140 -141 -153 -154 -165 -166 -177 0
-42 -60 -62 -78 -79 -95 -96 -111 -112 -126 -127 -140 -141 -153 -154 -165 -166 -177 0
-43 -60 -63 -78 -79 -95 -96 -111 -112 -126 -127 -140 -141 -153 -154 -165 -166 -177 0
-42 -61 -62 -78 -80 -95 -96 -111 -112 -126 -127 -140 -141 -153 -154 -165 -166 -177 0
-43 -61 -63 -78 -80 -95 -96 -111 -112 -126 -127 -140 -141 -153 -154 -165 -166 -177 0
-43 -62 -63 -78 -81 -95 -96 -111 -112 -126 -127 -140 -141 -153 -154 -165 -166 -177 0
-42 -61 -62 -79 -80 -95 -97 -111 -112 -126 -127 -140 -141 -153 -154 -165 -166 -177 0
-43 -61 -63 -79 -80 -95 -97 -111 -112 -126 -127 -140 -141 -153 -154 -165 -166 -177 0
-43 -62 -63 -79 -81 -95 -97 -111 -112 -126 -127 -140 -141 -153 -154 -165 -166 -177 0
-43 -62 -63 -80 -81 -95 -98 -111 -112 -126 -127 -140 -141 -153 -154 -165 -166 -177 0
-42 -61 -62 -79 -80 -96 -97 -111 -113 -126 -127 -140 -141 -153 -154 -165 -166 -177 0
-43 -61 -63 -79 -80 -96 -97 -111 -113 -126 -127 -140 -141 -153 -154 -165 -166 -177 0
-43 -62 -63 -79 -81 -96 -97 -111 -113 -126 -127 -140 -141 -153 -154 -165 -166 -177 0
-43 -62 -63 -80 -81 -96 -98 -111 -113 -126 -127 -140 -141 -153 -154 -165 -166 -177 0
-43 -62 -63 -80 -81 -97 -98 -111 -114 -126 -127 -140 -141 -153 -154 -165 -166 -177 0
-42 -61 -62 -79 -80 -96 -97 -112 -113 -126 -128 -140 -141 -153 -154 -165 -166 -177 0
-43 -61 -63 -79 -80 -96 -97 -112 -113 -126 -128 -140 -141 -153 -154 -165 -166 -177 0
-43 -62 -63 -79 -81 -96 -97 -112 -113 -126 -128 -140 -141 -153 -154 -165 -166 -177 0
-43 -62 -63 -80 -81 -96 -98 -112 -113 -126 -128 -140 -141 -153 -154 -165 -166 -177 0
-43 -62 -63 -80 -81 -97 -98 -112 -114 -126 -128 -140 -141 -153 -154 -165 -166 -177 0
-43 -62 -63 -80 -81 -97 -98 -113 -114 -126 -129 -140 -141 -153 -154 -165 -166 -177 0
-42 -61 -62 -79 -80 -96 -97 -112 -113 -127 -128 -140 -142 -153 -154 -165 -166 -177 0
-43 -61 -63 -79 -80 -96 -97 -112 -113 -127 -128 -140 -142 -153 -154 -165 -166 -177 0
-43 -62 -63 -79 -81 -96 -97 -112 -113 -127 -128 -140 -142 -153 -154 -165 -166 -177 0
-43 -62 -63 -80 -81 -96 -98 -112 -113 -127 -128 -140 -142 -153 -154 -165 -166 -177 0
-43 -62 -63 -80 -81 -97 -98 -112 -114 -127 -128 -140 -142 -153 -154 -165 -166 -177 0
-43 -62 -63 -80 -81 -97 -98 -113 -114 -127 -129 -140 -142 -153 -154 -165 -166 -177 0
-43 -62 -63 -80 -81 -97 -98 -113 -114 -128 -129 -140 -143 -153 -154 -165 -166 -177 0
-42 -61 -62 -79 -80 -96 -97 -112 -113 -127 -128 -141 -142 -153 -155 -165 -166 -177 0
-43 -61 -63 -79 -80 -96 -97 -112 -113 -127 -128 -141 -142 -153 -155 -165 -166 -177 0
-43 -62 -63 -79 -81 -96 -97 -112 -113 -127 -128 -141 -142 -153 -155 -165 -166 -177 0
-43 -62 -63 -80 -81 -96 -98 -112 -113 -127 -128 -141 -142 -153 -155 -165 -166 -177 0
-43 -62 -63 -80 -81 -97 -98 -112 -114 -127 -128 -141 -142 -153 -155 -165 -166 -177 0
-43 -62 -63 -80 -81 -97 -98 -113 -114 -127 -129 -141 -142 -153 -155 -165 -166 -177 0
-43 -62 -63 -80 -81 -97 -98 -113 -114 -128 -129 -141 -143 -153 -155 -165 -166 -177 0
-43 -62 -63 -80 -81 -97 -98 -113 -114 -128 -129 -142 -143 -153 -156 -165 -166 -177 0
-42 -61 -62 -79 -80 -96 -97 -112 -113 -127 -128 -141 -142 -154 -155 -165 -167 -177 0
-43 -61 -63 -79 -80 -96 -97 -112 -113 -127 -128 -141 -142 -154 -155 -165 -167 -177 0
-43 -62 -63 -79 -81 -96 -97 -112 -113 -127 -128 -141 -142 -154 -155 -165 -167 -177 0
-43 -62 -63 -80 -81 -96 -98 -112 -113 -127 -128 -141 -142 -154 -155 -165 -167 -177 0
-43 -62 -63 -80 -81 -97 -98 -112 -114 -127 -128 -141 -142 -154 -155 -165 -167 -177 0
-43 -62 -63 -80 -81 -97 -98 -113 -114 -127 -129 -141 -142 -154 -155 -165 -167 -177 0
-43 -62 -63 -80 -81 -97 -98 -113 -114 -128 -129 -141 -143 -154 -155 -165 -167 -177 0
-43 -62 -63 -80 -81 -97 -98 -113 -114 -128 -129 -142 -143 -154 -156 -165 -167 -177 0
-43 -62 -63 -80 -81 -97 -98 -113 -114 -128 -129 -142 -143 -155 -156 -165 -168 -177 0
-42 -61 -62 -79 -80 -96 -97 -112 -113 -127 -128 -141 -142 -154 -155 -166 -167 -178 0
-43 -61 -63 -79 -80 -96 -97 -112 -113 -127 -128 -141 -142 -154 -155 -166 -167 -178 0
-43 -62 -63 -79 -81 -96 -97 -112 -113 -127 -128 -141 -142 -154 -155 -166 -167 -178 0
-43 -62 -63 -80 -81 -96 -98 -112 -113 -127 -128 -141 -142 -154 -155 -166 -167 -178 0
-43 -62 -63 -80 -81 -97 -98 -112 -114 -127 -128 -141 -142 -154 -155 -166 -167 -178 0
-43 -62 -63 -80 -81 -97 -98 -113 -114 -127 -129 -141 -142 -154 -155 -166 -167 -178 0
-43 -62 -63 -80 -81 -97 -98 -113 -114 -128 -129 -141 -143 -154 -155 -166 -167 -178 0
-43 -62 -63 -80 -81 -97 -98 -113 -114 -128 -129 -142 -143 -154 -156 -166 -167 -178 0
-43 -62 -63 -80 -81 -97 -98 -113 -114 -128 -129 -142 -143 -155 -156 -166 -168 -178 0
-43 -62 -63 -80 -81 -97 -98 -113 -114 -128 -129 -142 -143 -155 -156 -167 -168 -179 0
-41 -60 -61 -78 -79 -95 -96 -111 -112 -126 -127 -140 -141 -153 -154 -165 -166 -188 0
-42 -60 -62 -78 -79 -95 -96 -111 -112 -126 -127 -140 -141 -153 -154 -165 -166 -188 0
-43 -60 -63 -78 -79 -95 -96 -111 -112 -126 -127 -140 -141 -153 -154 -165 -166 -188 0
-42 -61 -62 -78 -80 -95 -96 -111 -112 -126 -127 -140 -141 -153 -154 -165 -166 -188 0
-43 -61 -63 -78 -80 -95 -96 -111 -112 -126 -127 -140 -141 -153 -154 -165 -166 -188 0
-43 -62 -63 -78 -81 -95 -96 -111 -112 -126 -127 -140 -141 -153 -154 -165 -166 -188 0
-42 -61 -62 -79 -80 -95 -97 -111 -112 -126 -127 -140 -141 -153 -154 -165 -166 -188 0
-43 -61 -63 -79 -80 -95 -97 -111 -112 -126 -127 -140 -141 -153 -154 -165 -166 -188 0
-43 -62 -63 -79 -81 -95 -97 -111 -112 -126 -127 -140 -141 -153 -154 -165 -166 -188 0
-43 -62 -63 -80 -81 -95 -98 -111 -112 -126 -127 -140 -141 -153 -154 -165 -166 -188 0
-42 -61 -62 -79 -80 -96 -97 -111 -113 -126 -127 -140 -141 -153 -154 -165 -166 -188 0
-43 -61 -63 -79 -80 -96 -97 -111 -113 -126 -127 -140 -141 -153 -154 -165 -166 -188 0
-43 -62 -63 -79 -81 -96 -97 -111 -113 -126 -127 -140 -141 -153 -154 -165 -166 -188 0
-43 -62 -63 -80 -81 -96 -98 -111 -113 -126 -127 -140 -141 -153 -154 -165 -166 -188 0
-43 -62 -63 -80 -81 -97 -98 -111 -114 -126 -127 -140 -141 -153 -154 -165 -166 -188 0
-42 -61 -62 -79 -80 -96 -97 -112 -113 -126 -128 -140 -141 -153 -154 -165 -166 -188 0
-43 -61 -63 -79 -80 -96 -97 -112 -113 -126 -128 -140 -141 -153 -154 -165 -166 -188 0
-43 -62 -63 -79 -81 -96 -97 -112 -113 -126 -128 -140 -141 -153 -154 -165 -166 -188 0
-43 -62 -63 -80 -81 -96 -98 -112 -113 -126 -128 -140 -141 -153 -154 -165 -166 -188 0
-43 -62 -63 -80 -81 -97 -98 -112 -114 -126 -128 -140 -141 -153 -154 -165 -166 -188 0
-43 -62 -63 -80 -81 -97 -98 -113 -114 -126 -129 -140 -141 -153 -154 -165 -166 -188 0
-42 -61 -62 -79 -80 -96 -97 -112 -113 -127 -128 -140 -142 -153 -154 -165 -166 -188 0
-43 -61 -63 -79 -80 -96 -97 -112 -113 -127 -128 -140 -142 -153 -154 -165 -166 -188 0
-43 -62 -63 -79 -81 -96 -97 -112 -113 -127 -128 -140 -142 -153 -154 -165 -166 -188 0
-43 -62 -63 -80 -81 -96 -98 -112 -113 -127 -128 -140 -142 -153 -154 -165 -166 -188 0
-43 -62 -63 -80 -81 -97 -98 -112 -114 -127 -128 -140 -142 -153 -154 -165 -166 -188 0
-43 -62 -63 -80 -81 -97 -98 -113 -114 -127 -129 -140 -142 -153 -154 -165 -166 -188 0
-43 -62 -63 -80 -81 -97 -98 -113 -114 -128 -129 -140 -143 -153 -154 -165 -166 -188 0
-42 -61 -62 -79 -80 -96 -97 -112 -113 -127 -128 -141 -142 -153 -155 -165 -166 -188 0
-43 -61 -63 -79 -80 -96 -97 -112 -113 -127 -128 -141 -142 -153 -155 -165 -166 -188 0
-43 -62 -63 -79 -81 -96 -97 -112 -113 -127 -128 -141 -142 -153 -155 -165 -166 -188 0
-43 -62 -63 -80 -81 -96 -98 -112 -113 -127 -128 -141 -142 -153 -155 -165 -166 -188 0
-43 -62 -63 -80 -81 -97 -98 -112 -114 -127 -128 -141 -142 -153 -155 -165 -166 -188 0
-43 -62 -63 -80 -81 -97 -98 -113 -114 -127 -129 -141 -142 -153 -155 -165 -166 -188 0
-43 -62 -63 -80 -81 -97 -98 -113 -114 -128 -129 -141 -143 -153 -155 -165 -166 -188 0
-43 -62 -63 -80 -81 -97 -98 -113 -114 -128 -129 -142 -143 -153 -156 -165 -166 -188 0
-42 -61 -62 -79 -80 -96 -97 -112 -113 -127 -128 -141 -142 -154 -155 -165 -167 -188 0
-43 -61 -63 -79 -80 -96 -97 -112 -113 -127 -128 -141 -142 -154 -155 -165 -167 -188 0
-43 -62 -63 -79 -81 -96 -97 -112 -113 -127 -128 -141 -142 -154 -155 -165 -167 -188 0
-43 -62 -63 -80 -81 -96 -98 -112 -113 -127 -128 -141 -142 -154 -155 -165 -167 -188 0
-43 -62 -63 -80 -81 -97 -98 -112 -114 -127 -128 -141 -142 -154 -155 -165 -167 -188 0
-43 -62 -63 -80 -81 -97 -98 -113 -114 -127 -129 -141 -142 -154 -155 -165 -167 -188 0
-43 -62 -63 -80 -81 -97 -98 -113 -114 -128 -129 -141 -143 -154 -155 -165 -167 -188 0
-43 -62 -63 -80 -81 -97 -98 -113 -114 -128 -129 -142 -143 -154 -156 -165 -167 -188 0
-43 -62 -63 -80 -81 -97 -98 -113 -114 -128 -129 -142 -143 -155 -156 -165 -168 -188 0
-42 -61 -62 -79 -80 -96 -97 -112 -113 -127 -128 -141 -142 -154 -155 -166 -167 -189 0
-43 -61 -63 -79 -80 -96 -97 -112 -113 -127 -128 -141 -142 -154 -155 -166 -167 -189 0
-43 -62 -63 -79 -81 -96 -97 -112 -113 -127 -128 -141 -142 -154 -155 -166 -167 -189 0
-43 -62 -63 -80 -81 -96 -98 -112 -113 -127 -128 -141 -142 -154 -155 -166 -167 -189 0
-43 -62 -63 -80 -81 -97 -98 -112 -114 -127 -128 -141 -142 -154 -155 -166 -167 -189 0
-43 -62 -63 -80 -81 -97 -98 -113 -114 -127 -129 -141 -142 -154 -155 -166 -167 -189 0
-43 -62 -63 -80 -81 -97 -98 -113 -114 -128 -129 -141 -143 -154 -155 -166 -167 -189 0
-43 -62 -63 -80 -81 -97 -98 -113 -114 -128 -129 -142 -143 -154 -156 -166 -167 -189 0
-43 -62 -63 -80 -81 -97 -98 -113 -114 -128 -129 -142 -143 -155 -156 -166 -168 -189 0
-43 -62 -63 -80 -81 -97 -98 -113 -114 -128 -129 -142 -143 -155 -156 -167 -168 -190 0
-42 -61 -62 -79 -80 -96 -97 -112 -113 -127 -128 -141 -142 -154 -155 -166 -167 -199 0
-43 -61 -63 -79 -80 -96 -97 -112 -113 -127 -128 -141 -142 -154 -155 -166 -167 -199 0
-43 -62 -63 -79 -81 -96 -97 -112 -113 -127 -128 -141 -142 -154 -155 -166 -167 -199 0
-43 -62 -63 -80 -81 -96 -98 -112 -113 -127 -128 -141 -142 -154 -155 -166 -167 -199 0
-43 -62 -63 -80 -81 -97 -98 -112 -114 -127 -128 -141 -142 -154 -155 -166 -167 -199 0
-43 -62 -63 -80 -81 -97 -98 -113 -114 -127 -129 -141 -142 -154 -155 -166 -167 -199 0
-43 -62 -63 -80 -81 -97 -98 -113 -114 -128 -129 -141 -143 -154 -155 -166 -167 -199 0
-43 -62 -63 -80 -81 -97 -98 -113 -114 -128 -129 -142 -143 -154 -156 -166 -167 -199 0
-43 -62 -63 -80 -81 -97 -98 -113 -114 -128 -129 -142 -143 -155 -156 -166 -168 -199 0
-43 -62 -63 -80 -81 -97 -98 -113 -114 -128 -129 -142 -143 -155 -156 -167 -168 -200 0
-43 -62 -63 -80 -81 -97 -98 -113 -114 -128 -129 -142 -143 -155 -156 -167 -168 -209 0
-41 -60 -61 -78 -79 -95 -96 -111 -112 -126 -127 -140 -141 -153 -154 -177 -178 -188 0
-42 -60 -62 -78 -79 -95 -96 -111 -112 -126 -127 -140 -141 -153 -154 -177 -178 -188 0
-43 -60 -63 -78 -79 -95 -96 -111 -112 -126 -127 -140 -141 -153 -154 -177 -178 -188 0
-42 -61 -62 -78 -80 -95 -96 -111 -112 -126 -127 -140 -141 -153 -154 -177 -178 -188 0
-43 -61 -63 -78 -80 -95 -96 -111 -112 -126 -127 -140 -141 -153 -154 -177 -178 -188 0
-43 -62 -63 -78 -81 -95 -96 -111 -112 -126 -127 -140 -141 -153 -154 -177 -178 -188 0
-42 -61 -62 -79 -80 -95 -97 -111 -112 -126 -127 -140 -141 -153 -154 -177 -178 -188 0
-43 -61 -63 -79 -80 -95 -97 -111 -112 -126 -127 -140 -141 -153 -154 -177 -178 -188 0
-43 -62 -63 -79 -81 -95 -97 -111 -112 -126 -127 -140 -141 -153 -154 -177 -178 -188 0
-43 -62 -63 -80 -81 -95 -98 -111 -112 -126 -127 -140 -141 -153 -154 -177 -178 -188 0
-42 -61 -62 -79 -80 -96 -97 -111 -113 -126 -127 -140 -141 -153 -154 -177 -178 -188 0
-43 -61 -63 -79 -80 -96 -97 -111 -113 -126 -127 -140 -141 -153 -154 -177 -178 -188 0
-43 -62 -63 -79 -81 -96 -97 -111 -113 -126 -127 -140 -141 -153 -154 -177 -178 -188 0
-43 -62 -63 -80 -81 -96 -98 -111 -113 -126 -127 -140 -141 -153 -154 -177 -178 -188 0
-43 -62 -63 -80 -81 -97 -98 -111 -114 -126 -127 -140 -141 -153 -154 -177 -178 -188 0
-42 -61 -62 -79 -80 -96 -97 -112 -113 -126 -128 -140 -141 -153 -154 -177 -178 -188 0
-43 -61 -63 -79 -80 -96 -97 -112 -113 -126 -128 -140 -141 -153 -154 -177 -178 -188 0
-43 -62 -63 -79 -81 -96 -97 -112 -113 -126 -128 -140 -141 -153 -154 -177 -178 -188 0
-43 -62 -63 -80 -81 -96 -98 -112 -113 -126 -128 -140 -141 -153 -154 -177 -178 -188 0
-43 -62 -63 -80 -81 -97 -98 -112 -114 -126 -128 -140 -141 -153 -154 -177 -178 -188 0
-43 -62 -63 -80 -81 -97 -98 -113 -114 -126 -129 -140 -141 -153 -154 -177 -178 -188 0
-42 -61 -62 -79 -80 -96 -97 -112 -113 -127 -128 -140 -142 -153 -154 -177 -178 -188 0
-43 -61 -63 -79 -80 -96 -97 -112 -113 -127 -128 -140 -142 -153 -154 -177 -178 -188 0
-43 -62 -63 -79 -81 -96 -97 -112 -113 -127 -128 -140 -142 -153 -154 -177 -178 -188 0
-43 -62 -63 -80 -81 -96 -98 -112 -113 -127 -128 -140 -142 -153 -154 -177 -178 -188 0
-43 -62 -63 -80 -81 -97 -98 -112 -114 -127 -128 -140 -142 -153 -154 -177 -178 -188 0
-43 -62 -63 -80 -81 -97 -98 -113 -114 -127 -129 -140 -142 -153 -154 -177 -178 -188 0
-43 -62 -63 -80 -81 -97 -98 -113 -114 -128 -129 -140 -143 -153 -154 -177 -178 -188 0
-42 -61 -62 -79 -80 -96 -97 -112 -113 -127 -128 -141 -142 -153 -155 -177 -178 -188 0
-43 -61 -63 -79 -80 -96 -97 -112 -113 -127 -128 -141 -142 -153 -155 -177 -178 -188 0
-43 -62 -63 -79 -81 -96 -97 -112 -113 -127 -128 -141 -142 -153 -155 -177 -178 -188 0
-43 -62 -63 -80 -81 -96 -98 -112 -113 -127 -128 -141 -142 -153 -155 -177 -178 -188 0
-43 -62 -63 -80 -81 -97 -98 -112 -114 -127 -128 -141 -142 -153 -155 -177 -178 -188 0
-43 -62 -63 -80 -81 -97 -98 -113 -114 -127 -129 -141 -142 -153 -155 -177 -178 -188 0
-43 -62 -63 -80 -81 -97 -98 -113 -114 -128 -129 -141 -143 -153 -155 -177 -178 -188 0
-43 -62 -63 -80 -81 -97 -98 -113 -114 -128 -129 -142 -143 -153 -156 -177 -178 -188 0
-42 -61 -62 -79 -80 -96 -97 -112 -113 -127 -128 -141 -142 -154 -155 -177 -179 -188 0
-43 -61 -63 -79 -80 -96 -97 -112 -113 -127 -128 -141 -142 -154 -155 -177 -179 -188 0
-43 -62 -63 -79 -81 -96 -97 -112 -113 -127 -128 -141 -142 -154 -155 -177 -179 -188 0
-43 -62 -63 -80 -81 -96 -98 -112 -113 -127 -128 -141 -142 -154 -155 -177 -179 -188 0
-43 -62 -63 -80 -81 -97 -98 -112 -114 -127 -128 -141 -142 -154 -155 -177 -179 -188 0
-43 -62 -63 -80 -81 -97 -98 -113 -114 -127 -129 -141 -142 -154 -155 -177 -179 -188 0
-43 -62 -63 -80 -81 -97 -98 -113 -114 -128 -129 -141 -143 -154 -155 -177 -179 -188 0
-43 -62 -63 -80 -81 -97 -98 -113 -114 -128 -129 -142 -143 -154 -156 -177 -179 -188 0
-43 -62 -63 -80 -81 -97 -98 -113 -114 -128 -129 -142 -143 -155 -156 -177 -180 -188 0
-42 -61 -62 -79 -80 -96 -97 -112 -113 -127 -128 -141 -142 -154 -155 -178 -179 -189 0
-43 -61 -63 -79 -80 -96 -97 -112 -113 -127 -128 -141 -142 -154 -155 -178 -179 -189 0
-43 -62 -63 -79 -81 -96 -97 -112 -113 -127 -128 -141 -142 -154 -155 -178 -179 -189 0
-43 -62 -63 -80 -81 -96 -98 -112 -113 -127 -128 -141 -142 -154 -155 -178 -179 -189 0
-43 -62 -63 -80 -81 -97 -98 -112 -114 -127 -128 -141 -142 -154 -155 -178 -179 -189 0
-43 -62 -63 -80 -81 -97 -98 -113 -114 -127 -129 -141 -142 -154 -155 -178 -179 -189 0
-43 -62 -63 -80 -81 -97 -98 -113 -114 -128 -129 -141 -143 -154 -155 -178 -179 -189 0
-43 -62 -63 -80 -81 -97 -98 -113 -114 -128 -129 -142 -143 -154 -156 -178 -179 -189 0
-43 -62 -63 -80 -81 -97 -98 -113 -114 -128 -129 -142 -143 -155 -156 -178 -180 -189 0
-43 -62 -63 -80 -81 -97 -98 -113 -114 -128 -129 -142 -143 -155 -156 -179 -180 -190 0
-42 -61 -62 -79 -80 -96 -97 -112 -113 -127 -128 -141 -142 -154 -155 -178 -179 -199 0
-43 -61 -63 -79 -80 -96 -97 -112 -113 -127 -128 -141 -142 -154 -155 -178 -179 -199 0
-43 -62 -63 -79 -81 -96 -97 -112 -113 -127 -128 -141 -142 -154 -155 -178 -179 -199 0
-43 -62 -63 -80 -81 -96 -98 -112 -113 -127 -128 -141 -142 -154 -155 -178 -179 -199 0
-43 -62 -63 -80 -81 -97 -98 -112 -114 -127 -128 -141 -142 -154 -155 -178 -179 -199 0
-43 -62 -63 -80 -81 -97 -98 -113 -114 -127 -129 -141 -142 -154 -155 -178 -179 -199 0
-43 -62 -63 -80 -81 -97 -98 -113 -114 -128 -129 -141 -143 -154 -155 -178 -179 -199 0
-43 -62 -63 -80 -81 -97 -98 -113 -114 -128 -129 -142 -143 -154 -156 -178 -179 -199 0
-43 -62 -63 -80 -81 -97 -98 -113 -114 -128 -129 -142 -143 -155 -156 -178 -180 -199 0
-43 -62 -63 -80 -81 -97 -98 -113 -114 -128 -129 -142 -143 -155 -156 -179 -180 -200 0
-43 -62 -63 -80 -81 -97 -98 -113 -114 -128 -129 -142 -143 -155 -156 -179 -180 -209 0
-42 -61 -62 -79 -80 -96 -97 -112 -113 -127 -128 -141 -142 -154 -155 -189 -190 -199 0
-43 -61 -63 -79 -80 -96 -97 -112 -113 -127 -128 -141 -142 -154 -155 -189 -190 -199 0
-43 -62 -63 -79 -81 -96 -97 -112 -113 -127 -128 -141 -142 -154 -155 -189 -190 -199 0
-43 -62 -63 -80 -81 -96 -98 -112 -113 -127 -128 -141 -142 -154 -155 -189 -190 -199 0
-43 -62 -63 -80 -81 -97 -98 -112 -114 -127 -128 -141 -142 -154 -155 -189 -190 -199 0
-43 -62 -63 -80 -81 -97 -98 -113 -114 -127 -129 -141 -142 -154 -155 -189 -190 -199 0
-43 -62 -63 -80 -81 -97 -98 -113 -114 -128 -129 -141 -143 -154 -155 -189 -190 -199 0
-43 -62 -63 -80 -81 -97 -98 -113 -114 -128 -129 -142 -143 -154 -156 -189 -190 -199 0
-43 -62 -63 -80 -81 -97 -98 -113 -114 -128 -129 -142 -143 -155 -156 -189 -191 -199 0
-43 -62 -63 -80 -81 -97 -98 -113 -114 -128 -129 -142 -143 -155 -156 -190 -191 -200 0
-43 -62 -63 -80 -81 -97 -98 -113 -114 -128 -129 -142 -143 -155 -156 -190 -191 -209 0
-43 -62 -63 -80 -81 -97 -98 -113 -114 -128 -129 -142 -143 -155 -156 -200 -201 -209 0
-41 -60 -61 -78 -79 -95 -96 -111 -112 -126 -127 -140 -141 -166 -167 -177 -178 -188 0
-42 -60 -62 -78 -79 -95 -96 -111 -112 -126 -127 -140 -141 -166 -167 -177 -178 -188 0
-43 -60 -63 -78 -79 -95 -96 -111 -112 -126 -127 -140 -141 -166 -167 -177 -178 -188 0
-42 -61 -62 -78 -80 -95 -96 -111 -112 -126 -127 -140 -141 -166 -167 -177 -178 -188 0
-43 -61 -63 -78 -80 -95 -96 -111 -112 -126 -127 -140 -141 -166 -167 -177 -178 -188 0
-43 -62 -63 -78 -81 -95 -96 -111 -112 -126 -127 -140 -141 -166 -167 -177 -178 -188 0
-42 -61 -62 -79 -80 -95 -97 -111 -112 -126 -127 -140 -141 -166 -167 -177 -178 -188 0
-43 -61 -63 -79 -80 -95 -97 -111 -112 -126 -127 -140 -141 -166 -167 -177 -178 -188 0
-43 -62 -63 -79 -81 -95 -97 -111 -112 -126 -127 -140 -141 -166 -167 -177 -178 -188 0
-43 -62 -63 -80 -81 -95 -98 -111 -112 -126 -127 -140 -141 -166 -167 -177 -178 -188 0
-42 -61 -62 -79 -80 -96 -97 -111 -113 -126 -127 -140 -141 -166 -167 -177 -178 -188 0
-43 -61 -63 -79 -80 -96 -97 -111 -113 -126 -127 -140 -141 -166 -167 -177 -178 -188 0
-43 -62 -63 -79 -81 -96 -97 -111 -113 -126 -127 -140 -141 -166 -167 -177 -178 -188 0
-43 -62 -63 -80 -81 -96 -98 -111 -113 -126 -127 -140 -141 -166 -167 -177 -178 -188 0
-43 -62 -63 -80 -81 -97 -98 -111 -114 -126 -127 -140 -141 -166 -167 -177 -178 -188 0
-42 -61 -62 -79 -80 -96 -97 -112 -113 -126 -128 -140 -141 -166 -167 -177 -178 -188 0
-43 -61 -63 -79 -80 -96 -97 -112 -113 -126 -128 -140 -141 -166 -167 -177 -178 -188 0
-43 -62 -63 -79 -81 -96 -97 -112 -113 -126 -128 -140 -141 -166 -167 -177 -178 -188 0
-43 -62 -63 -80 -81 -96 -98 -112 -113 -126 -128 -140 -141 -166 -167 -177 -178 -188 0
-43 -62 -63 -80 -81 -97 -98 -112 -114 -126 -128 -140 -141 -166 -167 -177 -178 -188 0
-43 -62 -63 -80 -81 -97 -98 -113 -114 -126 -129 -140 -141 -166 -167 -177 -178 -188 0
-42 -61 -62 -79 -80 -96 -97 -112 -113 -127 -128 -140 -142 -166 -167 -177 -178 -188 0
-43 -61 -63 -79 -80 -96 -97 -112 -113 -127 -128 -140 -142 -166 -167 -177 -178 -188 0
-43 -62 -63 -79 -81 -96 -97 -112 -113 -127 -128 -140 -142 -166 -167 -177 -178 -188 0
-43 -62 -63 -80 -81 -96 -98 -112 -113 -127 -128 -140 -142 -166 -167 -177 -178 -188 0
-43 -62 -63 -80 -81 -97 -98 -112 -114 -127 -128 -140 -142 -166 -167 -177 -178 -188 0
-43 -62 -63 -80 -81 -97 -98 -113 -114 -127 -129 -140 -142 -166 -167 -177 -178 -188 0
-43 -62 -63 -80 -81 -97 -98 -113 -114 -128 -129 -140 -143 -166 -167 -177 -178 -188 0
-42 -61 -62 -79 -80 -96 -97 -112 -113 -127 -128 -141 -142 -166 -168 -177 -178 -188 0
-43 -61 -63 -79 -80 -96 -97 -112 -113 -127 -128 -141 -142 -166 -168 -177 -178 -188 0
-43 -62 -63 -79 -81 -96 -97 -112 -113 -127 -128 -141 -142 -166 -168 -177 -178 -188 0
-43 -62 -63 -80 -81 -96 -98 -112 -113 -127 -128 -141 -142 -166 -168 -177 -178 -188 0
-43 -62 -63 -80 -81 -97 -98 -112 -114 -127 -128 -141 -142 -166 -168 -177 -178 -188 0
-43 -62 -63 -80 -81 -97 -98 -113 -114 -127 -129 -141 -142 -166 -168 -177 -178 -188 0
-43 -62 -63 -80 -81 -97 -98 -113 -114 -128 -129 -141 -143 -166 -168 -177 -178 -188 0
-43 -62 -63 -80 -81 -97 -98 -113 -114 -128 -129 -142 -143 -166 -169 -177 -178 -188 0
-42 -61 -62 -79 -80 -96 -97 -112 -113 -127 -128 -141 -142 -167 -168 -177 -179 -188 0
-43 -61 -63 -79 -80 -96 -97 -112 -113 -127 -128 -141 -142 -167 -168 -177 -179 -188 0
-43 -62 -63 -79 -81 -96 -97 -112 -113 -127 -128 -141 -142 -167 -168 -177 -179 -188 0
-43 -62 -63 -80 -81 -96 -98 -112 -113 -127 -128 -141 -142 -167 -168 -177 -179 -188 0
-43 -62 -63 -80 -81 -97 -98 -112 -114 -127 -128 -141 -142 -167 -168 -177 -179 -188 0
-43 -62 -63 -80 -81 -97 -98 -113 -114 -127 -129 -141 -142 -167 -168 -177 -179 -188 0
-43 -62 -63 -80 -81 -97 -98 -113 -114 -128 -129 -141 -143 -167 -168 -177 -179 -188 0
-43 -62 -63 -80 -81 -97 -98 -113 -114 -128 -129 -142 -143 -167 -169 -177 -179 -188 0
-43 -62 -63 -80 -81 -97 -98 -113 -114 -128 -129 -142 -143 -168 -169 -177 -180 -188 0
-42 -61 -62 -79 -80 -96 -97 -112 -113 -127 -128 -141 -142 -167 -168 -178 -179 -189 0
-43 -61 -63 -79 -80 -96 -97 -112 -113 -127 -128 -141 -142 -167 -168 -178 -179 -189 0
-43 -62 -63 -79 -81 -96 -97 -112 -113 -127 -128 -141 -142 -167 -168 -178 -179 -189 0
-43 -62 -63 -80 -81 -96 -98 -112 -113 -127 -128 -141 -142 -167 -168 -178 -179 -189 0
-43 -62 -63 -80 -81 -97 -98 -112 -114 -127 -128 -141 -142 -167 -168 -178 -179 -189 0
-43 -62 -63 -80 -81 -97 -98 -113 -114 -127 -129 -141 -142 -167 -168 -178 -179 -189 0
-43 -62 -63 -80 -81 -97 -98 -113 -114 -128 -129 -141 -143 -167 -168 -178 -179 -189 0
-43 -62 -63 -80 -81 -97 -98 -113 -114 -128 -129 -142 -143 -167 -169 -178 -179 -189 0
-43 -62 -63 -80 -81 -97 -98 -113 -114 -128 -129 -142 -143 -168 -169 -178 -180 -189 0
-43 -62 -63 -80 -81 -97 -98 -113 -114 -128 -129 -142 -143 -168 -169 -179 -180 -190 0
-42 -61 -62 -79 -80 -96 -97 -112 -113 -127 -128 -141 -142 -167 -168 -178 -179 -199 0
-43 -61 -63 -79 -80 -96 -97 -112 -113 -127 -128 -141 -142 -167 -168 -178 -179 -199 0
-43 -62 -63 -79 -81 -96 -97 -112 -113 -127 -128 -141 -142 -167 -168 -178 -179 -199 0
-43 -62 -63 -80 -81 -96 -98 -112 -113 -127 -128 -141 -142 -167 -168 -178 -179 -199 0
-43 -62 -63 -80 -81 -97 -98 -112 -114 -127 -128 -141 -142 -167 -168 -178 -179 -199 0
-43 -62 -63 -80 -81 -97 -98 -113 -114 -127 -129 -141 -142 -167 -168 -178 -179 -199 0
-43 -62 -63 -80 -81 -97 -98 -113 -114 -128 -129 -141 -143 -167 -168 -178 -179 -199 0
-43 -62 -63 -80 -81 -97 -98 -113 -114 -128 -129 -142 -143 -167 -169 -178 -179 -199 0
-43 -62 -63 -80 -81 -97 -98 -113 -114 -128 -129 -142 -143 -168 -169 -178 -180 -199 0
-43 -62 -63 -80 -81 -97 -98 -113 -114 -128 -129 -142 -143 -168 -169 -179 -180 -200 0
-43 -62 -63 -80 -81 -97 -98 -113 -114 -128 -129 -142 -143 -168 -169 -179 -180 -209 0
-42 -61 -62 -79 -80 -96 -97 -112 -113 -127 -128 -141 -142 -167 -168 -189 -190 -199 0
-43 -61 -63 -79 -80 -96 -97 -112 -113 -127 -128 -141 -142 -167 -168 -189 -190 -199 0
-43 -62 -63 -79 -81 -96 -97 -112 -113 -127 -128 -141 -142 -167 -168 -189 -190 -199 0
-43 -62 -63 -80 -81 -96 -98 -112 -113 -127 -128 -141 -142 -167 -168 -189 -190 -199 0
-43 -62 -63 -80 -81 -97 -98 -112 -114 -127 -128 -141 -142 -167 -168 -189 -190 -199 0
-43 -62 -63 -80 -81 -97 -98 -113 -114 -127 -129 -141 -142 -167 -168 -189 -190 -199 0
-43 -62 -63 -80 -81 -97 -98 -113 -114 -128 -129 -141 -143 -167 -168 -189 -190 -199 0
-43 -62 -63 -80 -81 -97 -98 -113 -114 -128 -129 -142 -143 -167 -169 -189 -190 -199 0
-43 -62 -63 -80 -81 -97 -98 -113 -114 -128 -129 -142 -143 -168 -169 -189 -191 -199 0
-43 -62 -63 -80 -81 -97 -98 -113 -114 -128 -129 -142 -143 -168 -169 -190 -191 -200 0
-43 -62 -63 -80 -81 -97 -98 -113 -114 -128 -129 -142 -143 -168 -169 -190 -191 -209 0
-43 -62 -63 -80 -81 -97 -98 -113 -114 -128 -129 -142 -143 -168 -169 -200 -201 -209 0
-42 -61 -62 -79 -80 -96 -97 -112 -113 -127 -128 -141 -142 -179 -180 -189 -190 -199 0
-43 -61 -63 -79 -80 -96 -97 -112 -113 -127 -128 -141 -142 -179 -180 -189 -190 -199 0
-43 -62 -63 -79 -81 -96 -97 -112 -113 -127 -128 -141 -142 -179 -180 -189 -190 -199 0
-43 -62 -63 -80 -81 -96 -98 -112 -113 -127 -128 -141 -142 -179 -180 -189 -190 -199 0
-43 -62 -63 -80 -81 -97 -98 -112 -114 -127 -128 -141 -142 -179 -180 -189 -190 -199 0
-43 -62 -63 -80 -81 -97 -98 -113 -114 -127 -129 -141 -142 -179 -180 -189 -190 -199 0
-43 -62 -63 -80 -81 -97 -98 -113 -114 -128 -129 -141 -143 -179 -180 -189 -190 -199 0
-43 -62 -63 -80 -81 -97 -98 -113 -114 -128 -129 -142 -143 -179 -181 -189 -190 -199 0
-43 -62 -63 -80 -81 -97 -98 -113 -114 -128 -129 -142 -143 -180 -181 -189 -191 -199 0
-43 -62 -63 -80 -81 -97 -98 -113 -114 -128 -129 -142 -143 -180 -181 -190 -191 -200 0
-43 -62 -63 -80 -81 -97 -98 -113 -114 -128 -129 -142 -143 -180 -181 -190 -191 -209 0
-43 -62 -63 -80 -81 -97 -98 -113 -114 -128 -129 -142 -143 -180 -181 -200 -201 -209 0
-43 -62 -63 -80 -81 -97 -98 -113 -114 -128 -129 -142 -143 -191 -192 -200 -201 -209 0
-41 -60 -61 -78 -79 -95 -96 -111 -112 -126 -127 -154 -155 -166 -167 -177 -178 -188 0
-42 -60 -62 -78 -79 -95 -96 -111 -112 -126 -127 -154 -155 -166 -167 -177 -178 -188 0
-43 -60 -63 -78 -79 -95 -96 -111 -112 -126 -127 -154 -155 -166 -167 -177 -178 -188 0
-42 -61 -62 -78 -80 -95 -96 -111 -112 -126 -127 -154 -155 -166 -167 -177 -178 -188 0
-43 -61 -63 -78 -80 -95 -96 -111 -112 -126 -127 -154 -155 -166 -167 -177 -178 -188 0
-43 -62 -63 -78 -81 -95 -96 -111 -112 -126 -127 -154 -155 -166 -167 -177 -178 -188 0
-42 -61 -62 -79 -80 -95 -97 -111 -112 -126 -127 -154 -155 -166 -167 -177 -178 -188 0
-43 -61 -63 -79 -80 -95 -97 -111 -112 -126 -127 -154 -155 -166 -167 -177 -178 -188 0
-43 -62 -63 -79 -81 -95 -97 -111 -112 -126 -127 -154 -155 -166 -167 -177 -178 -188 0
-43 -62 -63 -80 -81 -95 -98 -111 -112 -126 -127 -154 -155 -166 -167 -177 -178 -188 0
-42 -61 -62 -79 -80 -96 -97 -111 -113 -126 -127 -154 -155 -166 -167 -177 -178 -188 0
-43 -61 -63 -79 -80 -96 -97 -111 -113 -126 -127 -154 -155 -166 -167 -177 -178 -188 0
-43 -62 -63 -79 -81 -96 -97 -111 -113 -126 -127 -154 -155 -166 -167 -177 -178 -188 0
-43 -62 -63 -80 -81 -96 -98 -111 -113 -126 -127 -154 -155 -166 -167 -177 -178 -188 0
-43 -62 -63 -80 -81 -97 -98 -111 -114 -126 -127 -154 -155 -166 -167 -177 -178 -188 0
-42 -61 -62 -79 -80 -96 -97 -112 -113 -126 -128 -154 -155 -166 -167 -177 -178 -188 0
-43 -61 -63 -79 -80 -96 -97 -112 -113 -126 -128 -154 -155 -166 -167 -177 -178 -188 0
-43 -62 -63 -79 -81 -96 -97 -112 -113 -126 -128 -154 -155 -166 -167 -177 -178 -188 0
-43 -62 -63 -80 -81 -96 -98 -112 -113 -126 -128 -154 -155 -166 -167 -177 -178 -188 0
-43 -62 -63 -80 -81 -97 -98 -112 -114 -126 -128 -154 -155 -166 -167 -177 -178 -188 0
-43 -62 -63 -80 -81 -97 -98 -113 -114 -126 -129 -154 -155 -166 -167 -177 -178 -188 0
-42 -61 -62 -79 -80 -96 -97 -112 -113 -127 -128 -154 -156 -166 -167 -177 -178 -188 0
-43 -61 -63 -79 -80 -96 -97 -112 -113 -127 -128 -154 -156 -166 -167 -177 -178 -188 0
-43 -62 -63 -79 -81 -96 -97 -112 -113 -127 -128 -154 -156 -166 -167 -177 -178 -188 0
-43 -62 -63 -80 -81 -96 -98 -112 -113 -127 -128 -154 -156 -166 -167 -177 -178 -188 0
-43 -62 -63 -80 -81 -97 -98 -112 -114 -127 -128 -154 -156 -166 -167 -177 -178 -188 0
-43 -62 -63 -80 -81 -97 -98 -113 -114 -127 -129 -154 -156 -166 -167 -177 -178 -188 0
-43 -62 -63 -80 -81 -97 -98 -113 -114 -128 -129 -154 -157 -166 -167 -177 -178 -188 0
-42 -61 -62 -79 -80 -96 -97 -112 -113 -127 -128 -155 -156 -166 -168 -177 -178 -188 0
-43 -61 -63 -79 -80 -96 -97 -112 -113 -127 -128 -155 -156 -166 -168 -177 -178 -188 0
-43 -62 -63 -79 -81 -96 -97 -112 -113 -127 -128 -155 -156 -166 -168 -177 -178 -188 0
-43 -62 -63 -80 -81 -96 -98 -112 -113 -127 -128 -155 -156 -166 -168 -177 -178 -188 0
-43 -62 -63 -80 -81 -97 -98 -112 -114 -127 -128 -155 -156 -166 -168 -177 -178 -188 0
-43 -62 -63 -80 -81 -97 -98 -113 -114 -127 -129 -155 -156 -166 -168 -177 -178 -188 0
-43 -62 -63 -80 -81 -97 -98 -113 -114 -128 -129 -155 -157 -166 -168 -177 -178 -188 0
-43 -62 -63 -80 -81 -97 -98 -113 -114 -128 -129 -156 -157 -166 -169 -177 -178 -188 0
-42 -61 -62 -79 -80 -96 -97 -112 -113 -127 -128 -155 -156 -167 -168 -177 -179 -188 0
-43 -61 -63 -79 -80 -96 -97 -112 -113 -127 -128 -155 -156 -167 -168 -177 -179 -188 0
-43 -62 -63 -79 -81 -96 -97 -112 -113 -127 -128 -155 -156 -167 -168 -177 -179 -188 0
-43 -62 -63 -80 -81 -96 -98 -112 -113 -127 -128 -155 -156 -167 -168 -177 -179 -188 0
-43 -62 -63 -80 -81 -97 -98 -112 -114 -127 -128 -155 -156 -167 -168 -177 -179 -188 0
-43 -62 -63 -80 -81 -97 -98 -113 -114 -127 -129 -155 -156 -167 -168 -177 -179 -188 0
-43 -62 -63 -80 -81 -97 -98 -113 -114 -128 -129 -155 -157 -167 -168 -177 -179 -188 0
-43 -62 -63 -80 -81 -97 -98 -113 -114 -128 -129 -156 -157 -167 -169 -177 -179 -188 0
-43 -62 -63 -80 -81 -97 -98 -113 -114 -128 -129 -156 -157 -168 -169 -177 -180 -188 0
-42 -61 -62 -79 -80 -96 -97 -112 -113 -127 -128 -155 -156 -167 -168 -178 -179 -189 0
-43 -61 -63 -79 -80 -96 -97 -112 -113 -127 -128 -155 -156 -167 -168 -178 -179 -189 0
-43 -62 -63 -79 -81 -96 -97 -112 -113 -127 -128 -155 -156 -167 -168 -178 -179 -189 0
-43 -62 -63 -80 -81 -96 -98 -112 -113 -127 -128 -155 -156 -167 -168 -178 -179 -189 0
-43 -62 -63 -80 -81 -97 -98 -112 -114 -127 -128 -155 -156 -167 -168 -178 -179 -189 0
-43 -62 -63 -80 -81 -97 -98 -113 -114 -127 -129 -155 -156 -167 -168 -178 -179 -189 0
-43 -62 -63 -80 -81 -97 -98 -113 -114 -128 -129 -155 -157 -167 -168 -178 -179 -189 0
-43 -62 -63 -80 -81 -97 -98 -113 -114 -128 -129 -156 -157 -167 -169 -178 -179 -189 0
-43 -62 -63 -80 -81 -97 -98 -113 -114 -128 -129 -156 -157 -168 -169 -178 -180 -189 0
-43 -62 -63 -80 -81 -97 -98 -113 -114 -128 -129 -156 -157 -168 -169 -179 -180 -190 0
-42 -61 -62 -79 -80 -96 -97 -112 -113 -127 -128 -155 -156 -167 -168 -178 -179 -199 0
-43 -61 -63 -79 -80 -96 -97 -112 -113 -127 -128 -155 -156 -167 -168 -178 -179 -199 0
-43 -62 -63 -79 -81 -96 -97 -112 -113 -127 -128 -155 -156 -167 -168 -178 -179 -199 0
-43 -62 -63 -80 -81 -96 -98 -112 -113 -127 -128 -155 -156 -167 -168 -178 -179 -199 0
-43 -62 -63 -80 -81 -97 -98 -112 -114 -127 -128 -155 -156 -167 -168 -178 -179 -199 0
-43 -62 -63 -80 -81 -97 -98 -113 -114 -127 -129 -155 -156 -167 -168 -178 -179 -199 0
-43 -62 -63 -80 -81 -97 -98 -113 -114 -128 -129 -155 -157 -167 -168 -178 -179 -199 0
-43 -62 -63 -80 -81 -97 -98 -113 -114 -128 -129 -156 -157 -167 -169 -178 -179 -199 0
-43 -62 -63 -80 -81 -97 -98 -113 -114 -128 -129 -156 -157 -168 -169 -178 -180 -199 0
-43 -62 -63 -80 -81 -97 -98 -113 -114 -128 -129 -156 -157 -168 -169 -179 -180 -200 0
-43 -62 -63 -80 -81 -97 -98 -113 -114 -128 -129 -156 -157 -168 -169 -179 -180 -209 0
-42 -61 -62 -79 -80 -96 -97 -112 -113 -127 -128 -155 -156 -167 -168 -189 -190 -199 0
-43 -61 -63 -79 -80 -96 -97 -112 -113 -127 -128 -155 -156 -167 -168 -189 -190 -199 0
-43 -62 -63 -79 -81 -96 -97 -112 -113 -127 -128 -155 -156 -167 -168 -189 -190 -199 0
-43 -62 -63 -80 -81 -96 -98 -112 -113 -127 -128 -155 -156 -167 -168 -189 -190 -199 0
-43 -62 -63 -80 -81 -97 -98 -112 -114 -127 -128 -155 -156 -167 -168 -189 -190 -199 0
-43 -62 -63 -80 -81 -97 -98 -113 -114 -127 -129 -155 -156 -167 -168 -189 -190 -199 0
-43 -62 -63 -80 -81 -97 -98 -113 -114 -128 -129 -155 -157 -167 -168 -189 -190 -199 0
-43 -62 -63 -80 -81 -97 -98 -113 -114 -128 -129 -156 -157 -167 -169 -189 -190 -199 0
-43 -62 -63 -80 -81 -97 -98 -113 -114 -128 -129 -156 -157 -168 -169 -189 -191 -199 0
-43 -62 -63 -80 -81 -97 -98 -113 -114 -128 -129 -156 -157 -168 -169 -190 -191 -200 0
-43 -62 -63 -80 -81 -97 -98 -113 -114 -128 -129 -156 -157 -168 -169 -190 -191 -209 0
-43 -62 -63 -80 -81 -97 -98 -113 -114 -128 -129 -156 -157 -168 -169 -200 -201 -209 0
-42 -61 -62 -79 -80 -96 -97 -112 -113 -127 -128 -155 -156 -179 -180 -189 -190 -199 0
-43 -61 -63 -79 -80 -96 -97 -112 -113 -127 -128 -155 -156 -179 -180 -189 -190 -199 0
-43 -62 -63 -79 -81 -96 -97 -112 -113 -127 -128 -155 -156 -179 -180 -189 -190 -199 0
-43 -62 -63 -80 -81 -96 -98 -112 -113 -127 -128 -155 -156 -179 -180 -189 -190 -199 0
-43 -62 -63 -80 -81 -97 -98 -112 -114 -127 -128 -155 -156 -179 -180 -189 -190 -199 0
-43 -62 -63 -80 -81 -97 -98 -113 -114 -127 -129 -155 -156 -179 -180 -189 -190 -199 0
-43 -62 -63 -80 -81 -97 -98 -113 -114 -128 -129 -155 -157 -179 -180 -189 -190 -199 0
-43 -62 -63 -80 -81 -97 -98 -113 -114 -128 -129 -156 -157 -179 -181 -189 -190 -199 0
-43 -62 -63 -80 -81 -97 -98 -113 -114 -128 -129 -156 -157 -180 -181 -189 -191 -199 0
-43 -62 -63 -80 -81 -97 -98 -113 -114 -128 -129 -156 -157 -180 -181 -190 -191 -200 0
-43 -62 -63 -80 -81 -97 -98 -113 -114 -128 -129 -156 -157 -180 -181 -190 -191 -209 0
-43 -62 -63 -80 -81 -97 -98 -113 -114 -128 -129 -156 -157 -180 -181 -200 -201 -209 0
-43 -62 -63 -80 -81 -97 -98 -113 -114 -128 -129 -156 -157 -191 -192 -200 -201 -209 0
-42 -61 -62 -79 -80 -96 -97 -112 -113 -127 -128 -168 -169 -179 -180 -189 -190 -199 0
-43 -61 -63 -79 -80 -96 -97 -112 -113 -127 -128 -168 -169 -179 -180 -189 -190 -199 0
-43 -62 -63 -79 -81 -96 -97 -112 -113 -127 -128 -168 -169 -179 -180 -189 -190 -199 0
-43 -62 -63 -80 -81 -96 -98 -112 -113 -127 -128 -168 -169 -179 -180 -189 -190 -199 0
-43 -62 -63 -80 -81 -97 -98 -112 -114 -127 -128 -168 -169 -179 -180 -189 -190 -199 0
-43 -62 -63 -80 -81 -97 -98 -113 -114 -127 -129 -168 -169 -179 -180 -189 -190 -199 0
-43 -62 -63 -80 -81 -97 -98 -113 -114 -128 -129 -168 -170 -179 -180 -189 -190 -199 0
-43 -62 -63 -80 -81 -97 -98 -113 -114 -128 -129 -169 -170 -179 -181 -189 -190 -199 0
-43 -62 -63 -80 -81 -97 -98 -113 -114 -128 -129 -169 -170 -180 -181 -189 -191 -199 0
-43 -62 -63 -80 -81 -97 -98 -113 -114 -128 -129 -169 -170 -180 -181 -190 -191 -200 0
-43 -62 -63 -80 -81 -97 -98 -113 -114 -128 -129 -169 -170 -180 -181 -190 -191 -209 0
-43 -62 -63 -80 -81 -97 -98 -113 -114 -128 -129 -169 -170 -180 -181 -200 -201 -209 0
-43 -62 -63 -80 -81 -97 -98 -113 -114 -128 -129 -169 -170 -191 -192 -200 -201 -209 0
-43 -62 -63 -80 -81 -97 -98 -113 -114 -128 -129 -181 -182 -191 -192 -200 -201 -209 0
-41 -60 -61 -78 -79 -95 -96 -111 -112 -141 -142 -154 -155 -166 -167 -177 -178 -188 0
-42 -60 -62 -78 -79 -95 -96 -111 -112 -141 -142 -154 -155 -166 -167 -177 -178 -188 0
-43 -60 -63 -78 -79 -95 -96 -111 -112 -141 -142 -154 -155 -166 -167 -177 -178 -188 0
-42 -61 -62 -78 -80 -95 -96 -111 -112 -141 -142 -154 -155 -166 -167 -177 -178 -188 0
-43 -61 -63 -78 -80 -95 -96 -111 -112 -141 -142 -154 -155 -166 -167 -177 -178 -188 0
-43 -62 -63 -78 -81 -95 -96 -111 -112 -141 -142 -154 -155 -166 -167 -177 -178 -188 0
-42 -61 -62 -79 -80 -95 -97 -111 -112 -141 -142 -154 -155 -166 -167 -177 -178 -188 0
-43 -61 -63 -79 -80 -95 -97 -111 -112 -141 -142 -154 -155 -166 -167 -177 -178 -188 0
-43 -62 -63 -79 -81 -95 -97 -111 -112 -141 -142 -154 -155 -166 -167 -177 -178 -188 0
-43 -62 -63 -80 -81 -95 -98 -111 -112 -141 -142 -154 -155 -166 -167 -177 -178 -188 0
-42 -61 -62 -79 -80 -96 -97 -111 -113 -141 -142 -154 -155 -166 -167 -177 -178 -188 0
-43 -61 -63 -79 -80 -96 -97 -111 -113 -141 -142 -154 -155 -166 -167 -177 -178 -188 0
-43 -62 -63 -79 -81 -96 -97 -111 -113 -141 -142 -154 -155 -166 -167 -177 -178 -188 0
-43 -62 -63 -80 -81 -96 -98 -111 -113 -141 -142 -154 -155 -166 -167 -177 -178 -188 0
-43 -62 -63 -80 -81 -97 -98 -111 -114 -141 -142 -154 -155 -166 -167 -177 -178 -188 0
-42 -61 -62 -79 -80 -96 -97 -112 -113 -141 -143 -154 -155 -166 -167 -177 -178 -188 0
-43 -61 -63 -79 -80 -96 -97 -112 -113 -141 -143 -154 -155 -166 -167 -177 -178 -188 0
-43 -62 -63 -79 -81 -96 -97 -112 -113 -141 -143 -154 -155 -166 -167 -177 -178 -188 0
-43 -62 -63 -80 -81 -96 -98 -112 -113 -141 -143 -154 -155 -166 -167 -177 -178 -188 0
-43 -62 -63 -80 -81 -97 -98 -112 -114 -141 -143 -154 -155 -166 -167 -177 -178 -188 0
-43 -62 -63 -80 -81 -97 -98 -113 -114 -141 -144 -154 -155 -166 -167 -177 -178 -188 0
-42 -61 -62 -79 -80 -96 -97 -112 -113 -142 -143 -154 -156 -166 -167 -177 -178 -188 0
-43 -61 -63 -79 -80 -96 -97 -112 -113 -142 -143 -154 -156 -166 -167 -177 -178 -188 0
-43 -62 -63 -79 -81 -96 -97 -112 -113 -142 -143 -154 -156 -166 -167 -177 -178 -188 0
-43 -62 -63 -80 -81 -96 -98 -112 -113 -142 -143 -154 -156 -166 -167 -177 -178 -188 0
-43 -62 -63 -80 -81 -97 -98 -112 -114 -142 -143 -154 -156 -166 -167 -177 -178 -188 0
-43 -62 -63 -80 -81 -97 -98 -113 -114 -142 -144 -154 -156 -166 -167 -177 -178 -188 0
-43 -62 -63 -80 -81 -97 -98 -113 -114 -143 -144 -154 -157 -166 -167 -177 -178 -188 0
-42 -61 -62 -79 -80 -96 -97 -112 -113 -142 -143 -155 -156 -166 -168 -177 -178 -188 0
-43 -61 -63 -79 -80 -96 -97 -112 -113 -142 -143 -155 -156 -166 -168 -177 -178 -188 0
-43 -62 -63 -79 -81 -96 -97 -112 -113 -142 -143 -155 -156 -166 -168 -177 -178 -188 0
-43 -62 -63 -80 -81 -96 -98 -112 -113 -142 -143 -155 -156 -166 -168 -177 -178 -188 0
-43 -62 -63 -80 -81 -97 -98 -112 -114 -142 -143 -155 -156 -166 -168 -177 -178 -188 0
-43 -62 -63 -80 -81 -97 -98 -113 -114 -142 -144 -155 -156 -166 -168 -177 -178 -188 0
-43 -62 -63 -80 -81 -97 -98 -113 -114 -143 -144 -155 -157 -166 -168 -177 -178 -188 0
-43 -62 -63 -80 -81 -97 -98 -113 -114 -143 -144 -156 -157 -166 -169 -177 -178 -188 0
-42 -61 -62 -79 -80 -96 -97 -112 -113 -142 -143 -155 -156 -167 -168 -177 -179 -188 0
-43 -61 -63 -79 -80 -96 -97 -112 -113 -142 -143 -155 -156 -167 -168 -177 -179 -188 0
-43 -62 -63 -79 -81 -96 -97 -112 -113 -142 -143 -155 -156 -167 -168 -177 -179 -188 0
-43 -62 -63 -80 -81 -96 -98 -112 -113 -142 -143 -155 -156 -167 -168 -177 -179 -188 0
-43 -62 -63 -80 -81 -97 -98 -112 -114 -142 -143 -155 -156 -167 -168 -177 -179 -188 0
-43 -62 -63 -80 -81 -97 -98 -113 -114 -142 -144 -155 -156 -167 -168 -177 -179 -188 0
-43 -62 -63 -80 -81 -97 -98 -113 -114 -143 -144 -155 -157 -167 -168 -177 -179 -188 0
-43 -62 -63 -80 -81 -97 -98 -113 -114 -143 -144 -156 -157 -167 -169 -177 -179 -188 0
-43 -62 -63 -80 -81 -97 -98 -113 -114 -143 -144 -156 -157 -168 -169 -177 -180 -188 0
-42 -61 -62 -79 -80 -96 -97 -112 -113 -142 -143 -155 -156 -167 -168 -178 -179 -189 0
-43 -61 -63 -79 -80 -96 -97 -112 -113 -142 -143 -155 -156 -167 -168 -178 -179 -189 0
-43 -62 -63 -79 -81 -96 -97 -112 -113 -142 -143 -155 -156 -167 -168 -178 -179 -189 0
-43 -62 -63 -80 -81 -96 -98 -112 -113 -142 -143 -155 -156 -167 -168 -178 -179 -189 0
-43 -62 -63 -80 -81 -97 -98 -112 -114 -142 -143 -155 -156 -167 -168 -178 -179 -189 0
-43 -62 -63 -80 -81 -97 -98 -113 -114 -142 -144 -155 -156 -167 -168 -178 -179 -189 0
-43 -62 -63 -80 -81 -97 -98 -113 -114 -143 -144 -155 -157 -167 -168 -178 -179 -189 0
-43 -62 -63 -80 -81 -97 -98 -113 -114 -143 -144 -156 -157 -167 -169 -178 -179 -189 0
-43 -62 -63 -80 -81 -97 -98 -113 -114 -143 -144 -156 -157 -168 -169 -178 -180 -189 0
-43 -62 -63 -80 -81 -97 -98 -113 -114 -143 -144 -156 -157 -168 -169 -179 -180 -190 0
-42 -61 -62 -79 -80 -96 -97 -112 -113 -142 -143 -155 -156 -167 -168 -178 -179 -199 0
-43 -61 -63 -79 -80 -96 -97 -112 -113 -142 -143 -155 -156 -167 -168 -178 -179 -199 0
-43 -62 -63 -79 -81 -96 -97 -112 -113 -142 -143 -155 -156 -167 -168 -178 -179 -199 0
-43 -62 -63 -80 -81 -96 -98 -112 -113 -142 -143 -155 -156 -167 -168 -178 -179 -199 0
-43 -62 -63 -80 -81 -97 -98 -112 -114 -142 -143 -155 -156 -167 -168 -178 -179 -199 0
-43 -62 -63 -80 -81 -97 -98 -113 -114 -142 -144 -155 -156 -167 -168 -178 -179 -199 0
-43 -62 -63 -80 -81 -97 -98 -113 -114 -143 -144 -155 -157 -167 -168 -178 -179 -199 0
-43 -62 -63 -80 -81 -97 -98 -113 -114 -143 -144 -156 -157 -167 -169 -178 -179 -199 0
-43 -62 -63 -80 -81 -97 -98 -113 -114 -143 -144 -156 -157 -168 -169 -178 -180 -199 0
-43 -62 -63 -80 -81 -97 -98 -113 -114 -143 -144 -156 -157 -168 -169 -179 -180 -200 0
-43 -62 -63 -80 -81 -97 -98 -113 -114 -143 -144 -156 -157 -168 -169 -179 -180 -209 0
-42 -61 -62 -79 -80 -96 -97 -112 -113 -142 -143 -155 -156 -167 -168 -189 -190 -199 0
-43 -61 -63 -79 -80 -96 -97 -112 -113 -142 -143 -155 -156 -167 -168 -189 -190 -199 0
-43 -62 -63 -79 -81 -96 -97 -112 -113 -142 -143 -155 -156 -167 -168 -189 -190 -199 0
-43 -62 -63 -80 -81 -96 -98 -112 -113 -142 -143 -155 -156 -167 -168 -189 -190 -199 0
-43 -62 -63 -80 -81 -97 -98 -112 -114 -142 -143 -155 -156 -167 -168 -189 -190 -199 0
-43 -62 -63 -80 -81 -97 -98 -113 -114 -142 -144 -155 -156 -167 -168 -189 -190 -199 0
-43 -62 -63 -80 -81 -97 -98 -113 -114 -143 -144 -155 -157 -167 -168 -189 -190 -199 0
-43 -62 -63 -80 -81 -97 -98 -113 -114 -143 -144 -156 -157 -167 -169 -189 -190 -199 0
-43 -62 -63 -80 -81 -97 -98 -113 -114 -143 -144 -156 -157 -168 -169 -189 -191 -199 0
-43 -62 -63 -80 -81 -97 -98 -113 -114 -143 -144 -156 -157 -168 -169 -190 -191 -200 0
-43 -62 -63 -80 -81 -97 -98 -113 -114 -143 -144 -156 -157 -168 -169 -190 -191 -209 0
-43 -62 -63 -80 -81 -97 -98 -113 -114 -143 -144 -156 -157 -168 -169 -200 -201 -209 0
-42 -61 -62 -79 -80 -96 -97 -112 -113 -142 -143 -155 -156 -179 -180 -189 -190 -199 0
-43 -61 -63 -79 -80 -96 -97 -112 -113 -142 -143 -155 -156 -179 -180 -189 -190 -199 0
-43 -62 -63 -79 -81 -96 -97 -112 -113 -142 -143 -155 -156 -179 -180 -189 -190 -199 0
-43 -62 -63 -80 -81 -96 -98 -112 -113 -142 -143 -155 -156 -179 -180 -189 -190 -199 0
-43 -62 -63 -80 -81 -97 -98 -112 -114 -142 -143 -155 -156 -179 -180 -189 -190 -199 0
-43 -62 -63 -80 -81 -97 -98 -113 -114 -142 -144 -155 -156 -179 -180 -189 -190 -199 0
-43 -62 -63 -80 -81 -97 -98 -113 -114 -143 -144 -155 -157 -179 -180 -189 -190 -199 0
-43 -62 -63 -80 -81 -97 -98 -113 -114 -143 -144 -156 -157 -179 -181 -189 -190 -199 0
-43 -62 -63 -80 -81 -97 -98 -113 -114 -143 -144 -156 -157 -180 -181 -189 -191 -199 0
-43 -62 -63 -80 -81 -97 -98 -113 -114 -143 -144 -156 -157 -180 -181 -190 -191 -200 0
-43 -62 -63 -80 -81 -97 -98 -113 -114 -143 -144 -156 -157 -180 -181 -190 -191 -209 0
-43 -62 -63 -80 -81 -97 -98 -113 -114 -143 -144 -156 -157 -180 -181 -200 -201 -209 0
-43 -62 -63 -80 -81 -97 -98 -113 -114 -143 -144 -156 -157 -191 -192 -200 -201 -209 0
-42 -61 -62 -79 -80 -96 -97 -112 -113 -142 -143 -168 -169 -179 -180 -189 -190 -199 0
-43 -61 -63 -79 -80 -96 -97 -112 -113 -142 -143 -168 -169 -179 -180 -189 -190 -199 0
-43 -62 -63 -79 -81 -96 -97 -112 -113 -142 -143 -168 -169 -179 -180 -189 -190 -199 0
-43 -62 -63 -80 -81 -96 -98 -112 -113 -142 -143 -168 -169 -179 -180 -189 -190 -199 0
-43 -62 -63 -80 -81 -97 -98 -112 -114 -142 -143 -168 -169 -179 -180 -189 -190 -199 0
-43 -62 -63 -80 -81 -97 -98 -113 -114 -142 -144 -168 -169 -179 -180 -189 -190 -199 0
-43 -62 -63 -80 -81 -97 -98 -113 -114 -143 -144 -168 -170 -179 -180 -189 -190 -199 0
-43 -62 -63 -80 -81 -97 -98 -113 -114 -143 -144 -169 -170 -179 -181 -189 -190 -199 0
-43 -62 -63 -80 -81 -97 -98 -113 -114 -143 -144 -169 -170 -180 -181 -189 -191 -199 0
-43 -62 -63 -80 -81 -97 -98 -113 -114 -143 -144 -169 -170 -180 -181 -190 -191 -200 0
-43 -62 -63 -80 -81 -97 -98 -113 -114 -143 -144 -169 -170 -180 -181 -190 -191 -209 0
-43 -62 -63 -80 -81 -97 -98 -113 -114 -143 -144 -169 -170 -180 -181 -200 -201 -209 0
-43 -62 -63 -80 -81 -97 -98 -113 -114 -143 -144 -169 -170 -191 -192 -200 -201 -209 0
-43 -62 -63 -80 -81 -97 -98 -113 -114 -143 -144 -181 -182 -191 -192 -200 -201 -209 0
-42 -61 -62 -79 -80 -96 -97 -112 -113 -156 -157 -168 -169 -179 -180 -189 -190 -199 0
-43 -61 -63 -79 -80 -96 -97 -112 -113 -156 -157 -168 -169 -179 -180 -189 -190 -199 0
-43 -62 -63 -79 -81 -96 -97 -112 -113 -156 -157 -168 -169 -179 -180 -189 -190 -199 0
-43 -62 -63 -80 -81 -96 -98 -112 -113 -156 -157 -168 -169 -179 -180 -189 -190 -199 0
-43 -62 -63 -80 -81 -97 -98 -112 -114 -156 -157 -168 -169 -179 -180 -189 -190 -199 0
-43 -62 -63 -80 -81 -97 -98 -113 -114 -156 -158 -168 -169 -179 -180 -189 -190 -199 0
-43 -62 -63 -80 -81 -97 -98 -113 -114 -157 -158 -168 -170 -179 -180 -189 -190 -199 0
-43 -62 -63 -80 -81 -97 -98 -113 -114 -157 -158 -169 -170 -179 -181 -189 -190 -199 0
-43 -62 -63 -80 -81 -97 -98 -113 -114 -157 -158 -169 -170 -180 -181 -189 -191 -199 0
-43 -62 -63 -80 -81 -97 -98 -113 -114 -157 -158 -169 -170 -180 -181 -190 -191 -200 0
-43 -62 -63 -80 -81 -97 -98 -113 -114 -157 -158 -169 -170 -180 -181 -190 -191 -209 0
-43 -62 -63 -80 -81 -97 -98 -113 -114 -157 -158 -169 -170 -180 -181 -200 -201 -209 0
-43 -62 -63 -80 -81 -97 -98 -113 -114 -157 -158 -169 -170 -191 -192 -200 -201 -209 0
-43 -62 -63 -80 -81 -97 -98 -113 -114 -157 -158 -181 -182 -191 -192 -200 -201 -209 0
-43 -62 -63 -80 -81 -97 -98 -113 -114 -170 -171 -181 -182 -191 -192 -200 -201 -209 0
-41 -60 -61 -78 -79 -95 -96 -127 -128 -141 -142 -154 -155 -166 -167 -177 -178 -188 0
-42 -60 -62 -78 -79 -95 -96 -127 -128 -141 -142 -154 -155 -166 -167 -177 -178 -188 0
-43 -60 -63 -78 -79 -95 -96 -127 -128 -141 -142 -154 -155 -166 -167 -177 -178 -188 0
-42 -61 -62 -78 -80 -95 -96 -127 -128 -141 -142 -154 -155 -166 -167 -177 -178 -188 0
-43 -61 -63 -78 -80 -95 -96 -127 -128 -141 -142 -154 -155 -166 -167 -177 -178 -188 0
-43 -62 -63 -78 -81 -95 -96 -127 -128 -141 -142 -154 -155 -166 -167 -177 -178 -188 0
-42 -61 -62 -79 -80 -95 -97 -127 -128 -141 -142 -154 -155 -166 -167 -177 -178 -188 0
-43 -61 -63 -79 -80 -95 -97 -127 -128 -141 -142 -154 -155 -166 -167 -177 -178 -188 0
-43 -62 -63 -79 -81 -95 -97 -127 -128 -141 -142 -154 -155 -166 -167 -177 -178 -188 0
-43 -62 -63 -80 -81 -95 -98 -127 -128 -141 -142 -154 -155 -166 -167 -177 -178 -188 0
-42 -61 -62 -79 -80 -96 -97 -127 -129 -141 -142 -154 -155 -166 -167 -177 -178 -188 0
-43 -61 -63 -79 -80 -96 -97 -127 -129 -141 -142 -154 -155 -166 -167 -177 -178 -188 0
-43 -62 -63 -79 -81 -96 -97 -127 -129 -141 -142 -154 -155 -166 -167 -177 -178 -188 0
-43 -62 -63 -80 -81 -96 -98 -127 -129 -141 -142 -154 -155 -166 -167 -177 -178 -188 0
-43 -62 -63 -80 -81 -97 -98 -127 -130 -141 -142 -154 -155 -166 -167 -177 -178 -188 0
-42 -61 -62 -79 -80 -96 -97 -128 -129 -141 -143 -154 -155 -166 -167 -177 -178 -188 0
-43 -61 -63 -79 -80 -96 -97 -128 -129 -141 -143 -154 -155 -166 -167 -177 -178 -188 0
-43 -62 -63 -79 -81 -96 -97 -128 -129 -141 -143 -154 -155 -166 -167 -177 -178 -188 0
-43 -62 -63 -80 -81 -96 -98 -128 -129 -141 -143 -154 -155 -166 -167 -177 -178 -188 0
-43 -62 -63 -80 -81 -97 -98 -128 -130 -141 -143 -154 -155 -166 -167 -177 -178 -188 0
-43 -62 -63 -80 -81 -97 -98 -129 -130 -141 -144 -154 -155 -166 -167 -177 -178 -188 0
-42 -61 -62 -79 -80 -96 -97 -128 -129 -142 -143 -154 -156 -166 -167 -177 -178 -188 0
-43 -61 -63 -79 -80 -96 -97 -128 -129 -142 -143 -154 -156 -166 -167 -177 -178 -188 0
-43 -62 -63 -79 -81 -96 -97 -128 -129 -142 -143 -154 -156 -166 -167 -177 -178 -188 0
-43 -62 -63 -80 -81 -96 -98 -128 -129 -142 -143 -154 -156 -166 -167 -177 -178 -188 0
-43 -62 -63 -80 -81 -97 -98 -128 -130 -142 -143 -154 -156 -166 -167 -177 -178 -188 0
-43 -62 -63 -80 -81 -97 -98 -129 -130 -142 -144 -154 -156 -166 -167 -177 -178 -188 0
-43 -62 -63 -80 -81 -97 -98 -129 -130 -143 -144 -154 -157 -166 -167 -177 -178 -188 0
-42 -61 -62 -79 -80 -96 -97 -128 -129 -142 -143 -155 -156 -166 -168 -177 -178 -188 0
-43 -61 -63 -79 -80 -96 -97 -128 -129 -142 -143 -155 -156 -166 -168 -177 -178 -188 0
-43 -62 -63 -79 -81 -96 -97 -128 -129 -142 -143 -155 -156 -166 -168 -177 -178 -188 0
-43 -62 -63 -80 -81 -96 -98 -128 -129 -142 -143 -155 -156 -166 -168 -177 -178 -188 0
-43 -62 -63 -80 -81 -97 -98 -128 -130 -142 -143 -155 -156 -166 -168 -177 -178 -188 0
-43 -62 -63 -80 -81 -97 -98 -129 -130 -142 -144 -155 -156 -166 -168 -177 -178 -188 0
-43 -62 -63 -80 -81 -97 -98 -129 -130 -143 -144 -155 -157 -166 -168 -177 -178 -188 0
-43 -62 -63 -80 -81 -97 -98 -129 -130 -143 -144 -156 -157 -166 -169 -177 -178 -188 0
-42 -61 -62 -79 -80 -96 -97 -128 -129 -142 -143 -155 -156 -167 -168 -177 -179 -188 0
-43 -61 -63 -79 -80 -96 -97 -128 -129 -142 -143 -155 -156 -167 -168 -177 -179 -188 0
-43 -62 -63 -79 -81 -96 -97 -128 -129 -142 -143 -155 -156 -167 -168 -177 -179 -188 0
-43 -62 -63 -80 -81 -96 -98 -128 -129 -142 -143 -155 -156 -167 -168 -177 -179 -188 0
-43 -62 -63 -80 -81 -97 -98 -128 -130 -142 -143 -155 -156 -167 -168 -177 -179 -188 0
-43 -62 -63 -80 -81 -97 -98 -129 -130 -142 -144 -155 -156 -167 -168 -177 -179 -188 0
-43 -62 -63 -80 -81 -97 -98 -129 -130 -143 -144 -155 -157 -167 -168 -177 -179 -188 0
-43 -62 -63 -80 -81 -97 -98 -129 -130 -143 -144 -156 -157 -167 -169 -177 -179 -188 0
-43 -62 -63 -80 -81 -97 -98 -129 -130 -143 -144 -156 -157 -168 -169 -177 -180 -188 0
-42 -61 -62 -79 -80 -96 -97 -128 -129 -142 -143 -155 -156 -167 -168 -178 -179 -189 0
-43 -61 -63 -79 -80 -96 -97 -128 -129 -142 -143 -155 -156 -167 -168 -178 -179 -189 0
-43 -62 -63 -79 -81 -96 -97 -128 -129 -142 -143 -155 -156 -167 -168 -178 -179 -189 0
-43 -62 -63 -80 -81 -96 -98 -128 -129 -142 -143 -155 -156 -167 -168 -178 -179 -189 0
-43 -62 -63 -80 -81 -97 -98 -128 -130 -142 -143 -155 -156 -167 -168 -178 -179 -189 0
-43 -62 -63 -80 -81 -97 -98 -129 -130 -142 -144 -155 -156 -167 -168 -178 -179 -189 0
-43 -62 -63 -80 -81 -97 -98 -129 -130 -143 -144 -155 -157 -167 -168 -178 -179 -189 0
-43 -62 -63 -80 -81 -97 -98 -129 -130 -143 -144 -156 -157 -167 -169 -178 -179 -189 0
-43 -62 -63 -80 -81 -97 -98 -129 -130 -143 -144 -156 -157 -168 -169 -178 -180 -189 0
-43 -62 -63 -80 -81 -97 -98 -129 -130 -143 -144 -156 -157 -168 -169 -179 -180 -190 0
-42 -61 -62 -79 -80 -96 -97 -128 -129 -142 -143 -155 -156 -167 -168 -178 -179 -199 0
-43 -61 -63 -79 -80 -96 -97 -128 -129 -142 -143 -155 -156 -167 -168 -178 -179 -199 0
-43 -62 -63 -79 -81 -96 -97 -128 -129 -142 -143 -155 -156 -167 -168 -178 -179 -199 0
-43 -62 -63 -80 -81 -96 -98 -128 -129 -142 -143 -155 -156 -167 -168 -178 -179 -199 0
-43 -62 -63 -80 -81 -97 -98 -128 -130 -142 -143 -155 -156 -167 -168 -178 -179 -199 0
-43 -62 -63 -80 -81 -97 -98 -129 -130 -142 -144 -155 -156 -167 -168 -178 -179 -199 0
-43 -62 -63 -80 -81 -97 -98 -129 -130 -143 -144 -155 -157 -167 -168 -178 -179 -199 0
-43 -62 -63 -80 -81 -97 -98 -129 -130 -143 -144 -156 -157 -167 -169 -178 -179 -199 0
-43 -62 -63 -80 -81 -97 -98 -129 -130 -143 -144 -156 -157 -168 -169 -178 -180 -199 0
-43 -62 -63 -80 -81 -97 -98 -129 -130 -143 -144 -156 -157 -168 -169 -179 -180 -200 0
-43 -62 -63 -80 -81 -97 -98 -129 -130 -143 -144 -156 -157 -168 -169 -179 -180 -209 0
-42 -61 -62 -79 -80 -96 -97 -128 -129 -142 -143 -155 -156 -167 -168 -189 -190 -199 0
-43 -61 -63 -79 -80 -96 -97 -128 -129 -142 -143 -155 -156 -167 -168 -189 -190 -199 0
-43 -62 -63 -79 -81 -96 -97 -128 -129 -142 -143 -155 -156 -167 -168 -189 -190 -199 0
-43 -62 -63 -80 -81 -96 -98 -128 -129 -142 -143 -155 -156 -167 -168 -189 -190 -199 0
-43 -62 -63 -80 -81 -97 -98 -128 -130 -142 -143 -155 -156 -167 -168 -189 -190 -199 0
-43 -62 -63 -80 -81 -97 -98 -129 -130 -142 -144 -155 -156 -167 -168 -189 -190 -199 0
-43 -62 -63 -80 -81 -97 -98 -129 -130 -143 -144 -155 -157 -167 -168 -189 -190 -199 0
-43 -62 -63 -80 -81 -97 -98 -129 -130 -143 -144 -156 -157 -167 -169 -189 -190 -199 0
-43 -62 -63 -80 -81 -97 -98 -129 -130 -143 -144 -156 -157 -168 -169 -189 -191 -199 0
-43 -62 -63 -80 -81 -97 -98 -129 -130 -143 -144 -156 -157 -168 -169 -190 -191 -200 0
-43 -62 -63 -80 -81 -97 -98 -129 -130 -143 -144 -156 -157 -168 -169 -190 -191 -209 0
-43 -62 -63 -80 -81 -97 -98 -129 -130 -143 -144 -156 -157 -168 -169 -200 -201 -209 0
-42 -61 -62 -79 -80 -96 -97 -128 -129 -142 -143 -155 -156 -179 -180 -189 -190 -199 0
-43 -61 -63 -79 -80 -96 -97 -128 -129 -142 -143 -155 -156 -179 -180 -189 -190 -199 0
-43 -62 -63 -79 -81 -96 -97 -128 -129 -142 -143 -155 -156 -179 -180 -189 -190 -199 0
-43 -62 -63 -80 -81 -96 -98 -128 -129 -142 -143 -155 -156 -179 -180 -189 -190 -199 0
-43 -62 -63 -80 -81 -97 -98 -128 -130 -142 -143 -155 -156 -179 -180 -189 -190 -199 0
-43 -62 -63 -80 -81 -97 -98 -129 -130 -142 -144 -155 -156 -179 -180 -189 -190 -199 0
-43 -62 -63 -80 -81 -97 -98 -129 -130 -143 -144 -155 -157 -179 -180 -189 -190 -199 0
-43 -62 -63 -80 -81 -97 -98 -129 -130 -143 -144 -156 -157 -179 -181 -189 -190 -199 0
-43 -62 -63 -80 -81 -97 -98 -129 -130 -143 -144 -156 -157 -180 -181 -189 -191 -199 0
-43 -62 -63 -80 -81 -97 -98 -129 -130 -143 -144 -156 -157 -180 -181 -190 -191 -200 0
-43 -62 -63 -80 -81 -97 -98 -129 -130 -143 -144 -156 -157 -180 -181 -190 -191 -209 0
-43 -62 -63 -80 -81 -97 -98 -129 -130 -143 -144 -156 -157 -180 -181 -200 -201 -209 0
-43 -62 -63 -80 -81 -97 -98 -129 -130 -143 -144 -156 -157 -191 -192 -200 -201 -209 0
-42 -61 -62 -79 -80 -96 -97 -128 -129 -142 -143 -168 -169 -179 -180 -189 -190 -199 0
-43 -61 -63 -79 -80 -96 -97 -128 -129 -142 -143 -168 -169 -179 -180 -189 -190 -199 0
-43 -62 -63 -79 -81 -96 -97 -128 -129 -142 -143 -168 -169 -179 -180 -189 -190 -199 0
-43 -62 -63 -80 -81 -96 -98 -128 -129 -142 -143 -168 -169 -179 -180 -189 -190 -199 0
-43 -62 -63 -80 -81 -97 -98 -128 -130 -142 -143 -168 -169 -179 -180 -189 -190 -199 0
-43 -62 -63 -80 -81 -97 -98 -129 -130 -142 -144 -168 -169 -179 -180 -189 -190 -199 0
-43 -62 -63 -80 -81 -97 -98 -129 -130 -143 -144 -168 -170 -179 -180 -189 -190 -199 0
-43 -62 -63 -80 -81 -97 -98 -129 -130 -143 -144 -169 -170 -179 -181 -189 -190 -199 0
-43 -62 -63 -80 -81 -97 -98 -129 -130 -143 -144 -169 -170 -180 -181 -189 -191 -199 0
-43 -62 -63 -80 -81 -97 -98 -129 -130 -143 -144 -169 -170 -180 -181 -190 -191 -200 0
-43 -62 -63 -80 -81 -97 -98 -129 -130 -143 -144 -169 -170 -180 -181 -190 -191 -209 0
-43 -62 -63 -80 -81 -97 -98 -129 -130 -143 -144 -169 -170 -180 -181 -200 -201 -209 0
-43 -62 -63 -80 -81 -97 -98 -129 -130 -143 -144 -169 -170 -191 -192 -200 -201 -209 0
-43 -62 -63 -80 -81 -97 -98 -129 -130 -143 -144 -181 -182 -191 -192 -200 -201 -209 0
-42 -61 -62 -79 -80 -96 -97 -128 -129 -156 -157 -168 -169 -179 -180 -189 -190 -199 0
-43 -61 -63 -79 -80 -96 -97 -128 -129 -156 -157 -168 -169 -179 -180 -189 -190 -199 0
-43 -62 -63 -79 -81 -96 -97 -128 -129 -156 -157 -168 -169 -179 -180 -189 -190 -199 0
-43 -62 -63 -80 -81 -96 -98 -128 -129 -156 -157 -168 -169 -179 -180 -189 -190 -199 0
-43 -62 -63 -80 -81 -97 -98 -128 -130 -156 -157 -168 -169 -179 -180 -189 -190 -199 0
-43 -62 -63 -80 -81 -97 -98 -129 -130 -156 -158 -168 -169 -179 -180 -189 -190 -199 0
-43 -62 -63 -80 -81 -97 -98 -129 -130 -157 -158 -168 -170 -179 -180 -189 -190 -199 0
-43 -62 -63 -80 -81 -97 -98 -129 -130 -157 -158 -169 -170 -179 -181 -189 -190 -199 0
-43 -62 -63 -80 -81 -97 -98 -129 -130 -157 -158 -169 -170 -180 -181 -189 -191 -199 0
-43 -62 -63 -80 -81 -97 -98 -129 -130 -157 -158 -169 -170 -180 -181 -190 -191 -200 0
-43 -62 -63 -80 -81 -97 -98 -129 -130 -157 -158 -169 -170 -180 -181 -190 -191 -209 0
-43 -62 -63 -80 -81 -97 -98 -129 -130 -157 -158 -169 -170 -180 -181 -200 -201 -209 0
-43 -62 -63 -80 -81 -97 -98 -129 -130 -157 -158 -169 -170 -191 -192 -200 -201 -209 0
-43 -62 -63 -80 -81 -97 -98 -129 -130 -157 -158 -181 -182 -191 -192 -200 -201 -209 0
-43 -62 -63 -80 -81 -97 -98 -129 -130 -170 -171 -181 -182 -191 -192 -200 -201 -209 0
-42 -61 -62 -79 -80 -96 -97 -143 -144 -156 -157 -168 -169 -179 -180 -189 -190 -199 0
-43 -61 -63 -79 -80 -96 -97 -143 -144 -156 -157 -168 -169 -179 -180 -189 -190 -199 0
-43 -62 -63 -79 -81 -96 -97 -143 -144 -156 -157 -168 -169 -179 -180 -189 -190 -199 0
-43 -62 -63 -80 -81 -96 -98 -143 -144 -156 -157 -168 -169 -179 -180 -189 -190 -199 0
-43 -62 -63 -80 -81 -97 -98 -143 -145 -156 -157 -168 -169 -179 -180 -189 -190 -199 0
-43 -62 -63 -80 -81 -97 -98 -144 -145 -156 -158 -168 -169 -179 -180 -189 -190 -199 0
-43 -62 -63 -80 -81 -97 -98 -144 -145 -157 -158 -168 -170 -179 -180 -189 -190 -199 0
-43 -62 -63 -80 -81 -97 -98 -144 -145 -157 -158 -169 -170 -179 -181 -189 -190 -199 0
-43 -62 -63 -80 -81 -97 -98 -144 -145 -157 -158 -169 -170 -180 -181 -189 -191 -199 0
-43 -62 -63 -80 -81 -97 -98 -144 -145 -157 -158 -169 -170 -180 -181 -190 -191 -200 0
-43 -62 -63 -80 -81 -97 -98 -144 -145 -157 -158 -169 -170 -180 -181 -190 -191 -209 0
-43 -62 -63 -80 -81 -97 -98 -144 -145 -157 -158 -169 -170 -180 -181 -200 -201 -209 0
-43 -62 -63 -80 -81 -97 -98 -144 -145 -157 -158 -169 -170 -191 -192 -200 -201 -209 0
-43 -62 -63 -80 -81 -97 -98 -144 -145 -157 -158 -181 -182 -191 -192 -200 -201 -209 0
-43 -62 -63 -80 -81 -97 -98 -144 -145 -170 -171 -181 -182 -191 -192 -200 -201 -209 0
-43 -62 -63 -80 -81 -97 -98 -158 -159 -170 -171 -181 -182 -191 -192 -200 -201 -209 0
-41 -60 -61 -78 -79 -112 -113 -127 -128 -141 -142 -154 -155 -166 -167 -177 -178 -188 0
-42 -60 -62 -78 -79 -112 -113 -127 -128 -141 -142 -154 -155 -166 -167 -177 -178 -188 0
-43 -60 -63 -78 -79 -112 -113 -127 -128 -141 -142 -154 -155 -166 -167 -177 -178 -188 0
-42 -61 -62 -78 -80 -112 -113 -127 -128 -141 -142 -154 -155 -166 -167 -177 -178 -188 0
-43 -61 -63 -78 -80 -112 -113 -127 -128 -141 -142 -154 -155 -166 -167 -177 -178 -188 0
-43 -62 -63 -78 -81 -112 -113 -127 -128 -141 -142 -154 -155 -166 -167 -177 -178 -188 0
-42 -61 -62 -79 -80 -112 -114 -127 -128 -141 -142 -154 -155 -166 -167 -177 -178 -188 0
-43 -61 -63 -79 -80 -112 -114 -127 -128 -141 -142 -154 -155 -166 -167 -177 -178 -188 0
-43 -62 -63 -79 -81 -112 -114 -127 -128 -141 -142 -154 -155 -166 -167 -177 -178 -188 0
-43 -62 -63 -80 -81 -112 -115 -127 -128 -141 -142 -154 -155 -166 -167 -177 -178 -188 0
-42 -61 -62 -79 -80 -113 -114 -127 -129 -141 -142 -154 -155 -166 -167 -177 -178 -188 0
-43 -61 -63 -79 -80 -113 -114 -127 -129 -141 -142 -154 -155 -166 -167 -177 -178 -188 0
-43 -62 -63 -79 -81 -113 -114 -127 -129 -141 -142 -154 -155 -166 -167 -177 -178 -188 0
-43 -62 -63 -80 -81 -113 -115 -127 -129 -141 -142 -154 -155 -166 -167 -177 -178 -188 0
-43 -62 -63 -80 -81 -114 -115 -127 -130 -141 -142 -154 -155 -166 -167 -177 -178 -188 0
-42 -61 -62 -79 -80 -113 -114 -128 -129 -141 -143 -154 -155 -166 -167 -177 -178 -188 0
-43 -61 -63 -79 -80 -113 -114 -128 -129 -141 -143 -154 -155 -166 -167 -177 -178 -188 0
-43 -62 -63 -79 -81 -113 -114 -128 -129 -141 -143 -154 -155 -166 -167 -177 -178 -188 0
-43 -62 -63 -80 -81 -113 -115 -128 -129 -141 -143 -154 -155 -166 -167 -177 -178 -188 0
-43 -62 -63 -80 -81 -114 -115 -128 -130 -141 -143 -154 -155 -166 -167 -177 -178 -188 0
-43 -62 -63 -80 -81 -114 -115 -129 -130 -141 -144 -154 -155 -166 -167 -177 -178 -188 0
-42 -61 -62 -79 -80 -113 -114 -128 -129 -142 -143 -154 -156 -166 -167 -177 -178 -188 0
-43 -61 -63 -79 -80 -113 -114 -128 -129 -142 -143 -154 -156 -166 -167 -177 -178 -188 0
-43 -62 -63 -79 -81 -113 -114 -128 -129 -142 -143 -154 -156 -166 -167 -177 -178 -188 0
-43 -62 -63 -80 -81 -113 -115 -128 -129 -142 -143 -154 -156 -166 -167 -177 -178 -188 0
-43 -62 -63 -80 -81 -114 -115 -128 -130 -142 -143 -154 -156 -166 -167 -177 -178 -188 0
-43 -62 -63 -80 -81 -114 -115 -129 -130 -142 -144 -154 -156 -166 -167 -177 -178 -188 0
-43 -62 -63 -80 -81 -114 -115 -129 -130 -143 -144 -154 -157 -166 -167 -177 -178 -188 0
-42 -61 -62 -79 -80 -113 -114 -128 -129 -142 -143 -155 -156 -166 -168 -177 -178 -188 0
-43 -61 -63 -79 -80 -113 -114 -128 -129 -142 -143 -155 -156 -166 -168 -177 -178 -188 0
-43 -62 -63 -79 -81 -113 -114 -128 -129 -142 -143 -155 -156 -166 -168 -177 -178 -188 0
-43 -62 -63 -80 -81 -113 -115 -128 -129 -142 -143 -155 -156 -166 -168 -177 -178 -188 0
-43 -62 -63 -80 -81 -114 -115 -128 -130 -142 -143 -155 -156 -166 -168 -177 -178 -188 0
-43 -62 -63 -80 -81 -114 -115 -129 -130 -142 -144 -155 -156 -166 -168 -177 -178 -188 0
-43 -62 -63 -80 -81 -114 -115 -129 -130 -143 -144 -155 -157 -166 -168 -177 -178 -188 0
-43 -62 -63 -80 -81 -114 -115 -129 -130 -143 -144 -156 -157 -166 -169 -177 -178 -188 0
-42 -61 -62 -79 -80 -113 -114 -128 -129 -142 -143 -155 -156 -167 -168 -177 -179 -188 0
-43 -61 -63 -79 -80 -113 -114 -128 -129 -142 -143 -155 -156 -167 -168 -177 -179 -188 0
-43 -62 -63 -79 -81 -113 -114 -128 -129 -142 -143 -155 -156 -167 -168 -177 -179 -188 0
-43 -62 -63 -80 -81 -113 -115 -128 -129 -142 -143 -155 -156 -167 -168 -177 -179 -188 0
-43 -62 -63 -80 -81 -114 -115 -128 -130 -142 -143 -155 -156 -167 -168 -177 -179 -188 0
-43 -62 -63 -80 -81 -114 -115 -129 -130 -142 -144 -155 -156 -167 -168 -177 -179 -188 0
-43 -62 -63 -80 -81 -114 -115 -129 -130 -143 -144 -155 -157 -167 -168 -177 -179 -188 0
-43 -62 -63 -80 -81 -114 -115 -129 -130 -143 -144 -156 -157 -167 -169 -177 -179 -188 0
-43 -62 -63 -80 -81 -114 -115 -129 -130 -143 -144 -156 -157 -168 -169 -177 -180 -188 0
-42 -61 -62 -79 -80 -113 -114 -128 -129 -142 -143 -155 -156 -167 -168 -178 -179 -189 0
-43 -61 -63 -79 -80 -113 -114 -128 -129 -142 -143 -155 -156 -167 -168 -178 -179 -189 0
-43 -62 -63 -79 -81 -113 -114 -128 -129 -142 -143 -155 -156 -167 -168 -178 -179 -189 0
-43 -62 -63 -80 -81 -113 -115 -128 -129 -142 -143 -155 -156 -167 -168 -178 -179 -189 0
-43 -62 -63 -80 -81 -114 -115 -128 -130 -142 -143 -155 -156 -167 -168 -178 -179 -189 0
-43 -62 -63 -80 -81 -114 -115 -129 -130 -142 -144 -155 -156 -167 -168 -178 -179 -189 0
-43 -62 -63 -80 -81 -114 -115 -129 -130 -143 -144 -155 -157 -167 -168 -178 -179 -189 0
-43 -62 -63 -80 -81 -114 -115 -129 -130 -143 -144 -156 -157 -167 -169 -178 -179 -189 0
-43 -62 -63 -80 -81 -114 -115 -129 -130 -143 -144 -156 -157 -168 -169 -178 -180 -189 0
-43 -62 -63 -80 -81 -114 -115 -129 -130 -143 -144 -156 -157 -168 -169 -179 -180 -190 0
-42 -61 -62 -79 -80 -113 -114 -128 -129 -142 -143 -155 -156 -167 -168 -178 -179 -199 0
-43 -61 -63 -79 -80 -113 -114 -128 -129 -142 -143 -155 -156 -167 -168 -178 -179 -199 0
-43 -62 -63 -79 -81 -113 -114 -128 -129 -142 -143 -155 -156 -167 -168 -178 -179 -199 0
-43 -62 -63 -80 -81 -113 -115 -128 -129 -142 -143 -155 -156 -167 -168 -178 -179 -199 0
-43 -62 -63 -80 -81 -114 -115 -128 -130 -142 -143 -155 -156 -167 -168 -178 -179 -199 0
-43 -62 -63 -80 -81 -114 -115 -129 -130 -142 -144 -155 -156 -167 -168 -178 -179 -199 0
-43 -62 -63 -80 -81 -114 -115 -129 -130 -143 -144 -155 -157 -167 -168 -178 -179 -199 0
-43 -62 -63 -80 -81 -114 -115 -129 -130 -143 -144 -156 -157 -167 -169 -178 -179 -199 0
-43 -62 -63 -80 -81 -114 -115 -129 -130 -143 -144 -156 -157 -168 -169 -178 -180 -199 0
-43 -62 -63 -80 -81 -114 -115 -129 -130 -143 -144 -156 -157 -168 -169 -179 -180 -200 0
-43 -62 -63 -80 -81 -114 -115 -129 -130 -143 -144 -156 -157 -168 -169 -179 -180 -209 0
-42 -61 -62 -79 -80 -113 -114 -128 -129 -142 -143 -155 -156 -167 -168 -189 -190 -199 0
-43 -61 -63 -79 -80 -113 -114 -128 -129 -142 -143 -155 -156 -167 -168 -189 -190 -199 0
-43 -62 -63 -79 -81 -113 -114 -128 -129 -142 -143 -155 -156 -167 -168 -189 -190 -199 0
-43 -62 -63 -80 -81 -113 -115 -128 -129 -142 -143 -155 -156 -167 -168 -189 -190 -199 0
-43 -62 -63 -80 -81 -114 -115 -128 -130 -142 -143 -155 -156 -167 -168 -189 -190 -199 0
-43 -62 -63 -80 -81 -114 -115 -129 -130 -142 -144 -155 -156 -167 -168 -189 -190 -199 0
-43 -62 -63 -80 -81 -114 -115 -129 -130 -143 -144 -155 -157 -167 -168 -189 -190 -199 0
-43 -62 -63 -80 -81 -114 -115 -129 -130 -143 -144 -156 -157 -167 -169 -189 -190 -199 0
-43 -62 -63 -80 -81 -114 -115 -129 -130 -143 -144 -156 -157 -168 -169 -189 -191 -199 0
-43 -62 -63 -80 -81 -114 -115 -129 -130 -143 -144 -156 -157 -168 -169 -190 -191 -200 0
-43 -62 -63 -80 -81 -114 -115 -129 -130 -143 -144 -156 -157 -168 -169 -190 -191 -209 0
-43 -62 -63 -80 -81 -114 -115 -129 -130 -143 -144 -156 -157 -168 -169 -200 -201 -209 0
-42 -61 -62 -79 -80 -113 -114 -128 -129 -142 -143 -155 -156 -179 -180 -189 -190 -199 0
-43 -61 -63 -79 -80 -113 -114 -128 -129 -142 -143 -155 -156 -179 -180 -189 -190 -199 0
-43 -62 -63 -79 -81 -113 -114 -128 -129 -142 -143 -155 -156 -179 -180 -189 -190 -199 0
-43 -62 -63 -80 -81 -113 -115 -128 -129 -142 -143 -155 -156 -179 -180 -189 -190 -199 0
-43 -62 -63 -80 -81 -114 -115 -128 -130 -142 -143 -155 -156 -179 -180 -189 -190 -199 0
-43 -62 -63 -80 -81 -114 -115 -129 -130 -142 -144 -155 -156 -179 -180 -189 -190 -199 0
-43 -62 -63 -80 -81 -114 -115 -129 -130 -143 -144 -155 -157 -179 -180 -189 -190 -199 0
-43 -62 -63 -80 -81 -114 -115 -129 -130 -143 -144 -156 -157 -179 -181 -189 -190 -199 0
-43 -62 -63 -80 -81 -114 -115 -129 -130 -143 -144 -156 -157 -180 -181 -189 -191 -199 0
-43 -62 -63 -80 -81 -114 -115 -129 -130 -143 -144 -156 -157 -180 -181 -190 -191 -200 0
-43 -62 -63 -80 -81 -114 -115 -129 -130 -143 -144 -156 -157 -180 -181 -190 -191 -209 0
-43 -62 -63 -80 -81 -114 -115 -129 -130 -143 -144 -156 -157 -180 -181 -200 -201 -209 0
-43 -62 -63 -80 -81 -114 -115 -129 -130 -143 -144 -156 -157 -191 -192 -200 -201 -209 0
-42 -61 -62 -79 -80 -113 -114 -128 -129 -142 -143 -168 -169 -179 -180 -189 -190 -199 0
-43 -61 -63 -79 -80 -113 -114 -128 -129 -142 -143 -168 -169 -179 -180 -189 -190 -199 0
-43 -62 -63 -79 -81 -113 -114 -128 -129 -142 -143 -168 -169 -179 -180 -189 -190 -199 0
-43 -62 -63 -80 -81 -113 -115 -128 -129 -142 -143 -168 -169 -179 -180 -189 -190 -199 0
-43 -62 -63 -80 -81 -114 -115 -128 -130 -142 -143 -168 -169 -179 -180 -189 -190 -199 0
-43 -62 -63 -80 -81 -114 -115 -129 -130 -142 -144 -168 -169 -179 -180 -189 -190 -199 0
-43 -62 -63 -80 -81 -114 -115 -129 -130 -143 -144 -168 -170 -179 -180 -189 -190 -199 0
-43 -62 -63 -80 -81 -114 -115 -129 -130 -143 -144 -169 -170 -179 -181 -189 -190 -199 0
-43 -62 -63 -80 -81 -114 -115 -129 -130 -143 -144 -169 -170 -180 -181 -189 -191 -199 0
-43 -62 -63 -80 -81 -114 -115 -129 -130 -143 -144 -169 -170 -180 -181 -190 -191 -200 0
-43 -62 -63 -80 -81 -114 -115 -129 -130 -143 -144 -169 -170 -180 -181 -190 -191 -209 0
-43 -62 -63 -80 -81 -114 -115 -129 -130 -143 -144 -169 -170 -180 -181 -200 -201 -209 0
-43 -62 -63 -80 -81 -114 -115 -129 -130 -143 -144 -169 -170 -191 -192 -200 -201 -209 0
-43 -62 -63 -80 -81 -114 -115 -129 -130 -143 -144 -181 -182 -191 -192 -200 -201 -209 0
-42 -61 -62 -79 -80 -113 -114 -128 -129 -156 -157 -168 -169 -179 -180 -189 -190 -199 0
-43 -61 -63 -79 -80 -113 -114 -128 -129 -156 -157 -168 -169 -179 -180 -189 -190 -199 0
-43 -62 -63 -79 -81 -113 -114 -128 -129 -156 -157 -168 -169 -179 -180 -189 -190 -199 0
-43 -62 -63 -80 -81 -113 -115 -128 -129 -156 -157 -168 -169 -179 -180 -189 -190 -199 0
-43 -62 -63 -80 -81 -114 -115 -128 -130 -156 -157 -168 -169 -179 -180 -189 -190 -199 0
-43 -62 -63 -80 -81 -114 -115 -129 -130 -156 -158 -168 -169 -179 -180 -189 -190 -199 0
-43 -62 -63 -80 -81 -114 -115 -129 -130 -157 -158 -168 -170 -179 -180 -189 -190 -199 0
-43 -62 -63 -80 -81 -114 -115 -129 -130 -157 -158 -169 -170 -179 -181 -189 -190 -199 0
-43 -62 -63 -80 -81 -114 -115 -129 -130 -157 -158 -169 -170 -180 -181 -189 -191 -199 0
-43 -62 -63 -80 -81 -114 -115 -129 -130 -157 -158 -169 -170 -180 -181 -190 -191 -200 0
-43 -62 -63 -80 -81 -114 -115 -129 -130 -157 -158 -169 -170 -180 -181 -190 -191 -209 0
-43 -62 -63 -80 -81 -114 -115 -129 -130 -157 -158 -169 -170 -180 -181 -200 -201 -209 0
-43 -62 -63 -80 -81 -114 -115 -129 -130 -157 -158 -169 -170 -191 -192 -200 -201 -209 0
-43 -62 -63 -80 -81 -114 -115 -129 -130 -157 -158 -181 -182 -191 -192 -200 -201 -209 0
-43 -62 -63 -80 -81 -114 -115 -129 -130 -170 -171 -181 -182 -191 -192 -200 -201 -209 0
-42 -61 -62 -79 -80 -113 -114 -143 -144 -156 -157 -168 -169 -179 -180 -189 -190 -199 0
-43 -61 -63 -79 -80 -113 -114 -143 -144 -156 -157 -168 -169 -179 -180 -189 -190 -199 0
-43 -62 -63 -79 -81 -113 -114 -143 -144 -156 -157 -168 -169 -179 -180 -189 -190 -199 0
-43 -62 -63 -80 -81 -113 -115 -143 -144 -156 -157 -168 -169 -179 -180 -189 -190 -199 0
-43 -62 -63 -80 -81 -114 -115 -143 -145 -156 -157 -168 -169 -179 -180 -189 -190 -199 0
-43 -62 -63 -80 -81 -114 -115 -144 -145 -156 -158 -168 -169 -179 -180 -189 -190 -199 0
-43 -62 -63 -80 -81 -114 -115 -144 -145 -157 -158 -168 -170 -179 -180 -189 -190 -199 0
-43 -62 -63 -80 -81 -114 -115 -144 -145 -157 -158 -169 -170 -179 -181 -189 -190 -199 0
-43 -62 -63 -80 -81 -114 -115 -144 -145 -157 -158 -169 -170 -180 -181 -189 -191 -199 0
-43 -62 -63 -80 -81 -114 -115 -144 -145 -157 -158 -169 -170 -180 -181 -190 -191 -200 0
-43 -62 -63 -80 -81 -114 -115 -144 -145 -157 -158 -169 -170 -180 -181 -190 -191 -209 0
-43 -62 -63 -80 -81 -114 -115 -144 -145 -157 -158 -169 -170 -180 -181 -200 -201 -209 0
-43 -62 -63 -80 -81 -114 -115 -144 -145 -157 -158 -169 -170 -191 -192 -200 -201 -209 0
-43 -62 -63 -80 -81 -114 -115 -144 -145 -157 -158 -181 -182 -191 -192 -200 -201 -209 0
-43 -62 -63 -80 -81 -114 -115 -144 -145 -170 -171 -181 -182 -191 -192 -200 -201 -209 0
-43 -62 -63 -80 -81 -114 -115 -158 -159 -170 -171 -181 -182 -191 -192 -200 -201 -209 0
-42 -61 -62 -79 -80 -129 -130 -143 -144 -156 -157 -168 -169 -179 -180 -189 -190 -199 0
-43 -61 -63 -79 -80 -129 -130 -143 -144 -156 -157 -168 -169 -179 -180 -189 -190 -199 0
-43 -62 -63 -79 -81 -129 -130 -143 -144 -156 -157 -168 -169 -179 -180 -189 -190 -199 0
-43 -62 -63 -80 -81 -129 -131 -143 -144 -156 -157 -168 -169 -179 -180 -189 -190 -199 0
-43 -62 -63 -80 -81 -130 -131 -143 -145 -156 -157 -168 -169 -179 -180 -189 -190 -199 0
-43 -62 -63 -80 -81 -130 -131 -144 -145 -156 -158 -168 -169 -179 -180 -189 -190 -199 0
-43 -62 -63 -80 -81 -130 -131 -144 -145 -157 -158 -168 -170 -179 -180 -189 -190 -199 0
-43 -62 -63 -80 -81 -130 -131 -144 -145 -157 -158 -169 -170 -179 -181 -189 -190 -199 0
-43 -62 -63 -80 -81 -130 -131 -144 -145 -157 -158 -169 -170 -180 -181 -189 -191 -199 0
-43 -62 -63 -80 -81 -130 -131 -144 -145 -157 -158 -169 -170 -180 -181 -190 -191 -200 0
-43 -62 -63 -80 -81 -130 -131 -144 -145 -157 -158 -169 -170 -180 -181 -190 -191 -209 0
-43 -62 -63 -80 -81 -130 -131 -144 -145 -157 -158 -169 -170 -180 -181 -200 -201 -209 0
-43 -62 -63 -80 -81 -130 -131 -144 -145 -157 -158 -169 -170 -191 -192 -200 -201 -209 0
-43 -62 -63 -80 -81 -130 -131 -144 -145 -157 -158 -181 -182 -191 -192 -200 -201 -209 0
-43 -62 -63 -80 -81 -130 -131 -144 -145 -170 -171 -181 -182 -191 -192 -200 -201 -209 0
-43 -62 -63 -80 -81 -130 -131 -158 -159 -170 -171 -181 -182 -191 -192 -200 -201 -209 0
-43 -62 -63 -80 -81 -145 -146 -158 -159 -170 -171 -181 -182 -191 -192 -200 -201 -209 0
-41 -60 -61 -96 -97 -112 -113 -127 -128 -141 -142 -154 -155 -166 -167 -177 -178 -188 0
-42 -60 -62 -96 -97 -112 -113 -127 -128 -141 -142 -154 -155 -166 -167 -177 -178 -188 0
-43 -60 -63 -96 -97 -112 -113 -127 -128 -141 -142 -154 -155 -166 -167 -177 -178 -188 0
-42 -61 -62 -96 -98 -112 -113 -127 -128 -141 -142 -154 -155 -166 -167 -177 -178 -188 0
-43 -61 -63 -96 -98 -112 -113 -127 -128 -141 -142 -154 -155 -166 -167 -177 -178 -188 0
-43 -62 -63 -96 -99 -112 -113 -127 -128 -141 -142 -154 -155 -166 -167 -177 -178 -188 0
-42 -61 -62 -97 -98 -112 -114 -127 -128 -141 -142 -154 -155 -166 -167 -177 -178 -188 0
-43 -61 -63 -97 -98 -112 -114 -127 -128 -141 -142 -154 -155 -166 -167 -177 -178 -188 0
-43 -62 -63 -97 -99 -112 -114 -127 -128 -141 -142 -154 -155 -166 -167 -177 -178 -188 0
-43 -62 -63 -98 -99 -112 -115 -127 -128 -141 -142 -154 -155 -166 -167 -177 -178 -188 0
-42 -61 -62 -97 -98 -113 -114 -127 -129 -141 -142 -154 -155 -166 -167 -177 -178 -188 0
-43 -61 -63 -97 -98 -113 -114 -127 -129 -141 -142 -154 -155 -166 -167 -177 -178 -188 0
-43 -62 -63 -97 -99 -113 -114 -127 -129 -141 -142 -154 -155 -166 -167 -177 -178 -188 0
-43 -62 -63 -98 -99 -113 -115 -127 -129 -141 -142 -154 -155 -166 -167 -177 -178 -188 0
-43 -62 -63 -98 -99 -114 -115 -127 -130 -141 -142 -154 -155 -166 -167 -177 -178 -188 0
-42 -61 -62 -97 -98 -113 -114 -128 -129 -141 -143 -154 -155 -166 -167 -177 -178 -188 0
-43 -61 -63 -97 -98 -113 -114 -128 -129 -141 -143 -154 -155 -166 -167 -177 -178 -188 0
-43 -62 -63 -97 -99 -113 -114 -128 -129 -141 -143 -154 -155 -166 -167 -177 -178 -188 0
-43 -62 -63 -98 -99 -113 -115 -128 -129 -141 -143 -154 -155 -166 -167 -177 -178 -188 0
-43 -62 -63 -98 -99 -114 -115 -128 -130 -141 -143 -154 -155 -166 -167 -177 -178 -188 0
-43 -62 -63 -98 -99 -114 -115 -129 -130 -141 -144 -154 -155 -166 -167 -177 -178 -188 0
-42 -61 -62 -97 -98 -113 -114 -128 -129 -142 -143 -154 -156 -166 -167 -177 -178 -188 0
-43 -61 -63 -97 -98 -113 -114 -128 -129 -142 -143 -154 -156 -166 -167 -177 -178 -188 0
-43 -62 -63 -97 -99 -113 -114 -128 -129 -142 -143 -154 -156 -166 -167 -177 -178 -188 0
-43 -62 -63 -98 -99 -113 -115 -128 -129 -142 -143 -154 -156 -166 -167 -177 -178 -188 0
-43 -62 -63 -98 -99 -114 -115 -128 -130 -142 -143 -154 -156 -166 -167 -177 -178 -188 0
-43 -62 -63 -98 -99 -114 -115 -129 -130 -142 -144 -154 -156 -166 -167 -177 -178 -188 0
-43 -62 -63 -98 -99 -114 -115 -129 -130 -143 -144 -154 -157 -166 -167 -177 -178 -188 0
-42 -61 -62 -97 -98 -113 -114 -128 -129 -142 -143 -155 -156 -166 -168 -177 -178 -188 0
-43 -61 -63 -97 -98 -113 -114 -128 -129 -142 -143 -155 -156 -166 -168 -177 -178 -188 0
-43 -62 -63 -97 -99 -113 -114 -128 -129 -142 -143 -155 -156 -166 -168 -177 -178 -188 0
-43 -62 -63 -98 -99 -113 -115 -128 -129 -142 -143 -155 -156 -166 -168 -177 -178 -188 0
-43 -62 -63 -98 -99 -114 -115 -128 -130 -142 -143 -155 -156 -166 -168 -177 -178 -188 0
-43 -62 -63 -98 -99 -114 -115 -129 -130 -142 -144 -155 -156 -166 -168 -177 -178 -188 0
-43 -62 -63 -98 -99 -114 -115 -129 -130 -143 -144 -155 -157 -166 -168 -177 -178 -188 0
-43 -62 -63 -98 -99 -114 -115 -129 -130 -143 -144 -156 -157 -166 -169 -177 -178 -188 0
-42 -61 -62 -97 -98 -113 -114 -128 -129 -142 -143 -155 -156 -167 -168 -177 -179 -188 0
-43 -61 -63 -97 -98 -113 -114 -128 -129 -142 -143 -155 -156 -167 -168 -177 -179 -188 0
-43 -62 -63 -97 -99 -113 -114 -128 -129 -142 -143 -155 -156 -167 -168 -177 -179 -188 0
-43 -62 -63 -98 -99 -113 -115 -128 -129 -142 -143 -155 -156 -167 -168 -177 -179 -188 0
-43 -62 -63 -98 -99 -114 -115 -128 -130 -142 -143 -155 -156 -167 -168 -177 -179 -188 0
-43 -62 -63 -98 -99 -114 -115 -129 -130 -142 -144 -155 -156 -167 -168 -177 -179 -188 0
-43 -62 -63 -98 -99 -114 -115 -129 -130 -143 -144 -155 -157 -167 -168 -177 -179 -188 0
-43 -62 -63 -98 -99 -114 -115 -129 -130 -143 -144 -156 -157 -167 -169 -177 -179 -188 0
-43 -62 -63 -98 -99 -114 -115 -129 -130 -143 -144 -156 -157 -168 -169 -177 -180 -188 0
-42 -61 -62 -97 -98 -113 -114 -128 -129 -142 -143 -155 -156 -167 -168 -178 -179 -189 0
-43 -61 -63 -97 -98 -113 -114 -128 -129 -142 -143 -155 -156 -167 -168 -178 -179 -189 0
-43 -62 -63 -97 -99 -113 -114 -128 -129 -142 -143 -155 -156 -167 -168 -178 -179 -189 0
-43 -62 -63 -98 -99 -113 -115 -128 -129 -142 -143 -155 -156 -167 -168 -178 -179 -189 0
-43 -62 -63 -98 -99 -114 -115 -128 -130 -142 -143 -155 -156 -167 -168 -178 -179 -189 0
-43 -62 -63 -98 -99 -114 -115 -129 -130 -142 -144 -155 -156 -167 -168 -178 -179 -189 0
-43 -62 -63 -98 -99 -114 -115 -129 -130 -143 -144 -155 -157 -167 -168 -178 -179 -189 0
-43 -62 -63 -98 -99 -114 -115 -129 -130 -143 -144 -156 -157 -167 -169 -178 -179 -189 0
-43 -62 -63 -98 -99 -114 -115 -129 -130 -143 -144 -156 -157 -168 -169 -178 -180 -189 0
-43 -62 -63 -98 -99 -114 -115 -129 -130 -143 -144 -156 -157 -168 -169 -179 -180 -190 0
-42 -61 -62 -97 -98 -113 -114 -128 -129 -142 -143 -155 -156 -167 -168 -178 -179 -199 0
-43 -61 -63 -97 -98 -113 -114 -128 -129 -142 -143 -155 -156 -167 -168 -178 -179 -199 0
-43 -62 -63 -97 -99 -113 -114 -128 -129 -142 -143 -155 -156 -167 -168 -178 -179 -199 0
-43 -62 -63 -98 -99 -113 -115 -128 -129 -142 -143 -155 -156 -167 -168 -178 -179 -199 0
-43 -62 -63 -98 -99 -114 -115 -128 -130 -142 -143 -155 -156 -167 -168 -178 -179 -199 0
-43 -62 -63 -98 -99 -114 -115 -129 -130 -142 -144 -155 -156 -167 -168 -178 -179 -199 0
-43 -62 -63 -98 -99 -114 -115 -129 -130 -143 -144 -155 -157 -167 -168 -178 -179 -199 0
-43 -62 -63 -98 -99 -114 -115 -129 -130 -143 -144 -156 -157 -167 -169 -178 -179 -199 0
-43 -62 -63 -98 -99 -114 -115 -129 -130 -143 -144 -156 -157 -168 -169 -178 -180 -199 0
-43 -62 -63 -98 -99 -114 -115 -129 -130 -143 -144 -156 -157 -168 -169 -179 -180 -200 0
-43 -62 -63 -98 -99 -114 -115 -129 -130 -143 -144 -156 -157 -168 -169 -179 -180 -209 0
-42 -61 -62 -97 -98 -113 -114 -128 -129 -142 -143 -155 -156 -167 -168 -189 -190 -199 0
-43 -61 -63 -97 -98 -113 -114 -128 -129 -142 -143 -155 -156 -167 -168 -189 -190 -199 0
-43 -62 -63 -97 -99 -113 -114 -128 -129 -142 -143 -155 -156 -167 -168 -189 -190 -199 0
-43 -62 -63 -98 -99 -113 -115 -128 -129 -142 -143 -155 -156 -167 -168 -189 -190 -199 0
-43 -62 -63 -98 -99 -114 -115 -128 -130 -142 -143 -155 -156 -167 -168 -189 -190 -199 0
-43 -62 -63 -98 -99 -114 -115 -129 -130 -142 -144 -155 -156 -167 -168 -189 -190 -199 0
-43 -62 -63 -98 -99 -114 -115 -129 -130 -143 -144 -155 -157 -167 -168 -189 -190 -199 0
-43 -62 -63 -98 -99 -114 -115 -129 -130 -143 -144 -156 -157 -167 -169 -189 -190 -199 0
-43 -62 -63 -98 -99 -114 -115 -129 -130 -143 -144 -156 -157 -168 -169 -189 -191 -199 0
-43 -62 -63 -98 -99 -114 -115 -129 -130 -143 -144 -156 -157 -168 -169 -190 -191 -200 0
-43 -62 -63 -98 -99 -114 -115 -129 -130 -143 -144 -156 -157 -168 -169 -190 -191 -209 0
-43 -62 -63 -98 -99 -114 -115 -129 -130 -143 -144 -156 -157 -168 -169 -200 -201 -209 0
-42 -61 -62 -97 -98 -113 -114 -128 -129 -142 -143 -155 -156 -179 -180 -189 -190 -199 0
-43 -61 -63 -97 -98 -113 -114 -128 -129 -142 -143 -155 -156 -179 -180 -189 -190 -199 0
-43 -62 -63 -97 -99 -113 -114 -128 -129 -142 -143 -155 -156 -179 -180 -189 -190 -199 0
-43 -62 -63 -98 -99 -113 -115 -128 -129 -142 -143 -155 -156 -179 -180 -189 -190 -199 0
-43 -62 -63 -98 -99 -114 -115 -128 -130 -142 -143 -155 -156 -179 -180 -189 -190 -199 0
-43 -62 -63 -98 -99 -114 -115 -129 -130 -142 -144 -155 -156 -179 -180 -189 -190 -199 0
-43 -62 -63 -98 -99 -114 -115 -129 -130 -143 -144 -155 -157 -179 -180 -189 -190 -199 0
-43 -62 -63 -98 -99 -114 -115 -129 -130 -143 -144 -156 -157 -179 -181 -189 -190 -199 0
-43 -62 -63 -98 -99 -114 -115 -129 -130 -143 -144 -156 -157 -180 -181 -189 -191 -199 0
-43 -62 -63 -98 -99 -114 -115 -129 -130 -143 -144 -156 -157 -180 -181 -190 -191 -200 0
-43 -62 -63 -98 -99 -114 -115 -129 -130 -143 -144 -156 -157 -180 -181 -190 -191 -209 0
-43 -62 -63 -98 -99 -114 -115 -129 -130 -143 -144 -156 -157 -180 -181 -200 -201 -209 0
-43 -62 -63 -98 -99 -114 -115 -129 -130 -143 -144 -156 -157 -191 -192 -200 -201 -209 0
-42 -61 -62 -97 -98 -113 -114 -128 -129 -142 -143 -168 -169 -179 -180 -189 -190 -199 0
-43 -61 -63 -97 -98 -113 -114 -128 -129 -142 -143 -168 -169 -179 -180 -189 -190 -199 0
-43 -62 -63 -97 -99 -113 -114 -128 -129 -142 -143 -168 -169 -179 -180 -189 -190 -199 0
-43 -62 -63 -98 -99 -113 -115 -128 -129 -142 -143 -168 -169 -179 -180 -189 -190 -199 0
-43 -62 -63 -98 -99 -114 -115 -128 -130 -142 -143 -168 -169 -179 -180 -189 -190 -199 0
-43 -62 -63 -98 -99 -114 -115 -129 -130 -142 -144 -168 -169 -179 -180 -189 -190 -199 0
-43 -62 -63 -98 -99 -114 -115 -129 -130 -143 -144 -168 -170 -179 -180 -189 -190 -199 0
-43 -62 -63 -98 -99 -114 -115 -129 -130 -143 -144 -169 -170 -179 -181 -189 -190 -199 0
-43 -62 -63 -98 -99 -114 -115 -129 -130 -143 -144 -169 -170 -180 -181 -189 -191 -199 0
-43 -62 -63 -98 -99 -114 -115 -129 -130 -143 -144 -169 -170 -180 -181 -190 -191 -200 0
-43 -62 -63 -98 -99 -114 -115 -129 -130 -143 -144 -169 -170 -180 -181 -190 -191 -209 0
-43 -62 -63 -98 -99 -114 -115 -129 -130 -143 -144 -169 -170 -180 -181 -200 -201 -209 0
-43 -62 -63 -98 -99 -114 -115 -129 -130 -143 -144 -169 -170 -191 -192 -200 -201 -209 0
-43 -62 -63 -98 -99 -114 -115 -129 -130 -143 -144 -181 -182 -191 -192 -200 -201 -209 0
-42 -61 -62 -97 -98 -113 -114 -128 -129 -156 -157 -168 -169 -179 -180 -189 -190 -199 0
-43 -61 -63 -97 -98 -113 -114 -128 -129 -156 -157 -168 -169 -179 -180 -189 -190 -199 0
-43 -62 -63 -97 -99 -113 -114 -128 -129 -156 -157 -168 -169 -179 -180 -189 -190 -199 0
-43 -62 -63 -98 -99 -113 -115 -128 -129 -156 -157 -168 -169 -179 -180 -189 -190 -199 0
-43 -62 -63 -98 -99 -114 -115 -128 -130 -156 -157 -168 -169 -179 -180 -189 -190 -199 0
-43 -62 -63 -98 -99 -114 -115 -129 -130 -156 -158 -168 -169 -179 -180 -189 -190 -199 0
-43 -62 -63 -98 -99 -114 -115 -129 -130 -157 -158 -168 -170 -179 -180 -189 -190 -199 0
-43 -62 -63 -98 -99 -114 -115 -129 -130 -157 -158 -169 -170 -179 -181 -189 -190 -199 0
-43 -62 -63 -98 -99 -114 -115 -129 -130 -157 -158 -169 -170 -180 -181 -189 -191 -199 0
-43 -62 -63 -98 -99 -114 -115 -129 -130 -157 -158 -169 -170 -180 -181 -190 -191 -200 0
-43 -62 -63 -98 -99 -114 -115 -129 -130 -157 -158 -169 -170 -180 -181 -190 -191 -209 0
-43 -62 -63 -98 -99 -114 -115 -129 -130 -157 -158 -169 -170 -180 -181 -200 -201 -209 0
-43 -62 -63 -98 -99 -114 -115 -129 -130 -157 -158 -169 -170 -191 -192 -200 -201 -209 0
-43 -62 -63 -98 -99 -114 -115 -129 -130 -157 -158 -181 -182 -191 -192 -200 -201 -209 0
-43 -62 -63 -98 -99 -114 -115 -129 -130 -170 -171 -181 -182 -191 -192 -200 -201 -209 0
-42 -61 -62 -97 -98 -113 -114 -143 -144 -156 -157 -168 -169 -179 -180 -189 -190 -199 0
-43 -61 -63 -97 -98 -113 -114 -143 -144 -156 -157 -168 -169 -179 -180 -189 -190 -199 0
-43 -62 -63 -97 -99 -113 -114 -143 -144 -156 -157 -168 -169 -179 -180 -189 -190 -199 0
-43 -62 -63 -98 -99 -113 -115 -143 -144 -156 -157 -168 -169 -179 -180 -189 -190 -199 0
-43 -62 -63 -98 -99 -114 -115 -143 -145 -156 -157 -168 -169 -179 -180 -189 -190 -199 0
-43 -62 -63 -98 -99 -114 -115 -144 -145 -156 -158 -168 -169 -179 -180 -189 -190 -199 0
-43 -62 -63 -98 -99 -114 -115 -144 -145 -157 -158 -168 -170 -179 -180 -189 -190 -199 0
-43 -62 -63 -98 -99 -114 -115 -144 -145 -157 -158 -169 -170 -179 -181 -189 -190 -199 0
-43 -62 -63 -98 -99 -114 -115 -144 -145 -157 -158 -169 -170 -180 -181 -189 -191 -199 0
-43 -62 -63 -98 -99 -114 -115 -144 -145 -157 -158 -169 -170 -180 -181 -190 -191 -200 0
-43 -62 -63 -98 -99 -114 -115 -144 -145 -157 -158 -169 -170 -180 -181 -190 -191 -209 0
-43 -62 -63 -98 -99 -114 -115 -144 -145 -157 -158 -169 -170 -180 -181 -200 -201 -209 0
-43 -62 -63 -98 -99 -114 -115 -144 -145 -157 -158 -169 -170 -191 -192 -200 -201 -209 0
-43 -62 -63 -98 -99 -114 -115 -144 -145 -157 -158 -181 -182 -191 -192 -200 -201 -209 0
-43 -62 -63 -98 -99 -114 -115 -144 -145 -170 -171 -181 -182 -191 -192 -200 -201 -209 0
-43 -62 -63 -98 -99 -114 -115 -158 -159 -170 -171 -181 -182 -191 -192 -200 -201 -209 0
-42 -61 -62 -97 -98 -129 -130 -143 -144 -156 -157 -168 -169 -179 -180 -189 -190 -199 0
-43 -61 -63 -97 -98 -129 -130 -143 -144 -156 -157 -168 -169 -179 -180 -189 -190 -199 0
-43 -62 -63 -97 -99 -129 -130 -143 -144 -156 -157 -168 -169 -179 -180 -189 -190 -199 0
-43 -62 -63 -98 -99 -129 -131 -143 -144 -156 -157 -168 -169 -179 -180 -189 -190 -199 0
-43 -62 -63 -98 -99 -130 -131 -143 -145 -156 -157 -168 -169 -179 -180 -189 -190 -199 0
-43 -62 -63 -98 -99 -130 -131 -144 -145 -156 -158 -168 -169 -179 -180 -189 -190 -199 0
-43 -62 -63 -98 -99 -130 -131 -144 -145 -157 -158 -168 -170 -179 -180 -189 -190 -199 0
-43 -62 -63 -98 -99 -130 -131 -144 -145 -157 -158 -169 -170 -179 -181 -189 -190 -199 0
-43 -62 -63 -98 -99 -130 -131 -144 -145 -157 -158 -169 -170 -180 -181 -189 -191 -199 0
-43 -62 -63 -98 -99 -130 -131 -144 -145 -157 -158 -169 -170 -180 -181 -190 -191 -200 0
-43 -62 -63 -98 -99 -130 -131 -144 -145 -157 -158 -169 -170 -180 -181 -190 -191 -209 0
-43 -62 -63 -98 -99 -130 -131 -144 -145 -157 -158 -169 -170 -180 -181 -200 -201 -209 0
-43 -62 -63 -98 -99 -130 -131 -144 -145 -157 -158 -169 -170 -191 -192 -200 -201 -209 0
-43 -62 -63 -98 -99 -130 -131 -144 -145 -157 -158 -181 -182 -191 -192 -200 -201 -209 0
-43 -62 -63 -98 -99 -130 -131 -144 -145 -170 -171 -181 -182 -191 -192 -200 -201 -209 0
-43 -62 -63 -98 -99 -130 -131 -158 -159 -170 -171 -181 -182 -191 -192 -200 -201 -209 0
-43 -62 -63 -98 -99 -145 -146 -158 -159 -170 -171 -181 -182 -191 -192 -200 -201 -209 0
-42 -61 -62 -114 -115 -129 -130 -143 -144 -156 -157 -168 -169 -179 -180 -189 -190 -199 0
-43 -61 -63 -114 -115 -129 -130 -143 -144 -156 -157 -168 -169 -179 -180 -189 -190 -199 0
-43 -62 -63 -114 -116 -129 -130 -143 -144 -156 -157 -168 -169 -179 -180 -189 -190 -199 0
-43 -62 -63 -115 -116 -129 -131 -143 -144 -156 -157 -168 -169 -179 -180 -189 -190 -199 0
-43 -62 -63 -115 -116 -130 -131 -143 -145 -156 -157 -168 -169 -179 -180 -189 -190 -199 0
-43 -62 -63 -115 -116 -130 -131 -144 -145 -156 -158 -168 -169 -179 -180 -189 -190 -199 0
-43 -62 -63 -115 -116 -130 -131 -144 -145 -157 -158 -168 -170 -179 -180 -189 -190 -199 0
-43 -62 -63 -115 -116 -130 -131 -144 -145 -157 -158 -169 -170 -179 -181 -189 -190 -199 0
-43 -62 -63 -115 -116 -130 -131 -144 -145 -157 -158 -169 -170 -180 -181 -189 -191 -199 0
-43 -62 -63 -115 -116 -130 -131 -144 -145 -157 -158 -169 -170 -180 -181 -190 -191 -200 0
-43 -62 -63 -115 -116 -130 -131 -144 -145 -157 -158 -169 -170 -180 -181 -190 -191 -209 0
-43 -62 -63 -115 -116 -130 -131 -144 -145 -157 -158 -169 -170 -180 -181 -200 -201 -209 0
-43 -62 -63 -115 -116 -130 -131 -144 -145 -157 -158 -169 -170 -191 -192 -200 -201 -209 0
-43 -62 -63 -115 -116 -130 -131 -144 -145 -157 -158 -181 -182 -191 -192 -200 -201 -209 0
-43 -62 -63 -115 -116 -130 -131 -144 -145 -170 -171 -181 -182 -191 -192 -200 -201 -209 0
-43 -62 -63 -115 -116 -130 -131 -158 -159 -170 -171 -181 -182 -191 -192 -200 -201 -209 0
-43 -62 -63 -115 -116 -145 -146 -158 -159 -170 -171 -181 -182 -191 -192 -200 -201 -209 0
-43 -62 -63 -131 -132 -145 -146 -158 -159 -170 -171 -181 -182 -191 -192 -200 -201 -209 0
-41 -79 -80 -96 -97 -112 -113 -127 -128 -141 -142 -154 -155 -166 -167 -177 -178 -188 0
-42 -79 -81 -96 -97 -112 -113 -127 -128 -141 -142 -154 -155 -166 -167 -177 -178 -188 0
-43 -79 -82 -96 -97 -112 -113 -127 -128 -141 -142 -154 -155 -166 -167 -177 -178 -188 0
-42 -80 -81 -96 -98 -112 -113 -127 -128 -141 -142 -154 -155 -166 -167 -177 -178 -188 0
-43 -80 -82 -96 -98 -112 -113 -127 -128 -141 -142 -154 -155 -166 -167 -177 -178 -188 0
-43 -81 -82 -96 -99 -112 -113 -127 -128 -141 -142 -154 -155 -166 -167 -177 -178 -188 0
-42 -80 -81 -97 -98 -112 -114 -127 -128 -141 -142 -154 -155 -166 -167 -177 -178 -188 0
-43 -80 -82 -97 -98 -112 -114 -127 -128 -141 -142 -154 -155 -166 -167 -177 -178 -188 0
-43 -81 -82 -97 -99 -112 -114 -127 -128 -141 -142 -154 -155 -166 -167 -177 -178 -188 0
-43 -81 -82 -98 -99 -112 -115 -127 -128 -141 -142 -154 -155 -166 -167 -177 -178 -188 0
-42 -80 -81 -97 -98 -113 -114 -127 -129 -141 -142 -154 -155 -166 -167 -177 -178 -188 0
-43 -80 -82 -97 -98 -113 -114 -127 -129 -141 -142 -154 -155 -166 -167 -177 -178 -188 0
-43 -81 -82 -97 -99 -113 -114 -127 -129 -141 -142 -154 -155 -166 -167 -177 -178 -188 0
-43 -81 -82 -98 -99 -113 -115 -127 -129 -141 -142 -154 -155 -166 -167 -177 -178 -188 0
-43 -81 -82 -98 -99 -114 -115 -127 -130 -141 -142 -154 -155 -166 -167 -177 -178 -188 0
-42 -80 -81 -97 -98 -113 -114 -128 -129 -141 -143 -154 -155 -166 -167 -177 -178 -188 0
-43 -80 -82 -97 -98 -113 -114 -128 -129 -141 -143 -154 -155 -166 -167 -177 -178 -188 0
-43 -81 -82 -97 -99 -113 -114 -128 -129 -141 -143 -154 -155 -166 -167 -177 -178 -188 0
-43 -81 -82 -98 -99 -113 -115 -128 -129 -141 -143 -154 -155 -166 -167 -177 -178 -188 0
-43 -81 -82 -98 -99 -114 -115 -128 -130 -141 -143 -154 -155 -166 -167 -177 -178 -188 0
-43 -81 -82 -98 -99 -114 -115 -129 -130 -141 -144 -154 -155 -166 -167 -177 -178 -188 0
-42 -80 -81 -97 -98 -113 -114 -128 -129 -142 -143 -154 -156 -166 -167 -177 -178 -188 0
-43 -80 -82 -97 -98 -113 -114 -128 -129 -142 -143 -154 -156 -166 -167 -177 -178 -188 0
-43 -81 -82 -97 -99 -113 -114 -128 -129 -142 -143 -154 -156 -166 -167 -177 -178 -188 0
-43 -81 -82 -98 -99 -113 -115 -128 -129 -142 -143 -154 -156 -166 -167 -177 -178 -188 0
-43 -81 -82 -98 -99 -114 -115 -128 -130 -142 -143 -154 -156 -166 -167 -177 -178 -188 0
-43 -81 -82 -98 -99 -114 -115 -129 -130 -142 -144 -154 -156 -166 -167 -177 -178 -188 0
-43 -81 -82 -98 -99 -114 -115 -129 -130 -143 -144 -154 -157 -166 -167 -177 -178 -188 0
-42 -80 -81 -97 -98 -113 -114 -128 -129 -142 -143 -155 -156 -166 -168 -177 -178 -188 0
-43 -80 -82 -97 -98 -113 -114 -128 -129 -142 -143 -155 -156 -166 -168 -177 -178 -188 0
-43 -81 -82 -97 -99 -113 -114 -128 -129 -142 -143 -155 -156 -166 -168 -177 -178 -188 0
-43 -81 -82 -98 -99 -113 -115 -128 -129 -142 -143 -155 -156 -166 -168 -177 -178 -188 0
-43 -81 -82 -98 -99 -114 -115 -128 -130 -142 -143 -155 -156 -166 -168 -177 -178 -188 0
-43 -81 -82 -98 -99 -114 -115 -129 -130 -142 -144 -155 -156 -166 -168 -177 -178 -188 0
-43 -81 -82 -98 -99 -114 -115 -129 -130 -143 -144 -155 -157 -166 -168 -177 -178 -188 0
-43 -81 -82 -98 -99 -114 -115 -129 -130 -143 -144 -156 -157 -166 -169 -177 -178 -188 0
-42 -80 -81 -97 -98 -113 -114 -128 -129 -142 -143 -155 -156 -167 -168 -177 -179 -188 0
-43 -80 -82 -97 -98 -113 -114 -128 -129 -142 -143 -155 -156 -167 -168 -177 -179 -188 0
-43 -81 -82 -97 -99 -113 -114 -128 -129 -142 -143 -155 -156 -167 -168 -177 -179 -188 0
-43 -81 -82 -98 -99 -113 -115 -128 -129 -142 -143 -155 -156 -167 -168 -177 -179 -188 0
-43 -81 -82 -98 -99 -114 -115 -128 -130 -142 -143 -155 -156 -167 -168 -177 -179 -188 0
-43 -81 -82 -98 -99 -114 -115 -129 -130 -142 -144 -155 -156 -167 -168 -177 -179 -188 0
-43 -81 -82 -98 -99 -114 -115 -129 -130 -143 -144 -155 -157 -167 -168 -177 -179 -188 0
-43 -81 -82 -98 -99 -114 -115 -129 -130 -143 -144 -156 -157 -167 -169 -177 -179 -188 0
-43 -81 -82 -98 -99 -114 -115 -129 -130 -143 -144 -156 -157 -168 -169 -177 -180 -188 0
-42 -80 -81 -97 -98 -113 -114 -128 -129 -142 -143 -155 -156 -167 -168 -178 -179 -189 0
-43 -80 -82 -97 -98 -113 -114 -128 -129 -142 -143 -155 -156 -167 -168 -178 -179 -189 0
-43 -81 -82 -97 -99 -113 -114 -128 -129 -142 -143 -155 -156 -167 -168 -178 -179 -189 0
-43 -81 -82 -98 -99 -113 -115 -128 -129 -142 -143 -155 -156 -167 -168 -178 -179 -189 0
-43 -81 -82 -98 -99 -114 -115 -128 -130 -142 -143 -155 -156 -167 -168 -178 -179 -189 0
-43 -81 -82 -98 -99 -114 -115 -129 -130 -142 -144 -155 -156 -167 -168 -178 -179 -189 0
-43 -81 -82 -98 -99 -114 -115 -129 -130 -143 -144 -155 -157 -167 -168 -178 -179 -189 0
-43 -81 -82 -98 -99 -114 -115 -129 -130 -143 -144 -156 -157 -167 -169 -178 -179 -189 0
-43 -81 -82 -98 -99 -114 -115 -129 -130 -143 -144 -156 -157 -168 -169 -178 -180 -189 0
-43 -81 -82 -98 -99 -114 -115 -129 -130 -143 -144 -156 -157 -168 -169 -179 -180 -190 0
-42 -80 -81 -97 -98 -113 -114 -128 -129 -142 -143 -155 -156 -167 -168 -178 -179 -199 0
-43 -80 -82 -97 -98 -113 -114 -128 -129 -142 -143 -155 -156 -167 -168 -178 -179 -199 0
-43 -81 -82 -97 -99 -113 -114 -128 -129 -142 -143 -155 -156 -167 -168 -178 -179 -199 0
-43 -81 -82 -98 -99 -113 -115 -128 -129 -142 -143 -155 -156 -167 -168 -178 -179 -199 0
-43 -81 -82 -98 -99 -114 -115 -128 -130 -142 -143 -155 -156 -167 -168 -178 -179 -199 0
-43 -81 -82 -98 -99 -114 -115 -129 -130 -142 -144 -155 -156 -167 -168 -178 -179 -199 0
-43 -81 -82 -98 -99 -114 -115 -129 -130 -143 -144 -155 -157 -167 -168 -178 -179 -199 0
-43 -81 -82 -98 -99 -114 -115 -129 -130 -143 -144 -156 -157 -167 -169 -178 -179 -199 0
-43 -81 -82 -98 -99 -114 -115 -129 -130 -143 -144 -156 -157 -168 -169 -178 -180 -199 0
-43 -81 -82 -98 -99 -114 -115 -129 -130 -143 -144 -156 -157 -168 -169 -179 -180 -200 0
-43 -81 -82 -98 -99 -114 -115 -129 -130 -143 -144 -156 -157 -168 -169 -179 -180 -209 0
-42 -80 -81 -97 -98 -113 -114 -128 -129 -142 -143 -155 -156 -167 -168 -189 -190 -199 0
-43 -80 -82 -97 -98 -113 -114 -128 -129 -142 -143 -155 -156 -167 -168 -189 -190 -199 0
-43 -81 -82 -97 -99 -113 -114 -128 -129 -142 -143 -155 -156 -167 -168 -189 -190 -199 0
-43 -81 -82 -98 -99 -113 -115 -128 -129 -142 -143 -155 -156 -167 -168 -189 -190 -199 0
-43 -81 -82 -98 -99 -114 -115 -128 -130 -142 -143 -155 -156 -167 -168 -189 -190 -199 0
-43 -81 -82 -98 -99 -114 -115 -129 -130 -142 -144 -155 -156 -167 -168 -189 -190 -199 0
-43 -81 -82 -98 -99 -114 -115 -129 -130 -143 -144 -155 -157 -167 -168 -189 -190 -199 0
-43 -81 -82 -98 -99 -114 -115 -129 -130 -143 -144 -156 -157 -167 -169 -189 -190 -199 0
-43 -81 -82 -98 -99 -114 -115 -129 -130 -143 -144 -156 -157 -168 -169 -189 -191 -199 0
-43 -81 -82 -98 -99 -114 -115 -129 -130 -143 -144 -156 -157 -168 -169 -190 -191 -200 0
-43 -81 -82 -98 -99 -114 -115 -129 -130 -143 -144 -156 -157 -168 -169 -190 -191 -209 0
-43 -81 -82 -98 -99 -114 -115 -129 -130 -143 -144 -156 -157 -168 -169 -200 -201 -209 0
-42 -80 -81 -97 -98 -113 -114 -128 -129 -142 -143 -155 -156 -179 -180 -189 -190 -199 0
-43 -80 -82 -97 -98 -113 -114 -128 -129 -142 -143 -155 -156 -179 -180 -189 -190 -199 0
-43 -81 -82 -97 -99 -113 -114 -128 -129 -142 -143 -155 -156 -179 -180 -189 -190 -199 0
-43 -81 -82 -98 -99 -113 -115 -128 -129 -142 -143 -155 -156 -179 -180 -189 -190 -199 0
-43 -81 -82 -98 -99 -114 -115 -128 -130 -142 -143 -155 -156 -179 -180 -189 -190 -199 0
-43 -81 -82 -98 -99 -114 -115 -129 -130 -142 -144 -155 -156 -179 -180 -189 -190 -199 0
-43 -81 -82 -98 -99 -114 -115 -129 -130 -143 -144 -155 -157 -179 -180 -189 -190 -199 0
-43 -81 -82 -98 -99 -114 -115 -129 -130 -143 -144 -156 -157 -179 -181 -189 -190 -199 0
-43 -81 -82 -98 -99 -114 -115 -129 -130 -143 -144 -156 -157 -180 -181 -189 -191 -199 0
-43 -81 -82 -98 -99 -114 -115 -129 -130 -143 -144 -156 -157 -180 -181 -190 -191 -200 0
-43 -81 -82 -98 -99 -114 -115 -129 -130 -143 -144 -156 -157 -180 -181 -190 -191 -209 0
-43 -81 -82 -98 -99 -114 -115 -129 -130 -143 -144 -156 -157 -180 -181 -200 -201 -209 0
-43 -81 -82 -98 -99 -114 -115 -129 -130 -143 -144 -156 -157 -191 -192 -200 -201 -209 0
-42 -80 -81 -97 -98 -113 -114 -128 -129 -142 -143 -168 -169 -179 -180 -189 -190 -199 0
-43 -80 -82 -97 -98 -113 -114 -128 -129 -142 -143 -168 -169 -179 -180 -189 -190 -199 0
-43 -81 -82 -97 -99 -113 -114 -128 -129 -142 -143 -168 -169 -179 -180 -189 -190 -199 0
-43 -81 -82 -98 -99 -113 -115 -128 -129 -142 -143 -168 -169 -179 -180 -189 -190 -199 0
-43 -81 -82 -98 -99 -114 -115 -128 -130 -142 -143 -168 -169 -179 -180 -189 -190 -199 0
-43 -81 -82 -98 -99 -114 -115 -129 -130 -142 -144 -168 -169 -179 -180 -189 -190 -199 0
-43 -81 -82 -98 -99 -114 -115 -129 -130 -143 -144 -168 -170 -179 -180 -189 -190 -199 0
-43 -81 -82 -98 -99 -114 -115 -129 -130 -143 -144 -169 -170 -179 -181 -189 -190 -199 0
-43 -81 -82 -98 -99 -114 -115 -129 -130 -143 -144 -169 -170 -180 -181 -189 -191 -199 0
-43 -81 -82 -98 -99 -114 -115 -129 -130 -143 -144 -169 -170 -180 -181 -190 -191 -200 0
-43 -81 -82 -98 -99 -114 -115 -129 -130 -143 -144 -169 -170 -180 -181 -190 -191 -209 0
-43 -81 -82 -98 -99 -114 -115 -129 -130 -143 -144 -169 -170 -180 -181 -200 -201 -209 0
-43 -81 -82 -98 -99 -114 -115 -129 -130 -143 -144 -169 -170 -191 -192 -200 -201 -209 0
-43 -81 -82 -98 -99 -114 -115 -129 -130 -143 -144 -181 -182 -191 -192 -200 -201 -209 0
-42 -80 -81 -97 -98 -113 -114 -128 -129 -156 -157 -168 -169 -179 -180 -189 -190 -199 0
-43 -80 -82 -97 -98 -113 -114 -128 -129 -156 -157 -168 -169 -179 -180 -189 -190 -199 0
-43 -81 -82 -97 -99 -113 -114 -128 -129 -156 -157 -168 -169 -179 -180 -189 -190 -199 0
-43 -81 -82 -98 -99 -113 -115 -128 -129 -156 -157 -168 -169 -179 -180 -189 -190 -199 0
-43 -81 -82 -98 -99 -114 -115 -128 -130 -156 -157 -168 -169 -179 -180 -189 -190 -199 0
-43 -81 -82 -98 -99 -114 -115 -129 -130 -156 -158 -168 -169 -179 -180 -189 -190 -199 0
-43 -81 -82 -98 -99 -114 -115 -129 -130 -157 -158 -168 -170 -179 -180 -189 -190 -199 0
-43 -81 -82 -98 -99 -114 -115 -129 -130 -157 -158 -169 -170 -179 -181 -189 -190 -199 0
-43 -81 -82 -98 -99 -114 -115 -129 -130 -157 -158 -169 -170 -180 -181 -189 -191 -199 0
-43 -81 -82 -98 -99 -114 -115 -129 -130 -157 -158 -169 -170 -180 -181 -190 -191 -200 0
-43 -81 -82 -98 -99 -114 -115 -129 -130 -157 -158 -169 -170 -180 -181 -190 -191 -209 0
-43 -81 -82 -98 -99 -114 -115 -129 -130 -157 -158 -169 -170 -180 -181 -200 -201 -209 0
-43 -81 -82 -98 -99 -114 -115 -129 -130 -157 -158 -169 -170 -191 -192 -200 -201 -209 0
-43 -81 -82 -98 -99 -114 -115 -129 -130 -157 -158 -181 -182 -191 -192 -200 -201 -209 0
-43 -81 -82 -98 -99 -114 -115 -129 -130 -170 -171 -181 -182 -191 -192 -200 -201 -209 0
-42 -80 -81 -97 -98 -113 -114 -143 -144 -156 -157 -168 -169 -179 -180 -189 -190 -199 0
-43 -80 -82 -97 -98 -113 -114 -143 -144 -156 -157 -168 -169 -179 -180 -189 -190 -199 0
-43 -81 -82 -97 -99 -113 -114 -143 -144 -156 -157 -168 -169 -179 -180 -189 -190 -199 0
-43 -81 -82 -98 -99 -113 -115 -143 -144 -156 -157 -168 -169 -179 -180 -189 -190 -199 0
-43 -81 -82 -98 -99 -114 -115 -143 -145 -156 -157 -168 -169 -179 -180 -189 -190 -199 0
-43 -81 -82 -98 -99 -114 -115 -144 -145 -156 -158 -168 -169 -179 -180 -189 -190 -199 0
-43 -81 -82 -98 -99 -114 -115 -144 -145 -157 -158 -168 -170 -179 -180 -189 -190 -199 0
-43 -81 -82 -98 -99 -114 -115 -144 -145 -157 -158 -169 -170 -179 -181 -189 -190 -199 0
-43 -81 -82 -98 -99 -114 -115 -144 -145 -157 -158 -169 -170 -180 -181 -189 -191 -199 0
-43 -81 -82 -98 -99 -114 -115 -144 -145 -157 -158 -169 -170 -180 -181 -190 -191 -200 0
-43 -81 -82 -98 -99 -114 -115 -144 -145 -157 -158 -169 -170 -180 -181 -190 -191 -209 0
-43 -81 -82 -98 -99 -114 -115 -144 -145 -157 -158 -169 -170 -180 -181 -200 -201 -209 0
-43 -81 -82 -98 -99 -114 -115 -144 -145 -157 -158 -169 -170 -191 -192 -200 -201 -209 0
-43 -81 -82 -98 -99 -114 -115 -144 -145 -157 -158 -181 -182 -191 -192 -200 -201 -209 0
-43 -81 -82 -98 -99 -114 -115 -144 -145 -170 -171 -181 -182 -191 -192 -200 -201 -209 0
-43 -81 -82 -98 -99 -114 -115 -158 -159 -170 -171 -181 -182 -191 -192 -200 -201 -209 0
-42 -80 -81 -97 -98 -129 -130 -143 -144 -156 -157 -168 -169 -179 -180 -189 -190 -199 0
-43 -80 -82 -97 -98 -129 -130 -143 -144 -156 -157 -168 -169 -179 -180 -189 -190 -199 0
-43 -81 -82 -97 -99 -129 -130 -143 -144 -156 -157 -168 -169 -179 -180 -189 -190 -199 0
-43 -81 -82 -98 -99 -129 -131 -143 -144 -156 -157 -168 -169 -179 -180 -189 -190 -199 0
-43 -81 -82 -98 -99 -130 -131 -143 -145 -156 -157 -168 -169 -179 -180 -189 -190 -199 0
-43 -81 -82 -98 -99 -130 -131 -144 -145 -156 -158 -168 -169 -179 -180 -189 -190 -199 0
-43 -81 -82 -98 -99 -130 -131 -144 -145 -157 -158 -168 -170 -179 -180 -189 -190 -199 0
-43 -81 -82 -98 -99 -130 -131 -144 -145 -157 -158 -169 -170 -179 -181 -189 -190 -199 0
-43 -81 -82 -98 -99 -130 -131 -144 -145 -157 -158 -169 -170 -180 -181 -189 -191 -199 0
-43 -81 -82 -98 -99 -130 -131 -144 -145 -157 -158 -169 -170 -180 -181 -190 -191 -200 0
-43 -81 -82 -98 -99 -130 -131 -144 -145 -157 -158 -169 -170 -180 -181 -190 -191 -209 0
-43 -81 -82 -98 -99 -130 -131 -144 -145 -157 -158 -169 -170 -180 -181 -200 -201 -209 0
-43 -81 -82 -98 -99 -130 -131 -144 -145 -157 -158 -169 -170 -191 -192 -200 -201 -209 0
-43 -81 -82 -98 -99 -130 -131 -144 -145 -157 -158 -181 -182 -191 -192 -200 -201 -209 0
-43 -81 -82 -98 -99 -130 -131 -144 -145 -170 -171 -181 -182 -191 -192 -200 -201 -209 0
-43 -81 -82 -98 -99 -130 -131 -158 -159 -170 -171 -181 -182 -191 -192 -200 -201 -209 0
-43 -81 -82 -98 -99 -145 -146 -158 -159 -170 -171 -181 -182 -191 -192 -200 -201 -209 0
-42 -80 -81 -114 -115 -129 -130 -143 -144 -156 -157 -168 -169 -179 -180 -189 -190 -199 0
-43 -80 -82 -114 -115 -129 -130 -143 -144 -156 -157 -168 -169 -179 -180 -189 -190 -199 0
-43 -81 -82 -114 -116 -129 -130 -143 -144 -156 -157 -168 -169 -179 -180 -189 -190 -199 0
-43 -81 -82 -115 -116 -129 -131 -143 -144 -156 -157 -168 -169 -179 -180 -189 -190 -199 0
-43 -81 -82 -115 -116 -130 -131 -143 -145 -156 -157 -168 -169 -179 -180 -189 -190 -199 0
-43 -81 -82 -115 -116 -130 -131 -144 -145 -156 -158 -168 -169 -179 -180 -189 -190 -199 0
-43 -81 -82 -115 -116 -130 -131 -144 -145 -157 -158 -168 -170 -179 -180 -189 -190 -199 0
-43 -81 -82 -115 -116 -130 -131 -144 -145 -157 -158 -169 -170 -179 -181 -189 -190 -199 0
-43 -81 -82 -115 -116 -130 -131 -144 -145 -157 -158 -169 -170 -180 -181 -189 -191 -199 0
-43 -81 -82 -115 -116 -130 -131 -144 -145 -157 -158 -169 -170 -180 -181 -190 -191 -200 0
-43 -81 -82 -115 -116 -130 -131 -144 -145 -157 -158 -169 -170 -180 -181 -190 -191 -209 0
-43 -81 -82 -115 -116 -130 -131 -144 -145 -157 -158 -169 -170 -180 -181 -200 -201 -209 0
-43 -81 -82 -115 -116 -130 -131 -144 -145 -157 -158 -169 -170 -191 -192 -200 -201 -209 0
-43 -81 -82 -115 -116 -130 -131 -144 -145 -157 -158 -181 -182 -191 -192 -200 -201 -209 0
-43 -81 -82 -115 -116 -130 -131 -144 -145 -170 -171 -181 -182 -191 -192 -200 -201 -209 0
-43 -81 -82 -115 -116 -130 -131 -158 -159 -170 -171 -181 -182 -191 -192 -200 -201 -209 0
-43 -81 -82 -115 -116 -145 -146 -158 -159 -170 -171 -181 -182 -191 -192 -200 -201 -209 0
-43 -81 -82 -131 -132 -145 -146 -158 -159 -170 -171 -181 -182 -191 -192 -200 -201 -209 0
-42 -98 -99 -114 -115 -129 -130 -143 -144 -156 -157 -168 -169 -179 -180 -189 -190 -199 0
-43 -98 -100 -114 -115 -129 -130 -143 -144 -156 -157 -168 -169 -179 -180 -189 -190 -199 0
-43 -99 -100 -114 -116 -129 -130 -143 -144 -156 -157 -168 -169 -179 -180 -189 -190 -199 0
-43 -99 -100 -115 -116 -129 -131 -143 -144 -156 -157 -168 -169 -179 -180 -189 -190 -199 0
-43 -99 -100 -115 -116 -130 -131 -143 -145 -156 -157 -168 -169 -179 -180 -189 -190 -199 0
-43 -99 -100 -115 -116 -130 -131 -144 -145 -156 -158 -168 -169 -179 -180 -189 -190 -199 0
-43 -99 -100 -115 -116 -130 -131 -144 -145 -157 -158 -168 -170 -179 -180 -189 -190 -199 0
-43 -99 -100 -115 -116 -130 -131 -144 -145 -157 -158 -169 -170 -179 -181 -189 -190 -199 0
-43 -99 -100 -115 -116 -130 -131 -144 -145 -157 -158 -169 -170 -180 -181 -189 -191 -199 0
-43 -99 -100 -115 -116 -130 -131 -144 -145 -157 -158 -169 -170 -180 -181 -190 -191 -200 0
-43 -99 -100 -115 -116 -130 -131 -144 -145 -157 -158 -169 -170 -180 -181 -190 -191 -209 0
-43 -99 -100 -115 -116 -130 -131 -144 -145 -157 -158 -169 -170 -180 -181 -200 -201 -209 0
-43 -99 -100 -115 -116 -130 -131 -144 -145 -157 -158 -169 -170 -191 -192 -200 -201 -209 0
-43 -99 -100 -115 -116 -130 -131 -144 -145 -157 -158 -181 -182 -191 -192 -200 -201 -209 0
-43 -99 -100 -115 -116 -130 -131 -144 -145 -170 -171 -181 -182 -191 -192 -200 -201 -209 0
-43 -99 -100 -115 -116 -130 -131 -158 -159 -170 -171 -181 -182 -191 -192 -200 -201 -209 0
-43 -99 -100 -115 -116 -145 -146 -158 -159 -170 -171 -181 -182 -191 -192 -200 -201 -209 0
-43 -99 -100 -131 -132 -145 -146 -158 -159 -170 -171 -181 -182 -191 -192 -200 -201 -209 0
-43 -116 -117 -131 -132 -145 -146 -158 -159 -170 -171 -181 -182 -191 -192 -200 -201 -209 0
-61 -79 -80 -96 -97 -112 -113 -127 -128 -141 -142 -154 -155 -166 -167 -177 -178 -188 0
-62 -79 -81 -96 -97 -112 -113 -127 -128 -141 -142 -154 -155 -166 -167 -177 -178 -188 0
-63 -79 -82 -96 -97 -112 -113 -127 -128 -141 -142 -154 -155 -166 -167 -177 -178 -188 0
-62 -80 -81 -96 -98 -112 -113 -127 -128 -141 -142 -154 -155 -166 -167 -177 -178 -188 0
-63 -80 -82 -96 -98 -112 -113 -127 -128 -141 -142 -154 -155 -166 -167 -177 -178 -188 0
-63 -81 -82 -96 -99 -112 -113 -127 -128 -141 -142 -154 -155 -166 -167 -177 -178 -188 0
-62 -80 -81 -97 -98 -112 -114 -127 -128 -141 -142 -154 -155 -166 -167 -177 -178 -188 0
-63 -80 -82 -97 -98 -112 -114 -127 -128 -141 -142 -154 -155 -166 -167 -177 -178 -188 0
-63 -81 -82 -97 -99 -112 -114 -127 -128 -141 -142 -154 -155 -166 -167 -177 -178 -188 0
-63 -81 -82 -98 -99 -112 -115 -127 -128 -141 -142 -154 -155 -166 -167 -177 -178 -188 0
-62 -80 -81 -97 -98 -113 -114 -127 -129 -141 -142 -154 -155 -166 -167 -177 -178 -188 0
-63 -80 -82 -97 -98 -113 -114 -127 -129 -141 -142 -154 -155 -166 -167 -177 -178 -188 0
-63 -81 -82 -97 -99 -113 -114 -127 -129 -141 -142 -154 -155 -166 -167 -177 -178 -188 0
-63 -81 -82 -98 -99 -113 -115 -127 -129 -141 -142 -154 -155 -166 -167 -177 -178 -188 0
-63 -81 -82 -98 -99 -114 -115 -127 -130 -141 -142 -154 -155 -166 -167 -177 -178 -188 0
-62 -80 -81 -97 -98 -113 -114 -128 -129 -141 -143 -154 -155 -166 -167 -177 -178 -188 0
-63 -80 -82 -97 -98 -113 -114 -128 -129 -141 -143 -154 -155 -166 -167 -177 -178 -188 0
-63 -81 -82 -97 -99 -113 -114 -128 -129 -141 -143 -154 -155 -166 -167 -177 -178 -188 0
-63 -81 -82 -98 -99 -113 -115 -128 -129 -141 -143 -154 -155 -166 -167 -177 -178 -188 0
-63 -81 -82 -98 -99 -114 -115 -128 -130 -141 -143 -154 -155 -166 -167 -177 -178 -188 0
-63 -81 -82 -98 -99 -114 -115 -129 -130 -141 -144 -154 -155 -166 -167 -177 -178 -188 0
-62 -80 -81 -97 -98 -113 -114 -128 -129 -142 -143 -154 -156 -166 -167 -177 -178 -188 0
-63 -80 -82 -97 -98 -113 -114 -128 -129 -142 -143 -154 -156 -166 -167 -177 -178 -188 0
-63 -81 -82 -97 -99 -113 -114 -128 -129 -142 -143 -154 -156 -166 -167 -177 -178 -188 0
-63 -81 -82 -98 -99 -113 -115 -128 -129 -142 -143 -154 -156 -166 -167 -177 -178 -188 0
-63 -81 -82 -98 -99 -114 -115 -128 -130 -142 -143 -154 -156 -166 -167 -177 -178 -188 0
-63 -81 -82 -98 -99 -114 -115 -129 -130 -142 -144 -154 -156 -166 -167 -177 -178 -188 0
-63 -81 -82 -98 -99 -114 -115 -129 -130 -143 -144 -154 -157 -166 -167 -177 -178 -188 0
-62 -80 -81 -97 -98 -113 -114 -128 -129 -142 -143 -155 -156 -166 -168 -177 -178 -188 0
-63 -80 -82 -97 -98 -113 -114 -128 -129 -142 -143 -155 -156 -166 -168 -177 -178 -188 0
-63 -81 -82 -97 -99 -113 -114 -128 -129 -142 -143 -155 -156 -166 -168 -177 -178 -188 0
-63 -81 -82 -98 -99 -113 -115 -128 -129 -142 -143 -155 -156 -166 -168 -177 -178 -188 0
-63 -81 -82 -98 -99 -114 -115 -128 -130 -142 -143 -155 -156 -166 -168 -177 -178 -188 0
-63 -81 -82 -98 -99 -114 -115 -129 -130 -142 -144 -155 -156 -166 -168 -177 -178 -188 0
-63 -81 -82 -98 -99 -114 -115 -129 -130 -143 -144 -155 -157 -166 -168 -177 -178 -188 0
-63 -81 -82 -98 -99 -114 -115 -129 -130 -143 -144 -156 -157 -166 -169 -177 -178 -188 0
-62 -80 -81 -97 -98 -113 -114 -128 -129 -142 -143 -155 -156 -167 -168 -177 -179 -188 0
-63 -80 -82 -97 -98 -113 -114 -128 -129 -142 -143 -155 -156 -167 -168 -177 -179 -188 0
-63 -81 -82 -97 -99 -113 -114 -128 -129 -142 -143 -155 -156 -167 -168 -177 -179 -188 0
-63 -81 -82 -98 -99 -113 -115 -128 -129 -142 -143 -155 -156 -167 -168 -177 -179 -188 0
-63 -81 -82 -98 -99 -114 -115 -128 -130 -142 -143 -155 -156 -167 -168 -177 -179 -188 0
-63 -81 -82 -98 -99 -114 -115 -129 -130 -142 -144 -155 -156 -167 -168 -177 -179 -188 0
-63 -81 -82 -98 -99 -114 -115 -129 -130 -143 -144 -155 -157 -167 -168 -177 -179 -188 0
-63 -81 -82 -98 -99 -114 -115 -129 -130 -143 -144 -156 -157 -167 -169 -177 -179 -188 0
-63 -81 -82 -98 -99 -114 -115 -129 -130 -143 -144 -156 -157 -168 -169 -177 -180 -188 0
-62 -80 -81 -97 -98 -113 -114 -128 -129 -142 -143 -155 -156 -167 -168 -178 -179 -189 0
-63 -80 -82 -97 -98 -113 -114 -128 -129 -142 -143 -155 -156 -167 -168 -178 -179 -189 0
-63 -81 -82 -97 -99 -113 -114 -128 -129 -142 -143 -155 -156 -167 -168 -178 -179 -189 0
-63 -81 -82 -98 -99 -113 -115 -128 -129 -142 -143 -155 -156 -167 -168 -178 -179 -189 0
-63 -81 -82 -98 -99 -114 -115 -128 -130 -142 -143 -155 -156 -167 -168 -178 -179 -189 0
-63 -81 -82 -98 -99 -114 -115 -129 -130 -142 -144 -155 -156 -167 -168 -178 -179 -189 0
-63 -81 -82 -98 -99 -114 -115 -129 -130 -143 -144 -155 -157 -167 -168 -178 -179 -189 0
-63 -81 -82 -98 -99 -114 -115 -129 -130 -143 -144 -156 -157 -167 -169 -178 -179 -189 0
-63 -81 -82 -98 -99 -114 -115 -129 -130 -143 -144 -156 -157 -168 -169 -178 -180 -189 0
-63 -81 -82 -98 -99 -114 -115 -129 -130 -143 -144 -156 -157 -168 -169 -179 -180 -190 0
-62 -80 -81 -97 -98 -113 -114 -128 -129 -142 -143 -155 -156 -167 -168 -178 -179 -199 0
-63 -80 -82 -97 -98 -113 -114 -128 -129 -142 -143 -155 -156 -167 -168 -178 -179 -199 0
-63 -81 -82 -97 -99 -113 -114 -128 -129 -142 -143 -155 -156 -167 -168 -178 -179 -199 0
-63 -81 -82 -98 -99 -113 -115 -128 -129 -142 -143 -155 -156 -167 -168 -178 -179 -199 0
-63 -81 -82 -98 -99 -114 -115 -128 -130 -142 -143 -155 -156 -167 -168 -178 -179 -199 0
-63 -81 -82 -98 -99 -114 -115 -129 -130 -142 -144 -155 -156 -167 -168 -178 -179 -199 0
-63 -81 -82 -98 -99 -114 -115 -129 -130 -143 -144 -155 -157 -167 -168 -178 -179 -199 0
-63 -81 -82 -98 -99 -114 -115 -129 -130 -143 -144 -156 -157 -167 -169 -178 -179 -199 0
-63 -81 -82 -98 -99 -114 -115 -129 -130 -143 -144 -156 -157 -168 -169 -178 -180 -199 0
-63 -81 -82 -98 -99 -114 -115 -129 -130 -143 -144 -156 -157 -168 -169 -179 -180 -200 0
-63 -81 -82 -98 -99 -114 -115 -129 -130 -143 -144 -156 -157 -168 -169 -179 -180 -209 0
-62 -80 -81 -97 -98 -113 -114 -128 -129 -142 -143 -155 -156 -167 -168 -189 -190 -199 0
-63 -80 -82 -97 -98 -113 -114 -128 -129 -142 -143 -155 -156 -167 -168 -189 -190 -199 0
-63 -81 -82 -97 -99 -113 -114 -128 -129 -142 -143 -155 -156 -167 -168 -189 -190 -199 0
-63 -81 -82 -98 -99 -113 -115 -128 -129 -142 -143 -155 -156 -167 -168 -189 -190 -199 0
-63 -81 -82 -98 -99 -114 -115 -128 -130 -142 -143 -155 -156 -167 -168 -189 -190 -199 0
-63 -81 -82 -98 -99 -114 -115 -129 -130 -142 -144 -155 -156 -167 -168 -189 -190 -199 0
-63 -81 -82 -98 -99 -114 -115 -129 -130 -143 -144 -155 -157 -167 -168 -189 -190 -199 0
-63 -81 -82 -98 -99 -114 -115 -129 -130 -143 -144 -156 -157 -167 -169 -189 -190 -199 0
-63 -81 -82 -98 -99 -114 -115 -129 -130 -143 -144 -156 -157 -168 -169 -189 -191 -199 0
-63 -81 -82 -98 -99 -114 -115 -129 -130 -143 -144 -156 -157 -168 -169 -190 -191 -200 0
-63 -81 -82 -98 -99 -114 -115 -129 -130 -143 -144 -156 -157 -168 -169 -190 -191 -209 0
-63 -81 -82 -98 -99 -114 -115 -129 -130 -143 -144 -156 -157 -168 -169 -200 -201 -209 0
-62 -80 -81 -97 -98 -113 -114 -128 -129 -142 -143 -155 -156 -179 -180 -189 -190 -199 0
-63 -80 -82 -97 -98 -113 -114 -128 -129 -142 -143 -155 -156 -179 -180 -189 -190 -199 0
-63 -81 -82 -97 -99 -113 -114 -128 -129 -142 -143 -155 -156 -179 -180 -189 -190 -199 0
-63 -81 -82 -98 -99 -113 -115 -128 -129 -142 -143 -155 -156 -179 -180 -189 -190 -199 0
-63 -81 -82 -98 -99 -114 -115 -128 -130 -142 -143 -155 -156 -179 -180 -189 -190 -199 0
-63 -81 -82 -98 -99 -114 -115 -129 -130 -142 -144 -155 -156 -179 -180 -189 -190 -199 0
-63 -81 -82 -98 -99 -114 -115 -129 -130 -143 -144 -155 -157 -179 -180 -189 -190 -199 0
-63 -81 -82 -98 -99 -114 -115 -129 -130 -143 -144 -156 -157 -179 -181 -189 -190 -199 0
-63 -81 -82 -98 -99 -114 -115 -129 -130 -143 -144 -156 -157 -180 -181 -189 -191 -199 0
-63 -81 -82 -98 -99 -114 -115 -129 -130 -143 -144 -156 -157 -180 -181 -190 -191 -200 0
-63 -81 -82 -98 -99 -114 -115 -129 -130 -143 -144 -156 -157 -180 -181 -190 -191 -209 0
-63 -81 -82 -98 -99 -114 -115 -129 -130 -143 -144 -156 -157 -180 -181 -200 -201 -209 0
-63 -81 -82 -98 -99 -114 -115 -129 -130 -143 -144 -156 -157 -191 -192 -200 -201 -209 0
-62 -80 -81 -97 -98 -113 -114 -128 -129 -142 -143 -168 -169 -179 -180 -189 -190 -199 0
-63 -80 -82 -97 -98 -113 -114 -128 -129 -142 -143 -168 -169 -179 -180 -189 -190 -199 0
-63 -81 -82 -97 -99 -113 -114 -128 -129 -142 -143 -168 -169 -179 -180 -189 -190 -199 0
-63 -81 -82 -98 -99 -113 -115 -128 -129 -142 -143 -168 -169 -179 -180 -189 -190 -199 0
-63 -81 -82 -98 -99 -114 -115 -128 -130 -142 -143 -168 -169 -179 -180 -189 -190 -199 0
-63 -81 -82 -98 -99 -114 -115 -129 -130 -142 -144 -168 -169 -179 -180 -189 -190 -199 0
-63 -81 -82 -98 -99 -114 -115 -129 -130 -143 -144 -168 -170 -179 -180 -189 -190 -199 0
-63 -81 -82 -98 -99 -114 -115 -129 -130 -143 -144 -169 -170 -179 -181 -189 -190 -199 0
-63 -81 -82 -98 -99 -114 -115 -129 -130 -143 -144 -169 -170 -180 -181 -189 -191 -199 0
-63 -81 -82 -98 -99 -114 -115 -129 -130 -143 -144 -169 -170 -180 -181 -190 -191 -200 0
-63 -81 -82 -98 -99 -114 -115 -129 -130 -143 -144 -169 -170 -180 -181 -190 -191 -209 0
-63 -81 -82 -98 -99 -114 -115 -129 -130 -143 -144 -169 -170 -180 -181 -200 -201 -209 0
-63 -81 -82 -98 -99 -114 -115 -129 -130 -143 -144 -169 -170 -191 -192 -200 -201 -209 0
-63 -81 -82 -98 -99 -114 -115 -129 -130 -143 -144 -181 -182 -191 -192 -200 -201 -209 0
-62 -80 -81 -97 -98 -113 -114 -128 -129 -156 -157 -168 -169 -179 -180 -189 -190 -199 0
-63 -80 -82 -97 -98 -113 -114 -128 -129 -156 -157 -168 -169 -179 -180 -189 -190 -199 0
-63 -81 -82 -97 -99 -113 -114 -128 -129 -156 -157 -168 -169 -179 -180 -189 -190 -199 0
-63 -81 -82 -98 -99 -113 -115 -128 -129 -156 -157 -168 -169 -179 -180 -189 -190 -199 0
-63 -81 -82 -98 -99 -114 -115 -128 -130 -156 -157 -168 -169 -179 -180 -189 -190 -199 0
-63 -81 -82 -98 -99 -114 -115 -129 -130 -156 -158 -168 -169 -179 -180 -189 -190 -199 0
-63 -81 -82 -98 -99 -114 -115 -129 -130 -157 -158 -168 -170 -179 -180 -189 -190 -199 0
-63 -81 -82 -98 -99 -114 -115 -129 -130 -157 -158 -169 -170 -179 -181 -189 -190 -199 0
-63 -81 -82 -98 -99 -114 -115 -129 -130 -157 -158 -169 -170 -180 -181 -189 -191 -199 0
-63 -81 -82 -98 -99 -114 -115 -129 -130 -157 -158 -169 -170 -180 -181 -190 -191 -200 0
-63 -81 -82 -98 -99 -114 -115 -129 -130 -157 -158 -169 -170 -180 -181 -190 -191 -209 0
-63 -81 -82 -98 -99 -114 -115 -129 -130 -157 -158 -169 -170 -180 -181 -200 -201 -209 0
-63 -81 -82 -98 -99 -114 -115 -129 -130 -157 -158 -169 -170 -191 -192 -200 -201 -209 0
-63 -81 -82 -98 -99 -114 -115 -129 -130 -157 -158 -181 -182 -191 -192 -200 -201 -209 0
-63 -81 -82 -98 -99 -114 -115 -129 -130 -170 -171 -181 -182 -191 -192 -200 -201 -209 0
-62 -80 -81 -97 -98 -113 -114 -143 -144 -156 -157 -168 -169 -179 -180 -189 -190 -199 0
-63 -80 -82 -97 -98 -113 -114 -143 -144 -156 -157 -168 -169 -179 -180 -189 -190 -199 0
-63 -81 -82 -97 -99 -113 -114 -143 -144 -156 -157 -168 -169 -179 -180 -189 -190 -199 0
-63 -81 -82 -98 -99 -113 -115 -143 -144 -156 -157 -168 -169 -179 -180 -189 -190 -199 0
-63 -81 -82 -98 -99 -114 -115 -143 -145 -156 -157 -168 -169 -179 -180 -189 -190 -199 0
-63 -81 -82 -98 -99 -114 -115 -144 -145 -156 -158 -168 -169 -179 -180 -189 -190 -199 0
-63 -81 -82 -98 -99 -114 -115 -144 -145 -157 -158 -168 -170 -179 -180 -189 -190 -199 0
-63 -81 -82 -98 -99 -114 -115 -144 -145 -157 -158 -169 -170 -179 -181 -189 -190 -199 0
-63 -81 -82 -98 -99 -114 -115 -144 -145 -157 -158 -169 -170 -180 -181 -189 -191 -199 0
-63 -81 -82 -98 -99 -114 -115 -144 -145 -157 -158 -169 -170 -180 -181 -190 -191 -200 0
-63 -81 -82 -98 -99 -114 -115 -144 -145 -157 -158 -169 -170 -180 -181 -190 -191 -209 0
-63 -81 -82 -98 -99 -114 -115 -144 -145 -157 -158 -169 -170 -180 -181 -200 -201 -209 0
-63 -81 -82 -98 -99 -114 -115 -144 -145 -157 -158 -169 -170 -191 -192 -200 -201 -209 0
-63 -81 -82 -98 -99 -114 -115 -144 -145 -157 -158 -181 -182 -191 -192 -200 -201 -209 0
-63 -81 -82 -98 -99 -114 -115 -144 -145 -170 -171 -181 -182 -191 -192 -200 -201 -209 0
-63 -81 -82 -98 -99 -114 -115 -158 -159 -170 -171 -181 -182 -191 -192 -200 -201 -209 0
-62 -80 -81 -97 -98 -129 -130 -143 -144 -156 -157 -168 -169 -179 -180 -189 -190 -199 0
-63 -80 -82 -97 -98 -129 -130 -143 -144 -156 -157 -168 -169 -179 -180 -189 -190 -199 0
-63 -81 -82 -97 -99 -129 -130 -143 -144 -156 -157 -168 -169 -179 -180 -189 -190 -199 0
-63 -81 -82 -98 -99 -129 -131 -143 -144 -156 -157 -168 -169 -179 -180 -189 -190 -199 0
-63 -81 -82 -98 -99 -130 -131 -143 -145 -156 -157 -168 -169 -179 -180 -189 -190 -199 0
-63 -81 -82 -98 -99 -130 -131 -144 -145 -156 -158 -168 -169 -179 -180 -189 -190 -199 0
-63 -81 -82 -98 -99 -130 -131 -144 -145 -157 -158 -168 -170 -179 -180 -189 -190 -199 0
-63 -81 -82 -98 -99 -130 -131 -144 -145 -157 -158 -169 -170 -179 -181 -189 -190 -199 0
-63 -81 -82 -98 -99 -130 -131 -144 -145 -157 -158 -169 -170 -180 -181 -189 -191 -199 0
-63 -81 -82 -98 -99 -130 -131 -144 -145 -157 -158 -169 -170 -180 -181 -190 -191 -200 0
-63 -81 -82 -98 -99 -130 -131 -144 -145 -157 -158 -169 -170 -180 -181 -190 -191 -209 0
-63 -81 -82 -98 -99 -130 -131 -144 -145 -157 -158 -169 -170 -180 -181 -200 -201 -209 0
-63 -81 -82 -98 -99 -130 -131 -144 -145 -157 -158 -169 -170 -191 -192 -200 -201 -209 0
-63 -81 -82 -98 -99 -130 -131 -144 -145 -157 -158 -181 -182 -191 -192 -200 -201 -209 0
-63 -81 -82 -98 -99 -130 -131 -144 -145 -170 -171 -181 -182 -191 -192 -200 -201 -209 0
-63 -81 -82 -98 -99 -130 -131 -158 -159 -170 -171 -181 -182 -191 -192 -200 -201 -209 0
-63 -81 -82 -98 -99 -145 -146 -158 -159 -170 -171 -181 -182 -191 -192 -200 -201 -209 0
-62 -80 -81 -114 -115 -129 -130 -143 -144 -156 -157 -168 -169 -179 -180 -189 -190 -199 0
-63 -80 -82 -114 -115 -129 -130 -143 -144 -156 -157 -168 -169 -179 -180 -189 -190 -199 0
-63 -81 -82 -114 -116 -129 -130 -143 -144 -156 -157 -168 -169 -179 -180 -189 -190 -199 0
-63 -81 -82 -115 -116 -129 -131 -143 -144 -156 -157 -168 -169 -179 -180 -189 -190 -199 0
-63 -81 -82 -115 -116 -130 -131 -143 -145 -156 -157 -168 -169 -179 -180 -189 -190 -199 0
-63 -81 -82 -115 -116 -130 -131 -144 -145 -156 -158 -168 -169 -179 -180 -189 -190 -199 0
-63 -81 -82 -115 -116 -130 -131 -144 -145 -157 -158 -168 -170 -179 -180 -189 -190 -199 0
-63 -81 -82 -115 -116 -130 -131 -144 -145 -157 -158 -169 -170 -179 -181 -189 -190 -199 0
-63 -81 -82 -115 -116 -130 -131 -144 -145 -157 -158 -169 -170 -180 -181 -189 -191 -199 0
-63 -81 -82 -115 -116 -130 -131 -144 -145 -157 -158 -169 -170 -180 -181 -190 -191 -200 0
-63 -81 -82 -115 -116 -130 -131 -144 -145 -157 -158 -169 -170 -180 -181 -190 -191 -209 0
-63 -81 -82 -115 -116 -130 -131 -144 -145 -157 -158 -169 -170 -180 -181 -200 -201 -209 0
-63 -81 -82 -115 -116 -130 -131 -144 -145 -157 -158 -169 -170 -191 -192 -200 -201 -209 0
-63 -81 -82 -115 -116 -130 -131 -144 -145 -157 -158 -181 -182 -191 -192 -200 -201 -209 0
-63 -81 -82 -115 -116 -130 -131 -144 -145 -170 -171 -181 -182 -191 -192 -200 -201 -209 0
-63 -81 -82 -115 -116 -130 -131 -158 -159 -170 -171 -181 -182 -191 -192 -200 -201 -209 0
-63 -81 -82 -115 -116 -145 -146 -158 -159 -170 -171 -181 -182 -191 -192 -200 -201 -209 0
-63 -81 -82 -131 -132 -145 -146 -158 -159 -170 -171 -181 -182 -191 -192 -200 -201 -209 0
-62 -98 -99 -114 -115 -129 -130 -143 -144 -156 -157 -168 -169 -179 -180 -189 -190 -199 0
-63 -98 -100 -114 -115 -129 -130 -143 -144 -156 -157 -168 -169 -179 -180 -189 -190 -199 0
-63 -99 -100 -114 -116 -129 -130 -143 -144 -156 -157 -168 -169 -179 -180 -189 -190 -199 0
-63 -99 -100 -115 -116 -129 -131 -143 -144 -156 -157 -168 -169 -179 -180 -189 -190 -199 0
-63 -99 -100 -115 -116 -130 -131 -143 -145 -156 -157 -168 -169 -179 -180 -189 -190 -199 0
-63 -99 -100 -115 -116 -130 -131 -144 -145 -156 -158 -168 -169 -179 -180 -189 -190 -199 0
-63 -99 -100 -115 -116 -130 -131 -144 -145 -157 -158 -168 -170 -179 -180 -189 -190 -199 0
-63 -99 -100 -115 -116 -130 -131 -144 -145 -157 -158 -169 -170 -179 -181 -189 -190 -199 0
-63 -99 -100 -115 -116 -130 -131 -144 -145 -157 -158 -169 -170 -180 -181 -189 -191 -199 0
-63 -99 -100 -115 -116 -130 -131 -144 -145 -157 -158 -169 -170 -180 -181 -190 -191 -200 0
-63 -99 -100 -115 -116 -130 -131 -144 -145 -157 -158 -169 -170 -180 -181 -190 -191 -209 0
-63 -99 -100 -115 -116 -130 -131 -144 -145 -157 -158 -169 -170 -180 -181 -200 -201 -209 0
-63 -99 -100 -115 -116 -130 -131 -144 -145 -157 -158 -169 -170 -191 -192 -200 -201 -209 0
-63 -99 -100 -115 -116 -130 -131 -144 -145 -157 -158 -181 -182 -191 -192 -200 -201 -209 0
-63 -99 -100 -115 -116 -130 -131 -144 -145 -170 -171 -181 -182 -191 -192 -200 -201 -209 0
-63 -99 -100 -115 -116 -130 -131 -158 -159 -170 -171 -181 -182 -191 -192 -200 -201 -209 0
-63 -99 -100 -115 -116 -145 -146 -158 -159 -170 -171 -181 -182 -191 -192 -200 -201 -209 0
-63 -99 -100 -131 -132 -145 -146 -158 -159 -170 -171 -181 -182 -191 -192 -200 -201 -209 0
-63 -116 -117 -131 -132 -145 -146 -158 -159 -170 -171 -181 -182 -191 -192 -200 -201 -209 0
-81 -98 -99 -114 -115 -129 -130 -143 -144 -156 -157 -168 -169 -179 -180 -189 -190 -199 0
-82 -98 -100 -114 -115 -129 -130 -143 -144 -156 -157 -168 -169 -179 -180 -189 -190 -199 0
-82 -99 -100 -114 -116 -129 -130 -143 -144 -156 -157 -168 -169 -179 -180 -189 -190 -199 0
-82 -99 -100 -115 -116 -129 -131 -143 -144 -156 -157 -168 -169 -179 -180 -189 -190 -199 0
-82 -99 -100 -115 -116 -130 -131 -143 -145 -156 -157 -168 -169 -179 -180 -189 -190 -199 0
-82 -99 -100 -115 -116 -130 -131 -144 -145 -156 -158 -168 -169 -179 -180 -189 -190 -199 0
-82 -99 -100 -115 -116 -130 -131 -144 -145 -157 -158 -168 -170 -179 -180 -189 -190 -199 0
-82 -99 -100 -115 -116 -130 -131 -144 -145 -157 -158 -169 -170 -179 -181 -189 -190 -199 0
-82 -99 -100 -115 -116 -130 -131 -144 -145 -157 -158 -169 -170 -180 -181 -189 -191 -199 0
-82 -99 -100 -115 -116 -130 -131 -144 -145 -157 -158 -169 -170 -180 -181 -190 -191 -200 0
-82 -99 -100 -115 -116 -130 -131 -144 -145 -157 -158 -169 -170 -180 -181 -190 -191 -209 0
-82 -99 -100 -115 -116 -130 -131 -144 -145 -157 -158 -169 -170 -180 -181 -200 -201 -209 0
-82 -99 -100 -115 -116 -130 -131 -144 -145 -157 -158 -169 -170 -191 -192 -200 -201 -209 0
-82 -99 -100 -115 -116 -130 -131 -144 -145 -157 -158 -181 -182 -191 -192 -200 -201 -209 0
-82 -99 -100 -115 -116 -130 -131 -144 -145 -170 -171 -181 -182 -191 -192 -200 -201 -209 0
-82 -99 -100 -115 -116 -130 -131 -158 -159 -170 -171 -181 -182 -191 -192 -200 -201 -209 0
-82 -99 -100 -115 -116 -145 -146 -158 -159 -170 -171 -181 -182 -191 -192 -200 -201 -209 0
-82 -99 -100 -131 -132 -145 -146 -158 -159 -170 -171 -181 -182 -191 -192 -200 -201 -209 0
-82 -116 -117 -131 -132 -145 -146 -158 -159 -170 -171 -181 -182 -191 -192 -200 -201 -209 0
-100 -116 -117 -131 -132 -145 -146 -158 -159 -170 -171 -181 -182 -191 -192 -200 -201 -209 0
