c Ordered Ramsey CNF instance
c n = 20, N = 24
c Positive literal = blue edge
c Negative literal = red edge
p cnf 276 12650
1 2 0
1 3 0
1 4 0
1 5 0
1 6 0
1 7 0
1 8 0
1 9 0
1 10 0
1 11 0
1 12 0
1 13 0
1 14 0
1 15 0
1 16 0
1 17 0
1 18 0
1 19 0
1 20 0
1 21 0
1 22 0
1 23 0
2 3 0
2 4 0
2 5 0
2 6 0
2 7 0
2 8 0
2 9 0
2 10 0
2 11 0
2 12 0
2 13 0
2 14 0
2 15 0
2 16 0
2 17 0
2 18 0
2 19 0
2 20 0
2 21 0
2 22 0
2 23 0
3 4 0
3 5 0
3 6 0
3 7 0
3 8 0
3 9 0
3 10 0
3 11 0
3 12 0
3 13 0
3 14 0
3 15 0
3 16 0
3 17 0
3 18 0
3 19 0
3 20 0
3 21 0
3 22 0
3 23 0
4 5 0
4 6 0
4 7 0
4 8 0
4 9 0
4 10 0
4 11 0
4 12 0
4 13 0
4 14 0
4 15 0
4 16 0
4 17 0
4 18 0
4 19 0
4 20 0
4 21 0
4 22 0
4 23 0
5 6 0
5 7 0
5 8 0
5 9 0
5 10 0
5 11 0
5 12 0
5 13 0
5 14 0
5 15 0
5 16 0
5 17 0
5 18 0
5 19 0
5 20 0
5 21 0
5 22 0
5 23 0
6 7 0
6 8 0
6 9 0
6 10 0
6 11 0
6 12 0
6 13 0
6 14 0
6 15 0
6 16 0
6 17 0
6 18 0
6 19 0
6 20 0
6 21 0
6 22 0
6 23 0
7 8 0
7 9 0
7 10 0
7 11 0
7 12 0
7 13 0
7 14 0
7 15 0
7 16 0
7 17 0
7 18 0
7 19 0
7 20 0
7 21 0
7 22 0
7 23 0
8 9 0
8 10 0
8 11 0
8 12 0
8 13 0
8 14 0
8 15 0
8 16 0
8 17 0
8 18 0
8 19 0
8 20 0
8 21 0
8 22 0
8 23 0
9 10 0
9 11 0
9 12 0
9 13 0
9 14 0
9 15 0
9 16 0
9 17 0
9 18 0
9 19 0
9 20 0
9 21 0
9 22 0
9 23 0
10 11 0
10 12 0
10 13 0
10 14 0
10 15 0
10 16 0
10 17 0
10 18 0
10 19 0
10 20 0
10 21 0
10 22 0
10 23 0
11 12 0
11 13 0
11 14 0
11 15 0
11 16 0
11 17 0
11 18 0
11 19 0
11 20 0
11 21 0
11 22 0
11 23 0
12 13 0
12 14 0
12 15 0
12 16 0
12 17 0
12 18 0
12 19 0
12 20 0
12 21 0
12 22 0
12 23 0
13 14 0
13 15 0
13 16 0
13 17 0
13 18 0
13 19 0
13 20 0
13 21 0
13 22 0
13 23 0
14 15 0
14 16 0
14 17 0
14 18 0
14 19 0
14 20 0
14 21 0
14 22 0
14 23 0
15 16 0
15 17 0
15 18 0
15 19 0
15 20 0
15 21 0
15 22 0
15 23 0
16 17 0
16 18 0
16 19 0
16 20 0
16 21 0
16 22 0
16 23 0
17 18 0
17 19 0
17 20 0
17 21 0
17 22 0
17 23 0
18 19 0
18 20 0
18 21 0
18 22 0
18 23 0
19 20 0
19 21 0
19 22 0
19 23 0
20 21 0
20 22 0
20 23 0
21 22 0
21 23 0
22 23 0
24 25 0
24 26 0
24 27 0
24 28 0
24 29 0
24 30 0
24 31 0
24 32 0
24 33 0
24 34 0
24 35 0
24 36 0
24 37 0
24 38 0
24 39 0
24 40 0
24 41 0
24 42 0
24 43 0
24 44 0
24 45 0
25 26 0
25 27 0
25 28 0
25 29 0
25 30 0
25 31 0
25 32 0
25 33 0
25 34 0
25 35 0
25 36 0
25 37 0
25 38 0
25 39 0
25 40 0
25 41 0
25 42 0
25 43 0
25 44 0
25 45 0
26 27 0
26 28 0
26 29 0
26 30 0
26 31 0
26 32 0
26 33 0
26 34 0
26 35 0
26 36 0
26 37 0
26 38 0
26 39 0
26 40 0
26 41 0
26 42 0
26 43 0
26 44 0
26 45 0
27 28 0
27 29 0
27 30 0
27 31 0
27 32 0
27 33 0
27 34 0
27 35 0
27 36 0
27 37 0
27 38 0
27 39 0
27 40 0
27 41 0
27 42 0
27 43 0
27 44 0
27 45 0
28 29 0
28 30 0
28 31 0
28 32 0
28 33 0
28 34 0
28 35 0
28 36 0
28 37 0
28 38 0
28 39 0
28 40 0
28 41 0
28 42 0
28 43 0
28 44 0
28 45 0
29 30 0
29 31 0
29 32 0
29 33 0
29 34 0
29 35 0
29 36 0
29 37 0
29 38 0
29 39 0
29 40 0
29 41 0
29 42 0
29 43 0
29 44 0
29 45 0
30 31 0
30 32 0
30 33 0
30 34 0
30 35 0
30 36 0
30 37 0
30 38 0
30 39 0
30 40 0
30 41 0
30 42 0
30 43 0
30 44 0
30 45 0
31 32 0
31 33 0
31 34 0
31 35 0
31 36 0
31 37 0
31 38 0
31 39 0
31 40 0
31 41 0
31 42 0
31 43 0
31 44 0
31 45 0
32 33 0
32 34 0
32 35 0
32 36 0
32 37 0
32 38 0
32 39 0
32 40 0
32 41 0
32 42 0
32 43 0
32 44 0
32 45 0
33 34 0
33 35 0
33 36 0
33 37 0
33 38 0
33 39 0
33 40 0
33 41 0
33 42 0
33 43 0
33 44 0
33 45 0
34 35 0
34 36 0
34 37 0
34 38 0
34 39 0
34 40 0
34 41 0
34 42 0
34 43 0
34 44 0
34 45 0
35 36 0
35 37 0
35 38 0
35 39 0
35 40 0
35 41 0
35 42 0
35 43 0
35 44 0
35 45 0
36 37 0
36 38 0
36 39 0
36 40 0
36 41 0
36 42 0
36 43 0
36 44 0
36 45 0
37 38 0
37 39 0
37 40 0
37 41 0
37 42 0
37 43 0
37 44 0
37 45 0
38 39 0
38 40 0
38 41 0
38 42 0
38 43 0
38 44 0
38 45 0
39 40 0
39 41 0
39 42 0
39 43 0
39 44 0
39 45 0
40 41 0
40 42 0
40 43 0
40 44 0
40 45 0
41 42 0
41 43 0
41 44 0
41 45 0
42 43 0
42 44 0
42 45 0
43 44 0
43 45 0
44 45 0
46 47 0
46 48 0
46 49 0
46 50 0
46 51 0
46 52 0
46 53 0
46 54 0
46 55 0
46 56 0
46 57 0
46 58 0
46 59 0
46 60 0
46 61 0
46 62 0
46 63 0
46 64 0
46 65 0
46 66 0
47 48 0
47 49 0
47 50 0
47 51 0
47 52 0
47 53 0
47 54 0
47 55 0
47 56 0
47 57 0
47 58 0
47 59 0
47 60 0
47 61 0
47 62 0
47 63 0
47 64 0
47 65 0
47 66 0
48 49 0
48 50 0
48 51 0
48 52 0
48 53 0
48 54 0
48 55 0
48 56 0
48 57 0
48 58 0
48 59 0
48 60 0
48 61 0
48 62 0
48 63 0
48 64 0
48 65 0
48 66 0
49 50 0
49 51 0
49 52 0
49 53 0
49 54 0
49 55 0
49 56 0
49 57 0
49 58 0
49 59 0
49 60 0
49 61 0
49 62 0
49 63 0
49 64 0
49 65 0
49 66 0
50 51 0
50 52 0
50 53 0
50 54 0
50 55 0
50 56 0
50 57 0
50 58 0
50 59 0
50 60 0
50 61 0
50 62 0
50 63 0
50 64 0
50 65 0
50 66 0
51 52 0
51 53 0
51 54 0
51 55 0
51 56 0
51 57 0
51 58 0
51 59 0
51 60 0
51 61 0
51 62 0
51 63 0
51 64 0
51 65 0
51 66 0
52 53 0
52 54 0
52 55 0
52 56 0
52 57 0
52 58 0
52 59 0
52 60 0
52 61 0
52 62 0
52 63 0
52 64 0
52 65 0
52 66 0
53 54 0
53 55 0
53 56 0
53 57 0
53 58 0
53 59 0
53 60 0
53 61 0
53 62 0
53 63 0
53 64 0
53 65 0
53 66 0
54 55 0
54 56 0
54 57 0
54 58 0
54 59 0
54 60 0
54 61 0
54 62 0
54 63 0
54 64 0
54 65 0
54 66 0
55 56 0
55 57 0
55 58 0
55 59 0
55 60 0
55 61 0
55 62 0
55 63 0
55 64 0
55 65 0
55 66 0
56 57 0
56 58 0
56 59 0
56 60 0
56 61 0
56 62 0
56 63 0
56 64 0
56 65 0
56 66 0
57 58 0
57 59 0
57 60 0
57 61 0
57 62 0
57 63 0
57 64 0
57 65 0
57 66 0
58 59 0
58 60 0
58 61 0
58 62 0
58 63 0
58 64 0
58 65 0
58 66 0
59 60 0
59 61 0
59 62 0
59 63 0
59 64 0
59 65 0
59 66 0
60 61 0
60 62 0
60 63 0
60 64 0
60 65 0
60 66 0
61 62 0
61 63 0
61 64 0
61 65 0
61 66 0
62 63 0
62 64 0
62 65 0
62 66 0
63 64 0
63 65 0
63 66 0
64 65 0
64 66 0
65 66 0
67 68 0
67 69 0
67 70 0
67 71 0
67 72 0
67 73 0
67 74 0
67 75 0
67 76 0
67 77 0
67 78 0
67 79 0
67 80 0
67 81 0
67 82 0
67 83 0
67 84 0
67 85 0
67 86 0
68 69 0
68 70 0
68 71 0
68 72 0
68 73 0
68 74 0
68 75 0
68 76 0
68 77 0
68 78 0
68 79 0
68 80 0
68 81 0
68 82 0
68 83 0
68 84 0
68 85 0
68 86 0
69 70 0
69 71 0
69 72 0
69 73 0
69 74 0
69 75 0
69 76 0
69 77 0
69 78 0
69 79 0
69 80 0
69 81 0
69 82 0
69 83 0
69 84 0
69 85 0
69 86 0
70 71 0
70 72 0
70 73 0
70 74 0
70 75 0
70 76 0
70 77 0
70 78 0
70 79 0
70 80 0
70 81 0
70 82 0
70 83 0
70 84 0
70 85 0
70 86 0
71 72 0
71 73 0
71 74 0
71 75 0
71 76 0
71 77 0
71 78 0
71 79 0
71 80 0
71 81 0
71 82 0
71 83 0
71 84 0
71 85 0
71 86 0
72 73 0
72 74 0
72 75 0
72 76 0
72 77 0
72 78 0
72 79 0
72 80 0
72 81 0
72 82 0
72 83 0
72 84 0
72 85 0
72 86 0
73 74 0
73 75 0
73 76 0
73 77 0
73 78 0
73 79 0
73 80 0
73 81 0
73 82 0
73 83 0
73 84 0
73 85 0
73 86 0
74 75 0
74 76 0
74 77 0
74 78 0
74 79 0
74 80 0
74 81 0
74 82 0
74 83 0
74 84 0
74 85 0
74 86 0
75 76 0
75 77 0
75 78 0
75 79 0
75 80 0
75 81 0
75 82 0
75 83 0
75 84 0
75 85 0
75 86 0
76 77 0
76 78 0
76 79 0
76 80 0
76 81 0
76 82 0
76 83 0
76 84 0
76 85 0
76 86 0
77 78 0
77 79 0
77 80 0
77 81 0
77 82 0
77 83 0
77 84 0
77 85 0
77 86 0
78 79 0
78 80 0
78 81 0
78 82 0
78 83 0
78 84 0
78 85 0
78 86 0
79 80 0
79 81 0
79 82 0
79 83 0
79 84 0
79 85 0
79 86 0
80 81 0
80 82 0
80 83 0
80 84 0
80 85 0
80 86 0
81 82 0
81 83 0
81 84 0
81 85 0
81 86 0
82 83 0
82 84 0
82 85 0
82 86 0
83 84 0
83 85 0
83 86 0
84 85 0
84 86 0
85 86 0
87 88 0
87 89 0
87 90 0
87 91 0
87 92 0
87 93 0
87 94 0
87 95 0
87 96 0
87 97 0
87 98 0
87 99 0
87 100 0
87 101 0
87 102 0
87 103 0
87 104 0
87 105 0
88 89 0
88 90 0
88 91 0
88 92 0
88 93 0
88 94 0
88 95 0
88 96 0
88 97 0
88 98 0
88 99 0
88 100 0
88 101 0
88 102 0
88 103 0
88 104 0
88 105 0
89 90 0
89 91 0
89 92 0
89 93 0
89 94 0
89 95 0
89 96 0
89 97 0
89 98 0
89 99 0
89 100 0
89 101 0
89 102 0
89 103 0
89 104 0
89 105 0
90 91 0
90 92 0
90 93 0
90 94 0
90 95 0
90 96 0
90 97 0
90 98 0
90 99 0
90 100 0
90 101 0
90 102 0
90 103 0
90 104 0
90 105 0
91 92 0
91 93 0
91 94 0
91 95 0
91 96 0
91 97 0
91 98 0
91 99 0
91 100 0
91 101 0
91 102 0
91 103 0
91 104 0
91 105 0
92 93 0
92 94 0
92 95 0
92 96 0
92 97 0
92 98 0
92 99 0
92 100 0
92 101 0
92 102 0
92 103 0
92 104 0
92 105 0
93 94 0
93 95 0
93 96 0
93 97 0
93 98 0
93 99 0
93 100 0
93 101 0
93 102 0
93 103 0
93 104 0
93 105 0
94 95 0
94 96 0
94 97 0
94 98 0
94 99 0
94 100 0
94 101 0
94 102 0
94 103 0
94 104 0
94 105 0
95 96 0
95 97 0
95 98 0
95 99 0
95 100 0
95 101 0
95 102 0
95 103 0
95 104 0
95 105 0
96 97 0
96 98 0
96 99 0
96 100 0
96 101 0
96 102 0
96 103 0
96 104 0
96 105 0
97 98 0
97 99 0
97 100 0
97 101 0
97 102 0
97 103 0
97 104 0
97 105 0
98 99 0
98 100 0
98 101 0
98 102 0
98 103 0
98 104 0
98 105 0
99 100 0
99 101 0
99 102 0
99 103 0
99 104 0
99 105 0
100 101 0
100 102 0
100 103 0
100 104 0
100 105 0
101 102 0
101 103 0
101 104 0
101 105 0
102 103 0
102 104 0
102 105 0
103 104 0
103 105 0
104 105 0
106 107 0
106 108 0
106 109 0
106 110 0
106 111 0
106 112 0
106 113 0
106 114 0
106 115 0
106 116 0
106 117 0
106 118 0
106 119 0
106 120 0
106 121 0
106 122 0
106 123 0
107 108 0
107 109 0
107 110 0
107 111 0
107 112 0
107 113 0
107 114 0
107 115 0
107 116 0
107 117 0
107 118 0
107 119 0
107 120 0
107 121 0
107 122 0
107 123 0
108 109 0
108 110 0
108 111 0
108 112 0
108 113 0
108 114 0
108 115 0
108 116 0
108 117 0
108 118 0
108 119 0
108 120 0
108 121 0
108 122 0
108 123 0
109 110 0
109 111 0
109 112 0
109 113 0
109 114 0
109 115 0
109 116 0
109 117 0
109 118 0
109 119 0
109 120 0
109 121 0
109 122 0
109 123 0
110 111 0
110 112 0
110 113 0
110 114 0
110 115 0
110 116 0
110 117 0
110 118 0
110 119 0
110 120 0
110 121 0
110 122 0
110 123 0
111 112 0
111 113 0
111 114 0
111 115 0
111 116 0
111 117 0
111 118 0
111 119 0
111 120 0
111 121 0
111 122 0
111 123 0
112 113 0
112 114 0
112 115 0
112 116 0
112 117 0
112 118 0
112 119 0
112 120 0
112 121 0
112 122 0
112 123 0
113 114 0
113 115 0
113 116 0
113 117 0
113 118 0
113 119 0
113 120 0
113 121 0
113 122 0
113 123 0
114 115 0
114 116 0
114 117 0
114 118 0
114 119 0
114 120 0
114 121 0
114 122 0
114 123 0
115 116 0
115 117 0
115 118 0
115 119 0
115 120 0
115 121 0
115 122 0
115 123 0
116 117 0
116 118 0
116 119 0
116 120 0
116 121 0
116 122 0
116 123 0
117 118 0
117 119 0
117 120 0
117 121 0
117 122 0
117 123 0
118 119 0
118 120 0
118 121 0
118 122 0
118 123 0
119 120 0
119 121 0
119 122 0
119 123 0
120 121 0
120 122 0
120 123 0
121 122 0
121 123 0
122 123 0
124 125 0
124 126 0
124 127 0
124 128 0
124 129 0
124 130 0
124 131 0
124 132 0
124 133 0
124 134 0
124 135 0
124 136 0
124 137 0
124 138 0
124 139 0
124 140 0
125 126 0
125 127 0
125 128 0
125 129 0
125 130 0
125 131 0
125 132 0
125 133 0
125 134 0
125 135 0
125 136 0
125 137 0
125 138 0
125 139 0
125 140 0
126 127 0
126 128 0
126 129 0
126 130 0
126 131 0
126 132 0
126 133 0
126 134 0
126 135 0
126 136 0
126 137 0
126 138 0
126 139 0
126 140 0
127 128 0
127 129 0
127 130 0
127 131 0
127 132 0
127 133 0
127 134 0
127 135 0
127 136 0
127 137 0
127 138 0
127 139 0
127 140 0
128 129 0
128 130 0
128 131 0
128 132 0
128 133 0
128 134 0
128 135 0
128 136 0
128 137 0
128 138 0
128 139 0
128 140 0
129 130 0
129 131 0
129 132 0
129 133 0
129 134 0
129 135 0
129 136 0
129 137 0
129 138 0
129 139 0
129 140 0
130 131 0
130 132 0
130 133 0
130 134 0
130 135 0
130 136 0
130 137 0
130 138 0
130 139 0
130 140 0
131 132 0
131 133 0
131 134 0
131 135 0
131 136 0
131 137 0
131 138 0
131 139 0
131 140 0
132 133 0
132 134 0
132 135 0
132 136 0
132 137 0
132 138 0
132 139 0
132 140 0
133 134 0
133 135 0
133 136 0
133 137 0
133 138 0
133 139 0
133 140 0
134 135 0
134 136 0
134 137 0
134 138 0
134 139 0
134 140 0
135 136 0
135 137 0
135 138 0
135 139 0
135 140 0
136 137 0
136 138 0
136 139 0
136 140 0
137 138 0
137 139 0
137 140 0
138 139 0
138 140 0
139 140 0
141 142 0
141 143 0
141 144 0
141 145 0
141 146 0
141 147 0
141 148 0
141 149 0
141 150 0
141 151 0
141 152 0
141 153 0
141 154 0
141 155 0
141 156 0
142 143 0
142 144 0
142 145 0
142 146 0
142 147 0
142 148 0
142 149 0
142 150 0
142 151 0
142 152 0
142 153 0
142 154 0
142 155 0
142 156 0
143 144 0
143 145 0
143 146 0
143 147 0
143 148 0
143 149 0
143 150 0
143 151 0
143 152 0
143 153 0
143 154 0
143 155 0
143 156 0
144 145 0
144 146 0
144 147 0
144 148 0
144 149 0
144 150 0
144 151 0
144 152 0
144 153 0
144 154 0
144 155 0
144 156 0
145 146 0
145 147 0
145 148 0
145 149 0
145 150 0
145 151 0
145 152 0
145 153 0
145 154 0
145 155 0
145 156 0
146 147 0
146 148 0
146 149 0
146 150 0
146 151 0
146 152 0
146 153 0
146 154 0
146 155 0
146 156 0
147 148 0
147 149 0
147 150 0
147 151 0
147 152 0
147 153 0
147 154 0
147 155 0
147 156 0
148 149 0
148 150 0
148 151 0
148 152 0
148 153 0
148 154 0
148 155 0
148 156 0
149 150 0
149 151 0
149 152 0
149 153 0
149 154 0
149 155 0
149 156 0
150 151 0
150 152 0
150 153 0
150 154 0
150 155 0
150 156 0
151 152 0
151 153 0
151 154 0
151 155 0
151 156 0
152 153 0
152 154 0
152 155 0
152 156 0
153 154 0
153 155 0
153 156 0
154 155 0
154 156 0
155 156 0
157 158 0
157 159 0
157 160 0
157 161 0
157 162 0
157 163 0
157 164 0
157 165 0
157 166 0
157 167 0
157 168 0
157 169 0
157 170 0
157 171 0
158 159 0
158 160 0
158 161 0
158 162 0
158 163 0
158 164 0
158 165 0
158 166 0
158 167 0
158 168 0
158 169 0
158 170 0
158 171 0
159 160 0
159 161 0
159 162 0
159 163 0
159 164 0
159 165 0
159 166 0
159 167 0
159 168 0
159 169 0
159 170 0
159 171 0
160 161 0
160 162 0
160 163 0
160 164 0
160 165 0
160 166 0
160 167 0
160 168 0
160 169 0
160 170 0
160 171 0
161 162 0
161 163 0
161 164 0
161 165 0
161 166 0
161 167 0
161 168 0
161 169 0
161 170 0
161 171 0
162 163 0
162 164 0
162 165 0
162 166 0
162 167 0
162 168 0
162 169 0
162 170 0
162 171 0
163 164 0
163 165 0
163 166 0
163 167 0
163 168 0
163 169 0
163 170 0
163 171 0
164 165 0
164 166 0
164 167 0
164 168 0
164 169 0
164 170 0
164 171 0
165 166 0
165 167 0
165 168 0
165 169 0
165 170 0
165 171 0
166 167 0
166 168 0
166 169 0
166 170 0
166 171 0
167 168 0
167 169 0
167 170 0
167 171 0
168 169 0
168 170 0
168 171 0
169 170 0
169 171 0
170 171 0
172 173 0
172 174 0
172 175 0
172 176 0
172 177 0
172 178 0
172 179 0
172 180 0
172 181 0
172 182 0
172 183 0
172 184 0
172 185 0
173 174 0
173 175 0
173 176 0
173 177 0
173 178 0
173 179 0
173 180 0
173 181 0
173 182 0
173 183 0
173 184 0
173 185 0
174 175 0
174 176 0
174 177 0
174 178 0
174 179 0
174 180 0
174 181 0
174 182 0
174 183 0
174 184 0
174 185 0
175 176 0
175 177 0
175 178 0
175 179 0
175 180 0
175 181 0
175 182 0
175 183 0
175 184 0
175 185 0
176 177 0
176 178 0
176 179 0
176 180 0
176 181 0
176 182 0
176 183 0
176 184 0
176 185 0
177 178 0
177 179 0
177 180 0
177 181 0
177 182 0
177 183 0
177 184 0
177 185 0
178 179 0
178 180 0
178 181 0
178 182 0
178 183 0
178 184 0
178 185 0
179 180 0
179 181 0
179 182 0
179 183 0
179 184 0
179 185 0
180 181 0
180 182 0
180 183 0
180 184 0
180 185 0
181 182 0
181 183 0
181 184 0
181 185 0
182 183 0
182 184 0
182 185 0
183 184 0
183 185 0
184 185 0
186 187 0
186 188 0
186 189 0
186 190 0
186 191 0
186 192 0
186 193 0
186 194 0
186 195 0
186 196 0
186 197 0
186 198 0
187 188 0
187 189 0
187 190 0
187 191 0
187 192 0
187 193 0
187 194 0
187 195 0
187 196 0
187 197 0
187 198 0
188 189 0
188 190 0
188 191 0
188 192 0
188 193 0
188 194 0
188 195 0
188 196 0
188 197 0
188 198 0
189 190 0
189 191 0
189 192 0
189 193 0
189 194 0
189 195 0
189 196 0
189 197 0
189 198 0
190 191 0
190 192 0
190 193 0
190 194 0
190 195 0
190 196 0
190 197 0
190 198 0
191 192 0
191 193 0
191 194 0
191 195 0
191 196 0
191 197 0
191 198 0
192 193 0
192 194 0
192 195 0
192 196 0
192 197 0
192 198 0
193 194 0
193 195 0
193 196 0
193 197 0
193 198 0
194 195 0
194 196 0
194 197 0
194 198 0
195 196 0
195 197 0
195 198 0
196 197 0
196 198 0
197 198 0
199 200 0
199 201 0
199 202 0
199 203 0
199 204 0
199 205 0
199 206 0
199 207 0
199 208 0
199 209 0
199 210 0
200 201 0
200 202 0
200 203 0
200 204 0
200 205 0
200 206 0
200 207 0
200 208 0
200 209 0
200 210 0
201 202 0
201 203 0
201 204 0
201 205 0
201 206 0
201 207 0
201 208 0
201 209 0
201 210 0
202 203 0
202 204 0
202 205 0
202 206 0
202 207 0
202 208 0
202 209 0
202 210 0
203 204 0
203 205 0
203 206 0
203 207 0
203 208 0
203 209 0
203 210 0
204 205 0
204 206 0
204 207 0
204 208 0
204 209 0
204 210 0
205 206 0
205 207 0
205 208 0
205 209 0
205 210 0
206 207 0
206 208 0
206 209 0
206 210 0
207 208 0
207 209 0
207 210 0
208 209 0
208 210 0
209 210 0
211 212 0
211 213 0
211 214 0
211 215 0
211 216 0
211 217 0
211 218 0
211 219 0
211 220 0
211 221 0
212 213 0
212 214 0
212 215 0
212 216 0
212 217 0
212 218 0
212 219 0
212 220 0
212 221 0
213 214 0
213 215 0
213 216 0
213 217 0
213 218 0
213 219 0
213 220 0
213 221 0
214 215 0
214 216 0
214 217 0
214 218 0
214 219 0
214 220 0
214 221 0
215 216 0
215 217 0
215 218 0
215 219 0
215 220 0
215 221 0
216 217 0
216 218 0
216 219 0
216 220 0
216 221 0
217 218 0
217 219 0
217 220 0
217 221 0
218 219 0
218 220 0
218 221 0
219 220 0
219 221 0
220 221 0
222 223 0
222 224 0
222 225 0
222 226 0
222 227 0
222 228 0
222 229 0
222 230 0
222 231 0
223 224 0
223 225 0
223 226 0
223 227 0
223 228 0
223 229 0
223 230 0
223 231 0
224 225 0
224 226 0
224 227 0
224 228 0
224 229 0
224 230 0
224 231 0
225 226 0
225 227 0
225 228 0
225 229 0
225 230 0
225 231 0
226 227 0
226 228 0
226 229 0
226 230 0
226 231 0
227 228 0
227 229 0
227 230 0
227 231 0
228 229 0
228 230 0
228 231 0
229 230 0
229 231 0
230 231 0
232 233 0
232 234 0
232 235 0
232 236 0
232 237 0
232 238 0
232 239 0
232 240 0
233 234 0
233 235 0
233 236 0
233 237 0
233 238 0
233 239 0
233 240 0
234 235 0
234 236 0
234 237 0
234 238 0
234 239 0
234 240 0
235 236 0
235 237 0
235 238 0
235 239 0
235 240 0
236 237 0
236 238 0
236 239 0
236 240 0
237 238 0
237 239 0
237 240 0
238 239 0
238 240 0
239 240 0
241 242 0
241 243 0
241 244 0
241 245 0
241 246 0
241 247 0
241 248 0
242 243 0
242 244 0
242 245 0
242 246 0
242 247 0
242 248 0
243 244 0
243 245 0
243 246 0
243 247 0
243 248 0
244 245 0
244 246 0
244 247 0
244 248 0
245 246 0
245 247 0
245 248 0
246 247 0
246 248 0
247 248 0
249 250 0
249 251 0
249 252 0
249 253 0
249 254 0
249 255 0
250 251 0
250 252 0
250 253 0
250 254 0
250 255 0
251 252 0
251 253 0
251 254 0
251 255 0
252 253 0
252 254 0
252 255 0
253 254 0
253 255 0
254 255 0
256 257 0
256 258 0
256 259 0
256 260 0
256 261 0
257 258 0
257 259 0
257 260 0
257 261 0
258 259 0
258 260 0
258 261 0
259 260 0
259 261 0
260 261 0
262 263 0
262 264 0
262 265 0
262 266 0
263 264 0
263 265 0
263 266 0
264 265 0
264 266 0
265 266 0
267 268 0
267 269 0
267 270 0
268 269 0
268 270 0
269 270 0
271 272 0
271 273 0
272 273 0
274 275 0
-19 -40 -41 -60 -61 -79 -80 -97 -98 -114 -115 -130 -131 -145 -146 -159 -160 -172 -173 0
-20 -40 -42 -60 -61 -79 -80 -97 -98 -114 -115 -130 -131 -145 -146 -159 -160 -172 -173 0
-21 -40 -43 -60 -61 -79 -80 -97 -98 -114 -115 -130 -131 -145 -146 -159 -160 -172 -173 0
-22 -40 -44 -60 -61 -79 -80 -97 -98 -114 -115 -130 -131 -145 -146 -159 -160 -172 -173 0
-23 -40 -45 -60 -61 -79 -80 -97 -98 -114 -115 -130 -131 -145 -146 -159 -160 -172 -173 0
-20 -41 -42 -60 -62 -79 -80 -97 -98 -114 -115 -130 -131 -145 -146 -159 -160 -172 -173 0
-21 -41 -43 -60 -62 -79 -80 -97 -98 -114 -115 -130 -131 -145 -146 -159 -160 -172 -173 0
-22 -41 -44 -60 -62 -79 -80 -97 -98 -114 -115 -130 -131 -145 -146 -159 -160 -172 -173 0
-23 -41 -45 -60 -62 -79 -80 -97 -98 -114 -115 -130 -131 -145 -146 -159 -160 -172 -173 0
-21 -42 -43 -60 -63 -79 -80 -97 -98 -114 -115 -130 -131 -145 -146 -159 -160 -172 -173 0
-22 -42 -44 -60 -63 -79 -80 -97 -98 -114 -115 -130 -131 -145 -146 -159 -160 -172 -173 0
-23 -42 -45 -60 -63 -79 -80 -97 -98 -114 -115 -130 -131 -145 -146 -159 -160 -172 -173 0
-22 -43 -44 -60 -64 -79 -80 -97 -98 -114 -115 -130 -131 -145 -146 -159 -160 -172 -173 0
-23 -43 -45 -60 -64 -79 -80 -97 -98 -114 -115 -130 -131 -145 -146 -159 -160 -172 -173 0
-23 -44 -45 -60 -65 -79 -80 -97 -98 -114 -115 -130 -131 -145 -146 -159 -160 -172 -173 0
-20 -41 -42 -61 -62 -79 -81 -97 -98 -114 -115 -130 -131 -145 -146 -159 -160 -172 -173 0
-21 -41 -43 -61 -62 -79 -81 -97 -98 -114 -115 -130 -131 -145 -146 -159 -160 -172 -173 0
-22 -41 -44 -61 -62 -79 -81 -97 -98 -114 -115 -130 -131 -145 -146 -159 -160 -172 -173 0
-23 -41 -45 -61 -62 -79 -81 -97 -98 -114 -115 -130 -131 -145 -146 -159 -160 -172 -173 0
-21 -42 -43 -61 -63 -79 -81 -97 -98 -114 -115 -130 -131 -145 -146 -159 -160 -172 -173 0
-22 -42 -44 -61 -63 -79 -81 -97 -98 -114 -115 -130 -131 -145 -146 -159 -160 -172 -173 0
-23 -42 -45 -61 -63 -79 -81 -97 -98 -114 -115 -130 -131 -145 -146 -159 -160 -172 -173 0
-22 -43 -44 -61 -64 -79 -81 -97 -98 -114 -115 -130 -131 -145 -146 -159 -160 -172 -173 0
-23 -43 -45 -61 -64 -79 -81 -97 -98 -114 -115 -130 -131 -145 -146 -159 -160 -172 -173 0
-23 -44 -45 -61 -65 -79 -81 -97 -98 -114 -115 -130 -131 -145 -146 -159 -160 -172 -173 0
-21 -42 -43 -62 -63 -79 -82 -97 -98 -114 -115 -130 -131 -145 -146 -159 -160 -172 -173 0
-22 -42 -44 -62 -63 -79 -82 -97 -98 -114 -115 -130 -131 -145 -146 -159 -160 -172 -173 0
-23 -42 -45 -62 -63 -79 -82 -97 -98 -114 -115 -130 -131 -145 -146 -159 -160 -172 -173 0
-22 -43 -44 -62 -64 -79 -82 -97 -98 -114 -115 -130 -131 -145 -146 -159 -160 -172 -173 0
-23 -43 -45 -62 -64 -79 -82 -97 -98 -114 -115 -130 -131 -145 -146 -159 -160 -172 -173 0
-23 -44 -45 -62 -65 -79 -82 -97 -98 -114 -115 -130 -131 -145 -146 -159 -160 -172 -173 0
-22 -43 -44 -63 -64 -79 -83 -97 -98 -114 -115 -130 -131 -145 -146 -159 -160 -172 -173 0
-23 -43 -45 -63 -64 -79 -83 -97 -98 -114 -115 -130 -131 -145 -146 -159 -160 -172 -173 0
-23 -44 -45 -63 -65 -79 -83 -97 -98 -114 -115 -130 -131 -145 -146 -159 -160 -172 -173 0
-23 -44 -45 -64 -65 -79 -84 -97 -98 -114 -115 -130 -131 -145 -146 -159 -160 -172 -173 0
-20 -41 -42 -61 -62 -80 -81 -97 -99 -114 -115 -130 -131 -145 -146 -159 -160 -172 -173 0
-21 -41 -43 -61 -62 -80 -81 -97 -99 -114 -115 -130 -131 -145 -146 -159 -160 -172 -173 0
-22 -41 -44 -61 -62 -80 -81 -97 -99 -114 -115 -130 -131 -145 -146 -159 -160 -172 -173 0
-23 -41 -45 -61 -62 -80 -81 -97 -99 -114 -115 -130 -131 -145 -146 -159 -160 -172 -173 0
-21 -42 -43 -61 -63 -80 -81 -97 -99 -114 -115 -130 -131 -145 -146 -159 -160 -172 -173 0
-22 -42 -44 -61 -63 -80 -81 -97 -99 -114 -115 -130 -131 -145 -146 -159 -160 -172 -173 0
-23 -42 -45 -61 -63 -80 -81 -97 -99 -114 -115 -130 -131 -145 -146 -159 -160 -172 -173 0
-22 -43 -44 -61 -64 -80 -81 -97 -99 -114 -115 -130 -131 -145 -146 -159 -160 -172 -173 0
-23 -43 -45 -61 -64 -80 -81 -97 -99 -114 -115 -130 -131 -145 -146 -159 -160 -172 -173 0
-23 -44 -45 -61 -65 -80 -81 -97 -99 -114 -115 -130 -131 -145 -146 -159 -160 -172 -173 0
-21 -42 -43 -62 -63 -80 -82 -97 -99 -114 -115 -130 -131 -145 -146 -159 -160 -172 -173 0
-22 -42 -44 -62 -63 -80 -82 -97 -99 -114 -115 -130 -131 -145 -146 -159 -160 -172 -173 0
-23 -42 -45 -62 -63 -80 -82 -97 -99 -114 -115 -130 -131 -145 -146 -159 -160 -172 -173 0
-22 -43 -44 -62 -64 -80 -82 -97 -99 -114 -115 -130 -131 -145 -146 -159 -160 -172 -173 0
-23 -43 -45 -62 -64 -80 -82 -97 -99 -114 -115 -130 -131 -145 -146 -159 -160 -172 -173 0
-23 -44 -45 -62 -65 -80 -82 -97 -99 -114 -115 -130 -131 -145 -146 -159 -160 -172 -173 0
-22 -43 -44 -63 -64 -80 -83 -97 -99 -114 -115 -130 -131 -145 -146 -159 -160 -172 -173 0
-23 -43 -45 -63 -64 -80 -83 -97 -99 -114 -115 -130 -131 -145 -146 -159 -160 -172 -173 0
-23 -44 -45 -63 -65 -80 -83 -97 -99 -114 -115 -130 -131 -145 -146 -159 -160 -172 -173 0
-23 -44 -45 -64 -65 -80 -84 -97 -99 -114 -115 -130 -131 -145 -146 -159 -160 -172 -173 0
-21 -42 -43 -62 -63 -81 -82 -97 -100 -114 -115 -130 -131 -145 -146 -159 -160 -172 -173 0
-22 -42 -44 -62 -63 -81 -82 -97 -100 -114 -115 -130 -131 -145 -146 -159 -160 -172 -173 0
-23 -42 -45 -62 -63 -81 -82 -97 -100 -114 -115 -130 -131 -145 -146 -159 -160 -172 -173 0
-22 -43 -44 -62 -64 -81 -82 -97 -100 -114 -115 -130 -131 -145 -146 -159 -160 -172 -173 0
-23 -43 -45 -62 -64 -81 -82 -97 -100 -114 -115 -130 -131 -145 -146 -159 -160 -172 -173 0
-23 -44 -45 -62 -65 -81 -82 -97 -100 -114 -115 -130 -131 -145 -146 -159 -160 -172 -173 0
-22 -43 -44 -63 -64 -81 -83 -97 -100 -114 -115 -130 -131 -145 -146 -159 -160 -172 -173 0
-23 -43 -45 -63 -64 -81 -83 -97 -100 -114 -115 -130 -131 -145 -146 -159 -160 -172 -173 0
-23 -44 -45 -63 -65 -81 -83 -97 -100 -114 -115 -130 -131 -145 -146 -159 -160 -172 -173 0
-23 -44 -45 -64 -65 -81 -84 -97 -100 -114 -115 -130 -131 -145 -146 -159 -160 -172 -173 0
-22 -43 -44 -63 -64 -82 -83 -97 -101 -114 -115 -130 -131 -145 -146 -159 -160 -172 -173 0
-23 -43 -45 -63 -64 -82 -83 -97 -101 -114 -115 -130 -131 -145 -146 -159 -160 -172 -173 0
-23 -44 -45 -63 -65 -82 -83 -97 -101 -114 -115 -130 -131 -145 -146 -159 -160 -172 -173 0
-23 -44 -45 -64 -65 -82 -84 -97 -101 -114 -115 -130 -131 -145 -146 -159 -160 -172 -173 0
-23 -44 -45 -64 -65 -83 -84 -97 -102 -114 -115 -130 -131 -145 -146 -159 -160 -172 -173 0
-20 -41 -42 -61 -62 -80 -81 -98 -99 -114 -116 -130 -131 -145 -146 -159 -160 -172 -173 0
-21 -41 -43 -61 -62 -80 -81 -98 -99 -114 -116 -130 -131 -145 -146 -159 -160 -172 -173 0
-22 -41 -44 -61 -62 -80 -81 -98 -99 -114 -116 -130 -131 -145 -146 -159 -160 -172 -173 0
-23 -41 -45 -61 -62 -80 -81 -98 -99 -114 -116 -130 -131 -145 -146 -159 -160 -172 -173 0
-21 -42 -43 -61 -63 -80 -81 -98 -99 -114 -116 -130 -131 -145 -146 -159 -160 -172 -173 0
-22 -42 -44 -61 -63 -80 -81 -98 -99 -114 -116 -130 -131 -145 -146 -159 -160 -172 -173 0
-23 -42 -45 -61 -63 -80 -81 -98 -99 -114 -116 -130 -131 -145 -146 -159 -160 -172 -173 0
-22 -43 -44 -61 -64 -80 -81 -98 -99 -114 -116 -130 -131 -145 -146 -159 -160 -172 -173 0
-23 -43 -45 -61 -64 -80 -81 -98 -99 -114 -116 -130 -131 -145 -146 -159 -160 -172 -173 0
-23 -44 -45 -61 -65 -80 -81 -98 -99 -114 -116 -130 -131 -145 -146 -159 -160 -172 -173 0
-21 -42 -43 -62 -63 -80 -82 -98 -99 -114 -116 -130 -131 -145 -146 -159 -160 -172 -173 0
-22 -42 -44 -62 -63 -80 -82 -98 -99 -114 -116 -130 -131 -145 -146 -159 -160 -172 -173 0
-23 -42 -45 -62 -63 -80 -82 -98 -99 -114 -116 -130 -131 -145 -146 -159 -160 -172 -173 0
-22 -43 -44 -62 -64 -80 -82 -98 -99 -114 -116 -130 -131 -145 -146 -159 -160 -172 -173 0
-23 -43 -45 -62 -64 -80 -82 -98 -99 -114 -116 -130 -131 -145 -146 -159 -160 -172 -173 0
-23 -44 -45 -62 -65 -80 -82 -98 -99 -114 -116 -130 -131 -145 -146 -159 -160 -172 -173 0
-22 -43 -44 -63 -64 -80 -83 -98 -99 -114 -116 -130 -131 -145 -146 -159 -160 -172 -173 0
-23 -43 -45 -63 -64 -80 -83 -98 -99 -114 -116 -130 -131 -145 -146 -159 -160 -172 -173 0
-23 -44 -45 -63 -65 -80 -83 -98 -99 -114 -116 -130 -131 -145 -146 -159 -160 -172 -173 0
-23 -44 -45 -64 -65 -80 -84 -98 -99 -114 -116 -130 -131 -145 -146 -159 -160 -172 -173 0
-21 -42 -43 -62 -63 -81 -82 -98 -100 -114 -116 -130 -131 -145 -146 -159 -160 -172 -173 0
-22 -42 -44 -62 -63 -81 -82 -98 -100 -114 -116 -130 -131 -145 -146 -159 -160 -172 -173 0
-23 -42 -45 -62 -63 -81 -82 -98 -100 -114 -116 -130 -131 -145 -146 -159 -160 -172 -173 0
-22 -43 -44 -62 -64 -81 -82 -98 -100 -114 -116 -130 -131 -145 -146 -159 -160 -172 -173 0
-23 -43 -45 -62 -64 -81 -82 -98 -100 -114 -116 -130 -131 -145 -146 -159 -160 -172 -173 0
-23 -44 -45 -62 -65 -81 -82 -98 -100 -114 -116 -130 -131 -145 -146 -159 -160 -172 -173 0
-22 -43 -44 -63 -64 -81 -83 -98 -100 -114 -116 -130 -131 -145 -146 -159 -160 -172 -173 0
-23 -43 -45 -63 -64 -81 -83 -98 -100 -114 -116 -130 -131 -145 -146 -159 -160 -172 -173 0
-23 -44 -45 -63 -65 -81 -83 -98 -100 -114 -116 -130 -131 -145 -146 -159 -160 -172 -173 0
-23 -44 -45 -64 -65 -81 -84 -98 -100 -114 -116 -130 -131 -145 -146 -159 -160 -172 -173 0
-22 -43 -44 -63 -64 -82 -83 -98 -101 -114 -116 -130 -131 -145 -146 -159 -160 -172 -173 0
-23 -43 -45 -63 -64 -82 -83 -98 -101 -114 -116 -130 -131 -145 -146 -159 -160 -172 -173 0
-23 -44 -45 -63 -65 -82 -83 -98 -101 -114 -116 -130 -131 -145 -146 -159 -160 -172 -173 0
-23 -44 -45 -64 -65 -82 -84 -98 -101 -114 -116 -130 -131 -145 -146 -159 -160 -172 -173 0
-23 -44 -45 -64 -65 -83 -84 -98 -102 -114 -116 -130 -131 -145 -146 -159 -160 -172 -173 0
-21 -42 -43 -62 -63 -81 -82 -99 -100 -114 -117 -130 -131 -145 -146 -159 -160 -172 -173 0
-22 -42 -44 -62 -63 -81 -82 -99 -100 -114 -117 -130 -131 -145 -146 -159 -160 -172 -173 0
-23 -42 -45 -62 -63 -81 -82 -99 -100 -114 -117 -130 -131 -145 -146 -159 -160 -172 -173 0
-22 -43 -44 -62 -64 -81 -82 -99 -100 -114 -117 -130 -131 -145 -146 -159 -160 -172 -173 0
-23 -43 -45 -62 -64 -81 -82 -99 -100 -114 -117 -130 -131 -145 -146 -159 -160 -172 -173 0
-23 -44 -45 -62 -65 -81 -82 -99 -100 -114 -117 -130 -131 -145 -146 -159 -160 -172 -173 0
-22 -43 -44 -63 -64 -81 -83 -99 -100 -114 -117 -130 -131 -145 -146 -159 -160 -172 -173 0
-23 -43 -45 -63 -64 -81 -83 -99 -100 -114 -117 -130 -131 -145 -146 -159 -160 -172 -173 0
-23 -44 -45 -63 -65 -81 -83 -99 -100 -114 -117 -130 -131 -145 -146 -159 -160 -172 -173 0
-23 -44 -45 -64 -65 -81 -84 -99 -100 -114 -117 -130 -131 -145 -146 -159 -160 -172 -173 0
-22 -43 -44 -63 -64 -82 -83 -99 -101 -114 -117 -130 -131 -145 -146 -159 -160 -172 -173 0
-23 -43 -45 -63 -64 -82 -83 -99 -101 -114 -117 -130 -131 -145 -146 -159 -160 -172 -173 0
-23 -44 -45 -63 -65 -82 -83 -99 -101 -114 -117 -130 -131 -145 -146 -159 -160 -172 -173 0
-23 -44 -45 -64 -65 -82 -84 -99 -101 -114 -117 -130 -131 -145 -146 -159 -160 -172 -173 0
-23 -44 -45 -64 -65 -83 -84 -99 -102 -114 -117 -130 -131 -145 -146 -159 -160 -172 -173 0
-22 -43 -44 -63 -64 -82 -83 -100 -101 -114 -118 -130 -131 -145 -146 -159 -160 -172 -173 0
-23 -43 -45 -63 -64 -82 -83 -100 -101 -114 -118 -130 -131 -145 -146 -159 -160 -172 -173 0
-23 -44 -45 -63 -65 -82 -83 -100 -101 -114 -118 -130 -131 -145 -146 -159 -160 -172 -173 0
-23 -44 -45 -64 -65 -82 -84 -100 -101 -114 -118 -130 -131 -145 -146 -159 -160 -172 -173 0
-23 -44 -45 -64 -65 -83 -84 -100 -102 -114 -118 -130 -131 -145 -146 -159 -160 -172 -173 0
-23 -44 -45 -64 -65 -83 -84 -101 -102 -114 -119 -130 -131 -145 -146 -159 -160 -172 -173 0
-20 -41 -42 -61 -62 -80 -81 -98 -99 -115 -116 -130 -132 -145 -146 -159 -160 -172 -173 0
-21 -41 -43 -61 -62 -80 -81 -98 -99 -115 -116 -130 -132 -145 -146 -159 -160 -172 -173 0
-22 -41 -44 -61 -62 -80 -81 -98 -99 -115 -116 -130 -132 -145 -146 -159 -160 -172 -173 0
-23 -41 -45 -61 -62 -80 -81 -98 -99 -115 -116 -130 -132 -145 -146 -159 -160 -172 -173 0
-21 -42 -43 -61 -63 -80 -81 -98 -99 -115 -116 -130 -132 -145 -146 -159 -160 -172 -173 0
-22 -42 -44 -61 -63 -80 -81 -98 -99 -115 -116 -130 -132 -145 -146 -159 -160 -172 -173 0
-23 -42 -45 -61 -63 -80 -81 -98 -99 -115 -116 -130 -132 -145 -146 -159 -160 -172 -173 0
-22 -43 -44 -61 -64 -80 -81 -98 -99 -115 -116 -130 -132 -145 -146 -159 -160 -172 -173 0
-23 -43 -45 -61 -64 -80 -81 -98 -99 -115 -116 -130 -132 -145 -146 -159 -160 -172 -173 0
-23 -44 -45 -61 -65 -80 -81 -98 -99 -115 -116 -130 -132 -145 -146 -159 -160 -172 -173 0
-21 -42 -43 -62 -63 -80 -82 -98 -99 -115 -116 -130 -132 -145 -146 -159 -160 -172 -173 0
-22 -42 -44 -62 -63 -80 -82 -98 -99 -115 -116 -130 -132 -145 -146 -159 -160 -172 -173 0
-23 -42 -45 -62 -63 -80 -82 -98 -99 -115 -116 -130 -132 -145 -146 -159 -160 -172 -173 0
-22 -43 -44 -62 -64 -80 -82 -98 -99 -115 -116 -130 -132 -145 -146 -159 -160 -172 -173 0
-23 -43 -45 -62 -64 -80 -82 -98 -99 -115 -116 -130 -132 -145 -146 -159 -160 -172 -173 0
-23 -44 -45 -62 -65 -80 -82 -98 -99 -115 -116 -130 -132 -145 -146 -159 -160 -172 -173 0
-22 -43 -44 -63 -64 -80 -83 -98 -99 -115 -116 -130 -132 -145 -146 -159 -160 -172 -173 0
-23 -43 -45 -63 -64 -80 -83 -98 -99 -115 -116 -130 -132 -145 -146 -159 -160 -172 -173 0
-23 -44 -45 -63 -65 -80 -83 -98 -99 -115 -116 -130 -132 -145 -146 -159 -160 -172 -173 0
-23 -44 -45 -64 -65 -80 -84 -98 -99 -115 -116 -130 -132 -145 -146 -159 -160 -172 -173 0
-21 -42 -43 -62 -63 -81 -82 -98 -100 -115 -116 -130 -132 -145 -146 -159 -160 -172 -173 0
-22 -42 -44 -62 -63 -81 -82 -98 -100 -115 -116 -130 -132 -145 -146 -159 -160 -172 -173 0
-23 -42 -45 -62 -63 -81 -82 -98 -100 -115 -116 -130 -132 -145 -146 -159 -160 -172 -173 0
-22 -43 -44 -62 -64 -81 -82 -98 -100 -115 -116 -130 -132 -145 -146 -159 -160 -172 -173 0
-23 -43 -45 -62 -64 -81 -82 -98 -100 -115 -116 -130 -132 -145 -146 -159 -160 -172 -173 0
-23 -44 -45 -62 -65 -81 -82 -98 -100 -115 -116 -130 -132 -145 -146 -159 -160 -172 -173 0
-22 -43 -44 -63 -64 -81 -83 -98 -100 -115 -116 -130 -132 -145 -146 -159 -160 -172 -173 0
-23 -43 -45 -63 -64 -81 -83 -98 -100 -115 -116 -130 -132 -145 -146 -159 -160 -172 -173 0
-23 -44 -45 -63 -65 -81 -83 -98 -100 -115 -116 -130 -132 -145 -146 -159 -160 -172 -173 0
-23 -44 -45 -64 -65 -81 -84 -98 -100 -115 -116 -130 -132 -145 -146 -159 -160 -172 -173 0
-22 -43 -44 -63 -64 -82 -83 -98 -101 -115 -116 -130 -132 -145 -146 -159 -160 -172 -173 0
-23 -43 -45 -63 -64 -82 -83 -98 -101 -115 -116 -130 -132 -145 -146 -159 -160 -172 -173 0
-23 -44 -45 -63 -65 -82 -83 -98 -101 -115 -116 -130 -132 -145 -146 -159 -160 -172 -173 0
-23 -44 -45 -64 -65 -82 -84 -98 -101 -115 -116 -130 -132 -145 -146 -159 -160 -172 -173 0
-23 -44 -45 -64 -65 -83 -84 -98 -102 -115 -116 -130 -132 -145 -146 -159 -160 -172 -173 0
-21 -42 -43 -62 -63 -81 -82 -99 -100 -115 -117 -130 -132 -145 -146 -159 -160 -172 -173 0
-22 -42 -44 -62 -63 -81 -82 -99 -100 -115 -117 -130 -132 -145 -146 -159 -160 -172 -173 0
-23 -42 -45 -62 -63 -81 -82 -99 -100 -115 -117 -130 -132 -145 -146 -159 -160 -172 -173 0
-22 -43 -44 -62 -64 -81 -82 -99 -100 -115 -117 -130 -132 -145 -146 -159 -160 -172 -173 0
-23 -43 -45 -62 -64 -81 -82 -99 -100 -115 -117 -130 -132 -145 -146 -159 -160 -172 -173 0
-23 -44 -45 -62 -65 -81 -82 -99 -100 -115 -117 -130 -132 -145 -146 -159 -160 -172 -173 0
-22 -43 -44 -63 -64 -81 -83 -99 -100 -115 -117 -130 -132 -145 -146 -159 -160 -172 -173 0
-23 -43 -45 -63 -64 -81 -83 -99 -100 -115 -117 -130 -132 -145 -146 -159 -160 -172 -173 0
-23 -44 -45 -63 -65 -81 -83 -99 -100 -115 -117 -130 -132 -145 -146 -159 -160 -172 -173 0
-23 -44 -45 -64 -65 -81 -84 -99 -100 -115 -117 -130 -132 -145 -146 -159 -160 -172 -173 0
-22 -43 -44 -63 -64 -82 -83 -99 -101 -115 -117 -130 -132 -145 -146 -159 -160 -172 -173 0
-23 -43 -45 -63 -64 -82 -83 -99 -101 -115 -117 -130 -132 -145 -146 -159 -160 -172 -173 0
-23 -44 -45 -63 -65 -82 -83 -99 -101 -115 -117 -130 -132 -145 -146 -159 -160 -172 -173 0
-23 -44 -45 -64 -65 -82 -84 -99 -101 -115 -117 -130 -132 -145 -146 -159 -160 -172 -173 0
-23 -44 -45 -64 -65 -83 -84 -99 -102 -115 -117 -130 -132 -145 -146 -159 -160 -172 -173 0
-22 -43 -44 -63 -64 -82 -83 -100 -101 -115 -118 -130 -132 -145 -146 -159 -160 -172 -173 0
-23 -43 -45 -63 -64 -82 -83 -100 -101 -115 -118 -130 -132 -145 -146 -159 -160 -172 -173 0
-23 -44 -45 -63 -65 -82 -83 -100 -101 -115 -118 -130 -132 -145 -146 -159 -160 -172 -173 0
-23 -44 -45 -64 -65 -82 -84 -100 -101 -115 -118 -130 -132 -145 -146 -159 -160 -172 -173 0
-23 -44 -45 -64 -65 -83 -84 -100 -102 -115 -118 -130 -132 -145 -146 -159 -160 -172 -173 0
-23 -44 -45 -64 -65 -83 -84 -101 -102 -115 -119 -130 -132 -145 -146 -159 -160 -172 -173 0
-21 -42 -43 -62 -63 -81 -82 -99 -100 -116 -117 -130 -133 -145 -146 -159 -160 -172 -173 0
-22 -42 -44 -62 -63 -81 -82 -99 -100 -116 -117 -130 -133 -145 -146 -159 -160 -172 -173 0
-23 -42 -45 -62 -63 -81 -82 -99 -100 -116 -117 -130 -133 -145 -146 -159 -160 -172 -173 0
-22 -43 -44 -62 -64 -81 -82 -99 -100 -116 -117 -130 -133 -145 -146 -159 -160 -172 -173 0
-23 -43 -45 -62 -64 -81 -82 -99 -100 -116 -117 -130 -133 -145 -146 -159 -160 -172 -173 0
-23 -44 -45 -62 -65 -81 -82 -99 -100 -116 -117 -130 -133 -145 -146 -159 -160 -172 -173 0
-22 -43 -44 -63 -64 -81 -83 -99 -100 -116 -117 -130 -133 -145 -146 -159 -160 -172 -173 0
-23 -43 -45 -63 -64 -81 -83 -99 -100 -116 -117 -130 -133 -145 -146 -159 -160 -172 -173 0
-23 -44 -45 -63 -65 -81 -83 -99 -100 -116 -117 -130 -133 -145 -146 -159 -160 -172 -173 0
-23 -44 -45 -64 -65 -81 -84 -99 -100 -116 -117 -130 -133 -145 -146 -159 -160 -172 -173 0
-22 -43 -44 -63 -64 -82 -83 -99 -101 -116 -117 -130 -133 -145 -146 -159 -160 -172 -173 0
-23 -43 -45 -63 -64 -82 -83 -99 -101 -116 -117 -130 -133 -145 -146 -159 -160 -172 -173 0
-23 -44 -45 -63 -65 -82 -83 -99 -101 -116 -117 -130 -133 -145 -146 -159 -160 -172 -173 0
-23 -44 -45 -64 -65 -82 -84 -99 -101 -116 -117 -130 -133 -145 -146 -159 -160 -172 -173 0
-23 -44 -45 -64 -65 -83 -84 -99 -102 -116 -117 -130 -133 -145 -146 -159 -160 -172 -173 0
-22 -43 -44 -63 -64 -82 -83 -100 -101 -116 -118 -130 -133 -145 -146 -159 -160 -172 -173 0
-23 -43 -45 -63 -64 -82 -83 -100 -101 -116 -118 -130 -133 -145 -146 -159 -160 -172 -173 0
-23 -44 -45 -63 -65 -82 -83 -100 -101 -116 -118 -130 -133 -145 -146 -159 -160 -172 -173 0
-23 -44 -45 -64 -65 -82 -84 -100 -101 -116 -118 -130 -133 -145 -146 -159 -160 -172 -173 0
-23 -44 -45 -64 -65 -83 -84 -100 -102 -116 -118 -130 -133 -145 -146 -159 -160 -172 -173 0
-23 -44 -45 -64 -65 -83 -84 -101 -102 -116 -119 -130 -133 -145 -146 -159 -160 -172 -173 0
-22 -43 -44 -63 -64 -82 -83 -100 -101 -117 -118 -130 -134 -145 -146 -159 -160 -172 -173 0
-23 -43 -45 -63 -64 -82 -83 -100 -101 -117 -118 -130 -134 -145 -146 -159 -160 -172 -173 0
-23 -44 -45 -63 -65 -82 -83 -100 -101 -117 -118 -130 -134 -145 -146 -159 -160 -172 -173 0
-23 -44 -45 -64 -65 -82 -84 -100 -101 -117 -118 -130 -134 -145 -146 -159 -160 -172 -173 0
-23 -44 -45 -64 -65 -83 -84 -100 -102 -117 -118 -130 -134 -145 -146 -159 -160 -172 -173 0
-23 -44 -45 -64 -65 -83 -84 -101 -102 -117 -119 -130 -134 -145 -146 -159 -160 -172 -173 0
-23 -44 -45 -64 -65 -83 -84 -101 -102 -118 -119 -130 -135 -145 -146 -159 -160 -172 -173 0
-20 -41 -42 -61 -62 -80 -81 -98 -99 -115 -116 -131 -132 -145 -147 -159 -160 -172 -173 0
-21 -41 -43 -61 -62 -80 -81 -98 -99 -115 -116 -131 -132 -145 -147 -159 -160 -172 -173 0
-22 -41 -44 -61 -62 -80 -81 -98 -99 -115 -116 -131 -132 -145 -147 -159 -160 -172 -173 0
-23 -41 -45 -61 -62 -80 -81 -98 -99 -115 -116 -131 -132 -145 -147 -159 -160 -172 -173 0
-21 -42 -43 -61 -63 -80 -81 -98 -99 -115 -116 -131 -132 -145 -147 -159 -160 -172 -173 0
-22 -42 -44 -61 -63 -80 -81 -98 -99 -115 -116 -131 -132 -145 -147 -159 -160 -172 -173 0
-23 -42 -45 -61 -63 -80 -81 -98 -99 -115 -116 -131 -132 -145 -147 -159 -160 -172 -173 0
-22 -43 -44 -61 -64 -80 -81 -98 -99 -115 -116 -131 -132 -145 -147 -159 -160 -172 -173 0
-23 -43 -45 -61 -64 -80 -81 -98 -99 -115 -116 -131 -132 -145 -147 -159 -160 -172 -173 0
-23 -44 -45 -61 -65 -80 -81 -98 -99 -115 -116 -131 -132 -145 -147 -159 -160 -172 -173 0
-21 -42 -43 -62 -63 -80 -82 -98 -99 -115 -116 -131 -132 -145 -147 -159 -160 -172 -173 0
-22 -42 -44 -62 -63 -80 -82 -98 -99 -115 -116 -131 -132 -145 -147 -159 -160 -172 -173 0
-23 -42 -45 -62 -63 -80 -82 -98 -99 -115 -116 -131 -132 -145 -147 -159 -160 -172 -173 0
-22 -43 -44 -62 -64 -80 -82 -98 -99 -115 -116 -131 -132 -145 -147 -159 -160 -172 -173 0
-23 -43 -45 -62 -64 -80 -82 -98 -99 -115 -116 -131 -132 -145 -147 -159 -160 -172 -173 0
-23 -44 -45 -62 -65 -80 -82 -98 -99 -115 -116 -131 -132 -145 -147 -159 -160 -172 -173 0
-22 -43 -44 -63 -64 -80 -83 -98 -99 -115 -116 -131 -132 -145 -147 -159 -160 -172 -173 0
-23 -43 -45 -63 -64 -80 -83 -98 -99 -115 -116 -131 -132 -145 -147 -159 -160 -172 -173 0
-23 -44 -45 -63 -65 -80 -83 -98 -99 -115 -116 -131 -132 -145 -147 -159 -160 -172 -173 0
-23 -44 -45 -64 -65 -80 -84 -98 -99 -115 -116 -131 -132 -145 -147 -159 -160 -172 -173 0
-21 -42 -43 -62 -63 -81 -82 -98 -100 -115 -116 -131 -132 -145 -147 -159 -160 -172 -173 0
-22 -42 -44 -62 -63 -81 -82 -98 -100 -115 -116 -131 -132 -145 -147 -159 -160 -172 -173 0
-23 -42 -45 -62 -63 -81 -82 -98 -100 -115 -116 -131 -132 -145 -147 -159 -160 -172 -173 0
-22 -43 -44 -62 -64 -81 -82 -98 -100 -115 -116 -131 -132 -145 -147 -159 -160 -172 -173 0
-23 -43 -45 -62 -64 -81 -82 -98 -100 -115 -116 -131 -132 -145 -147 -159 -160 -172 -173 0
-23 -44 -45 -62 -65 -81 -82 -98 -100 -115 -116 -131 -132 -145 -147 -159 -160 -172 -173 0
-22 -43 -44 -63 -64 -81 -83 -98 -100 -115 -116 -131 -132 -145 -147 -159 -160 -172 -173 0
-23 -43 -45 -63 -64 -81 -83 -98 -100 -115 -116 -131 -132 -145 -147 -159 -160 -172 -173 0
-23 -44 -45 -63 -65 -81 -83 -98 -100 -115 -116 -131 -132 -145 -147 -159 -160 -172 -173 0
-23 -44 -45 -64 -65 -81 -84 -98 -100 -115 -116 -131 -132 -145 -147 -159 -160 -172 -173 0
-22 -43 -44 -63 -64 -82 -83 -98 -101 -115 -116 -131 -132 -145 -147 -159 -160 -172 -173 0
-23 -43 -45 -63 -64 -82 -83 -98 -101 -115 -116 -131 -132 -145 -147 -159 -160 -172 -173 0
-23 -44 -45 -63 -65 -82 -83 -98 -101 -115 -116 -131 -132 -145 -147 -159 -160 -172 -173 0
-23 -44 -45 -64 -65 -82 -84 -98 -101 -115 -116 -131 -132 -145 -147 -159 -160 -172 -173 0
-23 -44 -45 -64 -65 -83 -84 -98 -102 -115 -116 -131 -132 -145 -147 -159 -160 -172 -173 0
-21 -42 -43 -62 -63 -81 -82 -99 -100 -115 -117 -131 -132 -145 -147 -159 -160 -172 -173 0
-22 -42 -44 -62 -63 -81 -82 -99 -100 -115 -117 -131 -132 -145 -147 -159 -160 -172 -173 0
-23 -42 -45 -62 -63 -81 -82 -99 -100 -115 -117 -131 -132 -145 -147 -159 -160 -172 -173 0
-22 -43 -44 -62 -64 -81 -82 -99 -100 -115 -117 -131 -132 -145 -147 -159 -160 -172 -173 0
-23 -43 -45 -62 -64 -81 -82 -99 -100 -115 -117 -131 -132 -145 -147 -159 -160 -172 -173 0
-23 -44 -45 -62 -65 -81 -82 -99 -100 -115 -117 -131 -132 -145 -147 -159 -160 -172 -173 0
-22 -43 -44 -63 -64 -81 -83 -99 -100 -115 -117 -131 -132 -145 -147 -159 -160 -172 -173 0
-23 -43 -45 -63 -64 -81 -83 -99 -100 -115 -117 -131 -132 -145 -147 -159 -160 -172 -173 0
-23 -44 -45 -63 -65 -81 -83 -99 -100 -115 -117 -131 -132 -145 -147 -159 -160 -172 -173 0
-23 -44 -45 -64 -65 -81 -84 -99 -100 -115 -117 -131 -132 -145 -147 -159 -160 -172 -173 0
-22 -43 -44 -63 -64 -82 -83 -99 -101 -115 -117 -131 -132 -145 -147 -159 -160 -172 -173 0
-23 -43 -45 -63 -64 -82 -83 -99 -101 -115 -117 -131 -132 -145 -147 -159 -160 -172 -173 0
-23 -44 -45 -63 -65 -82 -83 -99 -101 -115 -117 -131 -132 -145 -147 -159 -160 -172 -173 0
-23 -44 -45 -64 -65 -82 -84 -99 -101 -115 -117 -131 -132 -145 -147 -159 -160 -172 -173 0
-23 -44 -45 -64 -65 -83 -84 -99 -102 -115 -117 -131 -132 -145 -147 -159 -160 -172 -173 0
-22 -43 -44 -63 -64 -82 -83 -100 -101 -115 -118 -131 -132 -145 -147 -159 -160 -172 -173 0
-23 -43 -45 -63 -64 -82 -83 -100 -101 -115 -118 -131 -132 -145 -147 -159 -160 -172 -173 0
-23 -44 -45 -63 -65 -82 -83 -100 -101 -115 -118 -131 -132 -145 -147 -159 -160 -172 -173 0
-23 -44 -45 -64 -65 -82 -84 -100 -101 -115 -118 -131 -132 -145 -147 -159 -160 -172 -173 0
-23 -44 -45 -64 -65 -83 -84 -100 -102 -115 -118 -131 -132 -145 -147 -159 -160 -172 -173 0
-23 -44 -45 -64 -65 -83 -84 -101 -102 -115 -119 -131 -132 -145 -147 -159 -160 -172 -173 0
-21 -42 -43 -62 -63 -81 -82 -99 -100 -116 -117 -131 -133 -145 -147 -159 -160 -172 -173 0
-22 -42 -44 -62 -63 -81 -82 -99 -100 -116 -117 -131 -133 -145 -147 -159 -160 -172 -173 0
-23 -42 -45 -62 -63 -81 -82 -99 -100 -116 -117 -131 -133 -145 -147 -159 -160 -172 -173 0
-22 -43 -44 -62 -64 -81 -82 -99 -100 -116 -117 -131 -133 -145 -147 -159 -160 -172 -173 0
-23 -43 -45 -62 -64 -81 -82 -99 -100 -116 -117 -131 -133 -145 -147 -159 -160 -172 -173 0
-23 -44 -45 -62 -65 -81 -82 -99 -100 -116 -117 -131 -133 -145 -147 -159 -160 -172 -173 0
-22 -43 -44 -63 -64 -81 -83 -99 -100 -116 -117 -131 -133 -145 -147 -159 -160 -172 -173 0
-23 -43 -45 -63 -64 -81 -83 -99 -100 -116 -117 -131 -133 -145 -147 -159 -160 -172 -173 0
-23 -44 -45 -63 -65 -81 -83 -99 -100 -116 -117 -131 -133 -145 -147 -159 -160 -172 -173 0
-23 -44 -45 -64 -65 -81 -84 -99 -100 -116 -117 -131 -133 -145 -147 -159 -160 -172 -173 0
-22 -43 -44 -63 -64 -82 -83 -99 -101 -116 -117 -131 -133 -145 -147 -159 -160 -172 -173 0
-23 -43 -45 -63 -64 -82 -83 -99 -101 -116 -117 -131 -133 -145 -147 -159 -160 -172 -173 0
-23 -44 -45 -63 -65 -82 -83 -99 -101 -116 -117 -131 -133 -145 -147 -159 -160 -172 -173 0
-23 -44 -45 -64 -65 -82 -84 -99 -101 -116 -117 -131 -133 -145 -147 -159 -160 -172 -173 0
-23 -44 -45 -64 -65 -83 -84 -99 -102 -116 -117 -131 -133 -145 -147 -159 -160 -172 -173 0
-22 -43 -44 -63 -64 -82 -83 -100 -101 -116 -118 -131 -133 -145 -147 -159 -160 -172 -173 0
-23 -43 -45 -63 -64 -82 -83 -100 -101 -116 -118 -131 -133 -145 -147 -159 -160 -172 -173 0
-23 -44 -45 -63 -65 -82 -83 -100 -101 -116 -118 -131 -133 -145 -147 -159 -160 -172 -173 0
-23 -44 -45 -64 -65 -82 -84 -100 -101 -116 -118 -131 -133 -145 -147 -159 -160 -172 -173 0
-23 -44 -45 -64 -65 -83 -84 -100 -102 -116 -118 -131 -133 -145 -147 -159 -160 -172 -173 0
-23 -44 -45 -64 -65 -83 -84 -101 -102 -116 -119 -131 -133 -145 -147 -159 -160 -172 -173 0
-22 -43 -44 -63 -64 -82 -83 -100 -101 -117 -118 -131 -134 -145 -147 -159 -160 -172 -173 0
-23 -43 -45 -63 -64 -82 -83 -100 -101 -117 -118 -131 -134 -145 -147 -159 -160 -172 -173 0
-23 -44 -45 -63 -65 -82 -83 -100 -101 -117 -118 -131 -134 -145 -147 -159 -160 -172 -173 0
-23 -44 -45 -64 -65 -82 -84 -100 -101 -117 -118 -131 -134 -145 -147 -159 -160 -172 -173 0
-23 -44 -45 -64 -65 -83 -84 -100 -102 -117 -118 -131 -134 -145 -147 -159 -160 -172 -173 0
-23 -44 -45 -64 -65 -83 -84 -101 -102 -117 -119 -131 -134 -145 -147 -159 -160 -172 -173 0
-23 -44 -45 -64 -65 -83 -84 -101 -102 -118 -119 -131 -135 -145 -147 -159 -160 -172 -173 0
-21 -42 -43 -62 -63 -81 -82 -99 -100 -116 -117 -132 -133 -145 -148 -159 -160 -172 -173 0
-22 -42 -44 -62 -63 -81 -82 -99 -100 -116 -117 -132 -133 -145 -148 -159 -160 -172 -173 0
-23 -42 -45 -62 -63 -81 -82 -99 -100 -116 -117 -132 -133 -145 -148 -159 -160 -172 -173 0
-22 -43 -44 -62 -64 -81 -82 -99 -100 -116 -117 -132 -133 -145 -148 -159 -160 -172 -173 0
-23 -43 -45 -62 -64 -81 -82 -99 -100 -116 -117 -132 -133 -145 -148 -159 -160 -172 -173 0
-23 -44 -45 -62 -65 -81 -82 -99 -100 -116 -117 -132 -133 -145 -148 -159 -160 -172 -173 0
-22 -43 -44 -63 -64 -81 -83 -99 -100 -116 -117 -132 -133 -145 -148 -159 -160 -172 -173 0
-23 -43 -45 -63 -64 -81 -83 -99 -100 -116 -117 -132 -133 -145 -148 -159 -160 -172 -173 0
-23 -44 -45 -63 -65 -81 -83 -99 -100 -116 -117 -132 -133 -145 -148 -159 -160 -172 -173 0
-23 -44 -45 -64 -65 -81 -84 -99 -100 -116 -117 -132 -133 -145 -148 -159 -160 -172 -173 0
-22 -43 -44 -63 -64 -82 -83 -99 -101 -116 -117 -132 -133 -145 -148 -159 -160 -172 -173 0
-23 -43 -45 -63 -64 -82 -83 -99 -101 -116 -117 -132 -133 -145 -148 -159 -160 -172 -173 0
-23 -44 -45 -63 -65 -82 -83 -99 -101 -116 -117 -132 -133 -145 -148 -159 -160 -172 -173 0
-23 -44 -45 -64 -65 -82 -84 -99 -101 -116 -117 -132 -133 -145 -148 -159 -160 -172 -173 0
-23 -44 -45 -64 -65 -83 -84 -99 -102 -116 -117 -132 -133 -145 -148 -159 -160 -172 -173 0
-22 -43 -44 -63 -64 -82 -83 -100 -101 -116 -118 -132 -133 -145 -148 -159 -160 -172 -173 0
-23 -43 -45 -63 -64 -82 -83 -100 -101 -116 -118 -132 -133 -145 -148 -159 -160 -172 -173 0
-23 -44 -45 -63 -65 -82 -83 -100 -101 -116 -118 -132 -133 -145 -148 -159 -160 -172 -173 0
-23 -44 -45 -64 -65 -82 -84 -100 -101 -116 -118 -132 -133 -145 -148 -159 -160 -172 -173 0
-23 -44 -45 -64 -65 -83 -84 -100 -102 -116 -118 -132 -133 -145 -148 -159 -160 -172 -173 0
-23 -44 -45 -64 -65 -83 -84 -101 -102 -116 -119 -132 -133 -145 -148 -159 -160 -172 -173 0
-22 -43 -44 -63 -64 -82 -83 -100 -101 -117 -118 -132 -134 -145 -148 -159 -160 -172 -173 0
-23 -43 -45 -63 -64 -82 -83 -100 -101 -117 -118 -132 -134 -145 -148 -159 -160 -172 -173 0
-23 -44 -45 -63 -65 -82 -83 -100 -101 -117 -118 -132 -134 -145 -148 -159 -160 -172 -173 0
-23 -44 -45 -64 -65 -82 -84 -100 -101 -117 -118 -132 -134 -145 -148 -159 -160 -172 -173 0
-23 -44 -45 -64 -65 -83 -84 -100 -102 -117 -118 -132 -134 -145 -148 -159 -160 -172 -173 0
-23 -44 -45 -64 -65 -83 -84 -101 -102 -117 -119 -132 -134 -145 -148 -159 -160 -172 -173 0
-23 -44 -45 -64 -65 -83 -84 -101 -102 -118 -119 -132 -135 -145 -148 -159 -160 -172 -173 0
-22 -43 -44 -63 -64 -82 -83 -100 -101 -117 -118 -133 -134 -145 -149 -159 -160 -172 -173 0
-23 -43 -45 -63 -64 -82 -83 -100 -101 -117 -118 -133 -134 -145 -149 -159 -160 -172 -173 0
-23 -44 -45 -63 -65 -82 -83 -100 -101 -117 -118 -133 -134 -145 -149 -159 -160 -172 -173 0
-23 -44 -45 -64 -65 -82 -84 -100 -101 -117 -118 -133 -134 -145 -149 -159 -160 -172 -173 0
-23 -44 -45 -64 -65 -83 -84 -100 -102 -117 -118 -133 -134 -145 -149 -159 -160 -172 -173 0
-23 -44 -45 -64 -65 -83 -84 -101 -102 -117 -119 -133 -134 -145 -149 -159 -160 -172 -173 0
-23 -44 -45 -64 -65 -83 -84 -101 -102 -118 -119 -133 -135 -145 -149 -159 -160 -172 -173 0
-23 -44 -45 -64 -65 -83 -84 -101 -102 -118 -119 -134 -135 -145 -150 -159 -160 -172 -173 0
-20 -41 -42 -61 -62 -80 -81 -98 -99 -115 -116 -131 -132 -146 -147 -159 -161 -172 -173 0
-21 -41 -43 -61 -62 -80 -81 -98 -99 -115 -116 -131 -132 -146 -147 -159 -161 -172 -173 0
-22 -41 -44 -61 -62 -80 -81 -98 -99 -115 -116 -131 -132 -146 -147 -159 -161 -172 -173 0
-23 -41 -45 -61 -62 -80 -81 -98 -99 -115 -116 -131 -132 -146 -147 -159 -161 -172 -173 0
-21 -42 -43 -61 -63 -80 -81 -98 -99 -115 -116 -131 -132 -146 -147 -159 -161 -172 -173 0
-22 -42 -44 -61 -63 -80 -81 -98 -99 -115 -116 -131 -132 -146 -147 -159 -161 -172 -173 0
-23 -42 -45 -61 -63 -80 -81 -98 -99 -115 -116 -131 -132 -146 -147 -159 -161 -172 -173 0
-22 -43 -44 -61 -64 -80 -81 -98 -99 -115 -116 -131 -132 -146 -147 -159 -161 -172 -173 0
-23 -43 -45 -61 -64 -80 -81 -98 -99 -115 -116 -131 -132 -146 -147 -159 -161 -172 -173 0
-23 -44 -45 -61 -65 -80 -81 -98 -99 -115 -116 -131 -132 -146 -147 -159 -161 -172 -173 0
-21 -42 -43 -62 -63 -80 -82 -98 -99 -115 -116 -131 -132 -146 -147 -159 -161 -172 -173 0
-22 -42 -44 -62 -63 -80 -82 -98 -99 -115 -116 -131 -132 -146 -147 -159 -161 -172 -173 0
-23 -42 -45 -62 -63 -80 -82 -98 -99 -115 -116 -131 -132 -146 -147 -159 -161 -172 -173 0
-22 -43 -44 -62 -64 -80 -82 -98 -99 -115 -116 -131 -132 -146 -147 -159 -161 -172 -173 0
-23 -43 -45 -62 -64 -80 -82 -98 -99 -115 -116 -131 -132 -146 -147 -159 -161 -172 -173 0
-23 -44 -45 -62 -65 -80 -82 -98 -99 -115 -116 -131 -132 -146 -147 -159 -161 -172 -173 0
-22 -43 -44 -63 -64 -80 -83 -98 -99 -115 -116 -131 -132 -146 -147 -159 -161 -172 -173 0
-23 -43 -45 -63 -64 -80 -83 -98 -99 -115 -116 -131 -132 -146 -147 -159 -161 -172 -173 0
-23 -44 -45 -63 -65 -80 -83 -98 -99 -115 -116 -131 -132 -146 -147 -159 -161 -172 -173 0
-23 -44 -45 -64 -65 -80 -84 -98 -99 -115 -116 -131 -132 -146 -147 -159 -161 -172 -173 0
-21 -42 -43 -62 -63 -81 -82 -98 -100 -115 -116 -131 -132 -146 -147 -159 -161 -172 -173 0
-22 -42 -44 -62 -63 -81 -82 -98 -100 -115 -116 -131 -132 -146 -147 -159 -161 -172 -173 0
-23 -42 -45 -62 -63 -81 -82 -98 -100 -115 -116 -131 -132 -146 -147 -159 -161 -172 -173 0
-22 -43 -44 -62 -64 -81 -82 -98 -100 -115 -116 -131 -132 -146 -147 -159 -161 -172 -173 0
-23 -43 -45 -62 -64 -81 -82 -98 -100 -115 -116 -131 -132 -146 -147 -159 -161 -172 -173 0
-23 -44 -45 -62 -65 -81 -82 -98 -100 -115 -116 -131 -132 -146 -147 -159 -161 -172 -173 0
-22 -43 -44 -63 -64 -81 -83 -98 -100 -115 -116 -131 -132 -146 -147 -159 -161 -172 -173 0
-23 -43 -45 -63 -64 -81 -83 -98 -100 -115 -116 -131 -132 -146 -147 -159 -161 -172 -173 0
-23 -44 -45 -63 -65 -81 -83 -98 -100 -115 -116 -131 -132 -146 -147 -159 -161 -172 -173 0
-23 -44 -45 -64 -65 -81 -84 -98 -100 -115 -116 -131 -132 -146 -147 -159 -161 -172 -173 0
-22 -43 -44 -63 -64 -82 -83 -98 -101 -115 -116 -131 -132 -146 -147 -159 -161 -172 -173 0
-23 -43 -45 -63 -64 -82 -83 -98 -101 -115 -116 -131 -132 -146 -147 -159 -161 -172 -173 0
-23 -44 -45 -63 -65 -82 -83 -98 -101 -115 -116 -131 -132 -146 -147 -159 -161 -172 -173 0
-23 -44 -45 -64 -65 -82 -84 -98 -101 -115 -116 -131 -132 -146 -147 -159 -161 -172 -173 0
-23 -44 -45 -64 -65 -83 -84 -98 -102 -115 -116 -131 -132 -146 -147 -159 -161 -172 -173 0
-21 -42 -43 -62 -63 -81 -82 -99 -100 -115 -117 -131 -132 -146 -147 -159 -161 -172 -173 0
-22 -42 -44 -62 -63 -81 -82 -99 -100 -115 -117 -131 -132 -146 -147 -159 -161 -172 -173 0
-23 -42 -45 -62 -63 -81 -82 -99 -100 -115 -117 -131 -132 -146 -147 -159 -161 -172 -173 0
-22 -43 -44 -62 -64 -81 -82 -99 -100 -115 -117 -131 -132 -146 -147 -159 -161 -172 -173 0
-23 -43 -45 -62 -64 -81 -82 -99 -100 -115 -117 -131 -132 -146 -147 -159 -161 -172 -173 0
-23 -44 -45 -62 -65 -81 -82 -99 -100 -115 -117 -131 -132 -146 -147 -159 -161 -172 -173 0
-22 -43 -44 -63 -64 -81 -83 -99 -100 -115 -117 -131 -132 -146 -147 -159 -161 -172 -173 0
-23 -43 -45 -63 -64 -81 -83 -99 -100 -115 -117 -131 -132 -146 -147 -159 -161 -172 -173 0
-23 -44 -45 -63 -65 -81 -83 -99 -100 -115 -117 -131 -132 -146 -147 -159 -161 -172 -173 0
-23 -44 -45 -64 -65 -81 -84 -99 -100 -115 -117 -131 -132 -146 -147 -159 -161 -172 -173 0
-22 -43 -44 -63 -64 -82 -83 -99 -101 -115 -117 -131 -132 -146 -147 -159 -161 -172 -173 0
-23 -43 -45 -63 -64 -82 -83 -99 -101 -115 -117 -131 -132 -146 -147 -159 -161 -172 -173 0
-23 -44 -45 -63 -65 -82 -83 -99 -101 -115 -117 -131 -132 -146 -147 -159 -161 -172 -173 0
-23 -44 -45 -64 -65 -82 -84 -99 -101 -115 -117 -131 -132 -146 -147 -159 -161 -172 -173 0
-23 -44 -45 -64 -65 -83 -84 -99 -102 -115 -117 -131 -132 -146 -147 -159 -161 -172 -173 0
-22 -43 -44 -63 -64 -82 -83 -100 -101 -115 -118 -131 -132 -146 -147 -159 -161 -172 -173 0
-23 -43 -45 -63 -64 -82 -83 -100 -101 -115 -118 -131 -132 -146 -147 -159 -161 -172 -173 0
-23 -44 -45 -63 -65 -82 -83 -100 -101 -115 -118 -131 -132 -146 -147 -159 -161 -172 -173 0
-23 -44 -45 -64 -65 -82 -84 -100 -101 -115 -118 -131 -132 -146 -147 -159 -161 -172 -173 0
-23 -44 -45 -64 -65 -83 -84 -100 -102 -115 -118 -131 -132 -146 -147 -159 -161 -172 -173 0
-23 -44 -45 -64 -65 -83 -84 -101 -102 -115 -119 -131 -132 -146 -147 -159 -161 -172 -173 0
-21 -42 -43 -62 -63 -81 -82 -99 -100 -116 -117 -131 -133 -146 -147 -159 -161 -172 -173 0
-22 -42 -44 -62 -63 -81 -82 -99 -100 -116 -117 -131 -133 -146 -147 -159 -161 -172 -173 0
-23 -42 -45 -62 -63 -81 -82 -99 -100 -116 -117 -131 -133 -146 -147 -159 -161 -172 -173 0
-22 -43 -44 -62 -64 -81 -82 -99 -100 -116 -117 -131 -133 -146 -147 -159 -161 -172 -173 0
-23 -43 -45 -62 -64 -81 -82 -99 -100 -116 -117 -131 -133 -146 -147 -159 -161 -172 -173 0
-23 -44 -45 -62 -65 -81 -82 -99 -100 -116 -117 -131 -133 -146 -147 -159 -161 -172 -173 0
-22 -43 -44 -63 -64 -81 -83 -99 -100 -116 -117 -131 -133 -146 -147 -159 -161 -172 -173 0
-23 -43 -45 -63 -64 -81 -83 -99 -100 -116 -117 -131 -133 -146 -147 -159 -161 -172 -173 0
-23 -44 -45 -63 -65 -81 -83 -99 -100 -116 -117 -131 -133 -146 -147 -159 -161 -172 -173 0
-23 -44 -45 -64 -65 -81 -84 -99 -100 -116 -117 -131 -133 -146 -147 -159 -161 -172 -173 0
-22 -43 -44 -63 -64 -82 -83 -99 -101 -116 -117 -131 -133 -146 -147 -159 -161 -172 -173 0
-23 -43 -45 -63 -64 -82 -83 -99 -101 -116 -117 -131 -133 -146 -147 -159 -161 -172 -173 0
-23 -44 -45 -63 -65 -82 -83 -99 -101 -116 -117 -131 -133 -146 -147 -159 -161 -172 -173 0
-23 -44 -45 -64 -65 -82 -84 -99 -101 -116 -117 -131 -133 -146 -147 -159 -161 -172 -173 0
-23 -44 -45 -64 -65 -83 -84 -99 -102 -116 -117 -131 -133 -146 -147 -159 -161 -172 -173 0
-22 -43 -44 -63 -64 -82 -83 -100 -101 -116 -118 -131 -133 -146 -147 -159 -161 -172 -173 0
-23 -43 -45 -63 -64 -82 -83 -100 -101 -116 -118 -131 -133 -146 -147 -159 -161 -172 -173 0
-23 -44 -45 -63 -65 -82 -83 -100 -101 -116 -118 -131 -133 -146 -147 -159 -161 -172 -173 0
-23 -44 -45 -64 -65 -82 -84 -100 -101 -116 -118 -131 -133 -146 -147 -159 -161 -172 -173 0
-23 -44 -45 -64 -65 -83 -84 -100 -102 -116 -118 -131 -133 -146 -147 -159 -161 -172 -173 0
-23 -44 -45 -64 -65 -83 -84 -101 -102 -116 -119 -131 -133 -146 -147 -159 -161 -172 -173 0
-22 -43 -44 -63 -64 -82 -83 -100 -101 -117 -118 -131 -134 -146 -147 -159 -161 -172 -173 0
-23 -43 -45 -63 -64 -82 -83 -100 -101 -117 -118 -131 -134 -146 -147 -159 -161 -172 -173 0
-23 -44 -45 -63 -65 -82 -83 -100 -101 -117 -118 -131 -134 -146 -147 -159 -161 -172 -173 0
-23 -44 -45 -64 -65 -82 -84 -100 -101 -117 -118 -131 -134 -146 -147 -159 -161 -172 -173 0
-23 -44 -45 -64 -65 -83 -84 -100 -102 -117 -118 -131 -134 -146 -147 -159 -161 -172 -173 0
-23 -44 -45 -64 -65 -83 -84 -101 -102 -117 -119 -131 -134 -146 -147 -159 -161 -172 -173 0
-23 -44 -45 -64 -65 -83 -84 -101 -102 -118 -119 -131 -135 -146 -147 -159 -161 -172 -173 0
-21 -42 -43 -62 -63 -81 -82 -99 -100 -116 -117 -132 -133 -146 -148 -159 -161 -172 -173 0
-22 -42 -44 -62 -63 -81 -82 -99 -100 -116 -117 -132 -133 -146 -148 -159 -161 -172 -173 0
-23 -42 -45 -62 -63 -81 -82 -99 -100 -116 -117 -132 -133 -146 -148 -159 -161 -172 -173 0
-22 -43 -44 -62 -64 -81 -82 -99 -100 -116 -117 -132 -133 -146 -148 -159 -161 -172 -173 0
-23 -43 -45 -62 -64 -81 -82 -99 -100 -116 -117 -132 -133 -146 -148 -159 -161 -172 -173 0
-23 -44 -45 -62 -65 -81 -82 -99 -100 -116 -117 -132 -133 -146 -148 -159 -161 -172 -173 0
-22 -43 -44 -63 -64 -81 -83 -99 -100 -116 -117 -132 -133 -146 -148 -159 -161 -172 -173 0
-23 -43 -45 -63 -64 -81 -83 -99 -100 -116 -117 -132 -133 -146 -148 -159 -161 -172 -173 0
-23 -44 -45 -63 -65 -81 -83 -99 -100 -116 -117 -132 -133 -146 -148 -159 -161 -172 -173 0
-23 -44 -45 -64 -65 -81 -84 -99 -100 -116 -117 -132 -133 -146 -148 -159 -161 -172 -173 0
-22 -43 -44 -63 -64 -82 -83 -99 -101 -116 -117 -132 -133 -146 -148 -159 -161 -172 -173 0
-23 -43 -45 -63 -64 -82 -83 -99 -101 -116 -117 -132 -133 -146 -148 -159 -161 -172 -173 0
-23 -44 -45 -63 -65 -82 -83 -99 -101 -116 -117 -132 -133 -146 -148 -159 -161 -172 -173 0
-23 -44 -45 -64 -65 -82 -84 -99 -101 -116 -117 -132 -133 -146 -148 -159 -161 -172 -173 0
-23 -44 -45 -64 -65 -83 -84 -99 -102 -116 -117 -132 -133 -146 -148 -159 -161 -172 -173 0
-22 -43 -44 -63 -64 -82 -83 -100 -101 -116 -118 -132 -133 -146 -148 -159 -161 -172 -173 0
-23 -43 -45 -63 -64 -82 -83 -100 -101 -116 -118 -132 -133 -146 -148 -159 -161 -172 -173 0
-23 -44 -45 -63 -65 -82 -83 -100 -101 -116 -118 -132 -133 -146 -148 -159 -161 -172 -173 0
-23 -44 -45 -64 -65 -82 -84 -100 -101 -116 -118 -132 -133 -146 -148 -159 -161 -172 -173 0
-23 -44 -45 -64 -65 -83 -84 -100 -102 -116 -118 -132 -133 -146 -148 -159 -161 -172 -173 0
-23 -44 -45 -64 -65 -83 -84 -101 -102 -116 -119 -132 -133 -146 -148 -159 -161 -172 -173 0
-22 -43 -44 -63 -64 -82 -83 -100 -101 -117 -118 -132 -134 -146 -148 -159 -161 -172 -173 0
-23 -43 -45 -63 -64 -82 -83 -100 -101 -117 -118 -132 -134 -146 -148 -159 -161 -172 -173 0
-23 -44 -45 -63 -65 -82 -83 -100 -101 -117 -118 -132 -134 -146 -148 -159 -161 -172 -173 0
-23 -44 -45 -64 -65 -82 -84 -100 -101 -117 -118 -132 -134 -146 -148 -159 -161 -172 -173 0
-23 -44 -45 -64 -65 -83 -84 -100 -102 -117 -118 -132 -134 -146 -148 -159 -161 -172 -173 0
-23 -44 -45 -64 -65 -83 -84 -101 -102 -117 -119 -132 -134 -146 -148 -159 -161 -172 -173 0
-23 -44 -45 -64 -65 -83 -84 -101 -102 -118 -119 -132 -135 -146 -148 -159 -161 -172 -173 0
-22 -43 -44 -63 -64 -82 -83 -100 -101 -117 -118 -133 -134 -146 -149 -159 -161 -172 -173 0
-23 -43 -45 -63 -64 -82 -83 -100 -101 -117 -118 -133 -134 -146 -149 -159 -161 -172 -173 0
-23 -44 -45 -63 -65 -82 -83 -100 -101 -117 -118 -133 -134 -146 -149 -159 -161 -172 -173 0
-23 -44 -45 -64 -65 -82 -84 -100 -101 -117 -118 -133 -134 -146 -149 -159 -161 -172 -173 0
-23 -44 -45 -64 -65 -83 -84 -100 -102 -117 -118 -133 -134 -146 -149 -159 -161 -172 -173 0
-23 -44 -45 -64 -65 -83 -84 -101 -102 -117 -119 -133 -134 -146 -149 -159 -161 -172 -173 0
-23 -44 -45 -64 -65 -83 -84 -101 -102 -118 -119 -133 -135 -146 -149 -159 -161 -172 -173 0
-23 -44 -45 -64 -65 -83 -84 -101 -102 -118 -119 -134 -135 -146 -150 -159 -161 -172 -173 0
-21 -42 -43 -62 -63 -81 -82 -99 -100 -116 -117 -132 -133 -147 -148 -159 -162 -172 -173 0
-22 -42 -44 -62 -63 -81 -82 -99 -100 -116 -117 -132 -133 -147 -148 -159 -162 -172 -173 0
-23 -42 -45 -62 -63 -81 -82 -99 -100 -116 -117 -132 -133 -147 -148 -159 -162 -172 -173 0
-22 -43 -44 -62 -64 -81 -82 -99 -100 -116 -117 -132 -133 -147 -148 -159 -162 -172 -173 0
-23 -43 -45 -62 -64 -81 -82 -99 -100 -116 -117 -132 -133 -147 -148 -159 -162 -172 -173 0
-23 -44 -45 -62 -65 -81 -82 -99 -100 -116 -117 -132 -133 -147 -148 -159 -162 -172 -173 0
-22 -43 -44 -63 -64 -81 -83 -99 -100 -116 -117 -132 -133 -147 -148 -159 -162 -172 -173 0
-23 -43 -45 -63 -64 -81 -83 -99 -100 -116 -117 -132 -133 -147 -148 -159 -162 -172 -173 0
-23 -44 -45 -63 -65 -81 -83 -99 -100 -116 -117 -132 -133 -147 -148 -159 -162 -172 -173 0
-23 -44 -45 -64 -65 -81 -84 -99 -100 -116 -117 -132 -133 -147 -148 -159 -162 -172 -173 0
-22 -43 -44 -63 -64 -82 -83 -99 -101 -116 -117 -132 -133 -147 -148 -159 -162 -172 -173 0
-23 -43 -45 -63 -64 -82 -83 -99 -101 -116 -117 -132 -133 -147 -148 -159 -162 -172 -173 0
-23 -44 -45 -63 -65 -82 -83 -99 -101 -116 -117 -132 -133 -147 -148 -159 -162 -172 -173 0
-23 -44 -45 -64 -65 -82 -84 -99 -101 -116 -117 -132 -133 -147 -148 -159 -162 -172 -173 0
-23 -44 -45 -64 -65 -83 -84 -99 -102 -116 -117 -132 -133 -147 -148 -159 -162 -172 -173 0
-22 -43 -44 -63 -64 -82 -83 -100 -101 -116 -118 -132 -133 -147 -148 -159 -162 -172 -173 0
-23 -43 -45 -63 -64 -82 -83 -100 -101 -116 -118 -132 -133 -147 -148 -159 -162 -172 -173 0
-23 -44 -45 -63 -65 -82 -83 -100 -101 -116 -118 -132 -133 -147 -148 -159 -162 -172 -173 0
-23 -44 -45 -64 -65 -82 -84 -100 -101 -116 -118 -132 -133 -147 -148 -159 -162 -172 -173 0
-23 -44 -45 -64 -65 -83 -84 -100 -102 -116 -118 -132 -133 -147 -148 -159 -162 -172 -173 0
-23 -44 -45 -64 -65 -83 -84 -101 -102 -116 -119 -132 -133 -147 -148 -159 -162 -172 -173 0
-22 -43 -44 -63 -64 -82 -83 -100 -101 -117 -118 -132 -134 -147 -148 -159 -162 -172 -173 0
-23 -43 -45 -63 -64 -82 -83 -100 -101 -117 -118 -132 -134 -147 -148 -159 -162 -172 -173 0
-23 -44 -45 -63 -65 -82 -83 -100 -101 -117 -118 -132 -134 -147 -148 -159 -162 -172 -173 0
-23 -44 -45 -64 -65 -82 -84 -100 -101 -117 -118 -132 -134 -147 -148 -159 -162 -172 -173 0
-23 -44 -45 -64 -65 -83 -84 -100 -102 -117 -118 -132 -134 -147 -148 -159 -162 -172 -173 0
-23 -44 -45 -64 -65 -83 -84 -101 -102 -117 -119 -132 -134 -147 -148 -159 -162 -172 -173 0
-23 -44 -45 -64 -65 -83 -84 -101 -102 -118 -119 -132 -135 -147 -148 -159 -162 -172 -173 0
-22 -43 -44 -63 -64 -82 -83 -100 -101 -117 -118 -133 -134 -147 -149 -159 -162 -172 -173 0
-23 -43 -45 -63 -64 -82 -83 -100 -101 -117 -118 -133 -134 -147 -149 -159 -162 -172 -173 0
-23 -44 -45 -63 -65 -82 -83 -100 -101 -117 -118 -133 -134 -147 -149 -159 -162 -172 -173 0
-23 -44 -45 -64 -65 -82 -84 -100 -101 -117 -118 -133 -134 -147 -149 -159 -162 -172 -173 0
-23 -44 -45 -64 -65 -83 -84 -100 -102 -117 -118 -133 -134 -147 -149 -159 -162 -172 -173 0
-23 -44 -45 -64 -65 -83 -84 -101 -102 -117 -119 -133 -134 -147 -149 -159 -162 -172 -173 0
-23 -44 -45 -64 -65 -83 -84 -101 -102 -118 -119 -133 -135 -147 -149 -159 -162 -172 -173 0
-23 -44 -45 -64 -65 -83 -84 -101 -102 -118 -119 -134 -135 -147 -150 -159 -162 -172 -173 0
-22 -43 -44 -63 -64 -82 -83 -100 -101 -117 -118 -133 -134 -148 -149 -159 -163 -172 -173 0
-23 -43 -45 -63 -64 -82 -83 -100 -101 -117 -118 -133 -134 -148 -149 -159 -163 -172 -173 0
-23 -44 -45 -63 -65 -82 -83 -100 -101 -117 -118 -133 -134 -148 -149 -159 -163 -172 -173 0
-23 -44 -45 -64 -65 -82 -84 -100 -101 -117 -118 -133 -134 -148 -149 -159 -163 -172 -173 0
-23 -44 -45 -64 -65 -83 -84 -100 -102 -117 -118 -133 -134 -148 -149 -159 -163 -172 -173 0
-23 -44 -45 -64 -65 -83 -84 -101 -102 -117 -119 -133 -134 -148 -149 -159 -163 -172 -173 0
-23 -44 -45 -64 -65 -83 -84 -101 -102 -118 -119 -133 -135 -148 -149 -159 -163 -172 -173 0
-23 -44 -45 -64 -65 -83 -84 -101 -102 -118 -119 -134 -135 -148 -150 -159 -163 -172 -173 0
-23 -44 -45 -64 -65 -83 -84 -101 -102 -118 -119 -134 -135 -149 -150 -159 -164 -172 -173 0
-20 -41 -42 -61 -62 -80 -81 -98 -99 -115 -116 -131 -132 -146 -147 -160 -161 -172 -174 0
-21 -41 -43 -61 -62 -80 -81 -98 -99 -115 -116 -131 -132 -146 -147 -160 -161 -172 -174 0
-22 -41 -44 -61 -62 -80 -81 -98 -99 -115 -116 -131 -132 -146 -147 -160 -161 -172 -174 0
-23 -41 -45 -61 -62 -80 -81 -98 -99 -115 -116 -131 -132 -146 -147 -160 -161 -172 -174 0
-21 -42 -43 -61 -63 -80 -81 -98 -99 -115 -116 -131 -132 -146 -147 -160 -161 -172 -174 0
-22 -42 -44 -61 -63 -80 -81 -98 -99 -115 -116 -131 -132 -146 -147 -160 -161 -172 -174 0
-23 -42 -45 -61 -63 -80 -81 -98 -99 -115 -116 -131 -132 -146 -147 -160 -161 -172 -174 0
-22 -43 -44 -61 -64 -80 -81 -98 -99 -115 -116 -131 -132 -146 -147 -160 -161 -172 -174 0
-23 -43 -45 -61 -64 -80 -81 -98 -99 -115 -116 -131 -132 -146 -147 -160 -161 -172 -174 0
-23 -44 -45 -61 -65 -80 -81 -98 -99 -115 -116 -131 -132 -146 -147 -160 -161 -172 -174 0
-21 -42 -43 -62 -63 -80 -82 -98 -99 -115 -116 -131 -132 -146 -147 -160 -161 -172 -174 0
-22 -42 -44 -62 -63 -80 -82 -98 -99 -115 -116 -131 -132 -146 -147 -160 -161 -172 -174 0
-23 -42 -45 -62 -63 -80 -82 -98 -99 -115 -116 -131 -132 -146 -147 -160 -161 -172 -174 0
-22 -43 -44 -62 -64 -80 -82 -98 -99 -115 -116 -131 -132 -146 -147 -160 -161 -172 -174 0
-23 -43 -45 -62 -64 -80 -82 -98 -99 -115 -116 -131 -132 -146 -147 -160 -161 -172 -174 0
-23 -44 -45 -62 -65 -80 -82 -98 -99 -115 -116 -131 -132 -146 -147 -160 -161 -172 -174 0
-22 -43 -44 -63 -64 -80 -83 -98 -99 -115 -116 -131 -132 -146 -147 -160 -161 -172 -174 0
-23 -43 -45 -63 -64 -80 -83 -98 -99 -115 -116 -131 -132 -146 -147 -160 -161 -172 -174 0
-23 -44 -45 -63 -65 -80 -83 -98 -99 -115 -116 -131 -132 -146 -147 -160 -161 -172 -174 0
-23 -44 -45 -64 -65 -80 -84 -98 -99 -115 -116 -131 -132 -146 -147 -160 -161 -172 -174 0
-21 -42 -43 -62 -63 -81 -82 -98 -100 -115 -116 -131 -132 -146 -147 -160 -161 -172 -174 0
-22 -42 -44 -62 -63 -81 -82 -98 -100 -115 -116 -131 -132 -146 -147 -160 -161 -172 -174 0
-23 -42 -45 -62 -63 -81 -82 -98 -100 -115 -116 -131 -132 -146 -147 -160 -161 -172 -174 0
-22 -43 -44 -62 -64 -81 -82 -98 -100 -115 -116 -131 -132 -146 -147 -160 -161 -172 -174 0
-23 -43 -45 -62 -64 -81 -82 -98 -100 -115 -116 -131 -132 -146 -147 -160 -161 -172 -174 0
-23 -44 -45 -62 -65 -81 -82 -98 -100 -115 -116 -131 -132 -146 -147 -160 -161 -172 -174 0
-22 -43 -44 -63 -64 -81 -83 -98 -100 -115 -116 -131 -132 -146 -147 -160 -161 -172 -174 0
-23 -43 -45 -63 -64 -81 -83 -98 -100 -115 -116 -131 -132 -146 -147 -160 -161 -172 -174 0
-23 -44 -45 -63 -65 -81 -83 -98 -100 -115 -116 -131 -132 -146 -147 -160 -161 -172 -174 0
-23 -44 -45 -64 -65 -81 -84 -98 -100 -115 -116 -131 -132 -146 -147 -160 -161 -172 -174 0
-22 -43 -44 -63 -64 -82 -83 -98 -101 -115 -116 -131 -132 -146 -147 -160 -161 -172 -174 0
-23 -43 -45 -63 -64 -82 -83 -98 -101 -115 -116 -131 -132 -146 -147 -160 -161 -172 -174 0
-23 -44 -45 -63 -65 -82 -83 -98 -101 -115 -116 -131 -132 -146 -147 -160 -161 -172 -174 0
-23 -44 -45 -64 -65 -82 -84 -98 -101 -115 -116 -131 -132 -146 -147 -160 -161 -172 -174 0
-23 -44 -45 -64 -65 -83 -84 -98 -102 -115 -116 -131 -132 -146 -147 -160 -161 -172 -174 0
-21 -42 -43 -62 -63 -81 -82 -99 -100 -115 -117 -131 -132 -146 -147 -160 -161 -172 -174 0
-22 -42 -44 -62 -63 -81 -82 -99 -100 -115 -117 -131 -132 -146 -147 -160 -161 -172 -174 0
-23 -42 -45 -62 -63 -81 -82 -99 -100 -115 -117 -131 -132 -146 -147 -160 -161 -172 -174 0
-22 -43 -44 -62 -64 -81 -82 -99 -100 -115 -117 -131 -132 -146 -147 -160 -161 -172 -174 0
-23 -43 -45 -62 -64 -81 -82 -99 -100 -115 -117 -131 -132 -146 -147 -160 -161 -172 -174 0
-23 -44 -45 -62 -65 -81 -82 -99 -100 -115 -117 -131 -132 -146 -147 -160 -161 -172 -174 0
-22 -43 -44 -63 -64 -81 -83 -99 -100 -115 -117 -131 -132 -146 -147 -160 -161 -172 -174 0
-23 -43 -45 -63 -64 -81 -83 -99 -100 -115 -117 -131 -132 -146 -147 -160 -161 -172 -174 0
-23 -44 -45 -63 -65 -81 -83 -99 -100 -115 -117 -131 -132 -146 -147 -160 -161 -172 -174 0
-23 -44 -45 -64 -65 -81 -84 -99 -100 -115 -117 -131 -132 -146 -147 -160 -161 -172 -174 0
-22 -43 -44 -63 -64 -82 -83 -99 -101 -115 -117 -131 -132 -146 -147 -160 -161 -172 -174 0
-23 -43 -45 -63 -64 -82 -83 -99 -101 -115 -117 -131 -132 -146 -147 -160 -161 -172 -174 0
-23 -44 -45 -63 -65 -82 -83 -99 -101 -115 -117 -131 -132 -146 -147 -160 -161 -172 -174 0
-23 -44 -45 -64 -65 -82 -84 -99 -101 -115 -117 -131 -132 -146 -147 -160 -161 -172 -174 0
-23 -44 -45 -64 -65 -83 -84 -99 -102 -115 -117 -131 -132 -146 -147 -160 -161 -172 -174 0
-22 -43 -44 -63 -64 -82 -83 -100 -101 -115 -118 -131 -132 -146 -147 -160 -161 -172 -174 0
-23 -43 -45 -63 -64 -82 -83 -100 -101 -115 -118 -131 -132 -146 -147 -160 -161 -172 -174 0
-23 -44 -45 -63 -65 -82 -83 -100 -101 -115 -118 -131 -132 -146 -147 -160 -161 -172 -174 0
-23 -44 -45 -64 -65 -82 -84 -100 -101 -115 -118 -131 -132 -146 -147 -160 -161 -172 -174 0
-23 -44 -45 -64 -65 -83 -84 -100 -102 -115 -118 -131 -132 -146 -147 -160 -161 -172 -174 0
-23 -44 -45 -64 -65 -83 -84 -101 -102 -115 -119 -131 -132 -146 -147 -160 -161 -172 -174 0
-21 -42 -43 -62 -63 -81 -82 -99 -100 -116 -117 -131 -133 -146 -147 -160 -161 -172 -174 0
-22 -42 -44 -62 -63 -81 -82 -99 -100 -116 -117 -131 -133 -146 -147 -160 -161 -172 -174 0
-23 -42 -45 -62 -63 -81 -82 -99 -100 -116 -117 -131 -133 -146 -147 -160 -161 -172 -174 0
-22 -43 -44 -62 -64 -81 -82 -99 -100 -116 -117 -131 -133 -146 -147 -160 -161 -172 -174 0
-23 -43 -45 -62 -64 -81 -82 -99 -100 -116 -117 -131 -133 -146 -147 -160 -161 -172 -174 0
-23 -44 -45 -62 -65 -81 -82 -99 -100 -116 -117 -131 -133 -146 -147 -160 -161 -172 -174 0
-22 -43 -44 -63 -64 -81 -83 -99 -100 -116 -117 -131 -133 -146 -147 -160 -161 -172 -174 0
-23 -43 -45 -63 -64 -81 -83 -99 -100 -116 -117 -131 -133 -146 -147 -160 -161 -172 -174 0
-23 -44 -45 -63 -65 -81 -83 -99 -100 -116 -117 -131 -133 -146 -147 -160 -161 -172 -174 0
-23 -44 -45 -64 -65 -81 -84 -99 -100 -116 -117 -131 -133 -146 -147 -160 -161 -172 -174 0
-22 -43 -44 -63 -64 -82 -83 -99 -101 -116 -117 -131 -133 -146 -147 -160 -161 -172 -174 0
-23 -43 -45 -63 -64 -82 -83 -99 -101 -116 -117 -131 -133 -146 -147 -160 -161 -172 -174 0
-23 -44 -45 -63 -65 -82 -83 -99 -101 -116 -117 -131 -133 -146 -147 -160 -161 -172 -174 0
-23 -44 -45 -64 -65 -82 -84 -99 -101 -116 -117 -131 -133 -146 -147 -160 -161 -172 -174 0
-23 -44 -45 -64 -65 -83 -84 -99 -102 -116 -117 -131 -133 -146 -147 -160 -161 -172 -174 0
-22 -43 -44 -63 -64 -82 -83 -100 -101 -116 -118 -131 -133 -146 -147 -160 -161 -172 -174 0
-23 -43 -45 -63 -64 -82 -83 -100 -101 -116 -118 -131 -133 -146 -147 -160 -161 -172 -174 0
-23 -44 -45 -63 -65 -82 -83 -100 -101 -116 -118 -131 -133 -146 -147 -160 -161 -172 -174 0
-23 -44 -45 -64 -65 -82 -84 -100 -101 -116 -118 -131 -133 -146 -147 -160 -161 -172 -174 0
-23 -44 -45 -64 -65 -83 -84 -100 -102 -116 -118 -131 -133 -146 -147 -160 -161 -172 -174 0
-23 -44 -45 -64 -65 -83 -84 -101 -102 -116 -119 -131 -133 -146 -147 -160 -161 -172 -174 0
-22 -43 -44 -63 -64 -82 -83 -100 -101 -117 -118 -131 -134 -146 -147 -160 -161 -172 -174 0
-23 -43 -45 -63 -64 -82 -83 -100 -101 -117 -118 -131 -134 -146 -147 -160 -161 -172 -174 0
-23 -44 -45 -63 -65 -82 -83 -100 -101 -117 -118 -131 -134 -146 -147 -160 -161 -172 -174 0
-23 -44 -45 -64 -65 -82 -84 -100 -101 -117 -118 -131 -134 -146 -147 -160 -161 -172 -174 0
-23 -44 -45 -64 -65 -83 -84 -100 -102 -117 -118 -131 -134 -146 -147 -160 -161 -172 -174 0
-23 -44 -45 -64 -65 -83 -84 -101 -102 -117 -119 -131 -134 -146 -147 -160 -161 -172 -174 0
-23 -44 -45 -64 -65 -83 -84 -101 -102 -118 -119 -131 -135 -146 -147 -160 -161 -172 -174 0
-21 -42 -43 -62 -63 -81 -82 -99 -100 -116 -117 -132 -133 -146 -148 -160 -161 -172 -174 0
-22 -42 -44 -62 -63 -81 -82 -99 -100 -116 -117 -132 -133 -146 -148 -160 -161 -172 -174 0
-23 -42 -45 -62 -63 -81 -82 -99 -100 -116 -117 -132 -133 -146 -148 -160 -161 -172 -174 0
-22 -43 -44 -62 -64 -81 -82 -99 -100 -116 -117 -132 -133 -146 -148 -160 -161 -172 -174 0
-23 -43 -45 -62 -64 -81 -82 -99 -100 -116 -117 -132 -133 -146 -148 -160 -161 -172 -174 0
-23 -44 -45 -62 -65 -81 -82 -99 -100 -116 -117 -132 -133 -146 -148 -160 -161 -172 -174 0
-22 -43 -44 -63 -64 -81 -83 -99 -100 -116 -117 -132 -133 -146 -148 -160 -161 -172 -174 0
-23 -43 -45 -63 -64 -81 -83 -99 -100 -116 -117 -132 -133 -146 -148 -160 -161 -172 -174 0
-23 -44 -45 -63 -65 -81 -83 -99 -100 -116 -117 -132 -133 -146 -148 -160 -161 -172 -174 0
-23 -44 -45 -64 -65 -81 -84 -99 -100 -116 -117 -132 -133 -146 -148 -160 -161 -172 -174 0
-22 -43 -44 -63 -64 -82 -83 -99 -101 -116 -117 -132 -133 -146 -148 -160 -161 -172 -174 0
-23 -43 -45 -63 -64 -82 -83 -99 -101 -116 -117 -132 -133 -146 -148 -160 -161 -172 -174 0
-23 -44 -45 -63 -65 -82 -83 -99 -101 -116 -117 -132 -133 -146 -148 -160 -161 -172 -174 0
-23 -44 -45 -64 -65 -82 -84 -99 -101 -116 -117 -132 -133 -146 -148 -160 -161 -172 -174 0
-23 -44 -45 -64 -65 -83 -84 -99 -102 -116 -117 -132 -133 -146 -148 -160 -161 -172 -174 0
-22 -43 -44 -63 -64 -82 -83 -100 -101 -116 -118 -132 -133 -146 -148 -160 -161 -172 -174 0
-23 -43 -45 -63 -64 -82 -83 -100 -101 -116 -118 -132 -133 -146 -148 -160 -161 -172 -174 0
-23 -44 -45 -63 -65 -82 -83 -100 -101 -116 -118 -132 -133 -146 -148 -160 -161 -172 -174 0
-23 -44 -45 -64 -65 -82 -84 -100 -101 -116 -118 -132 -133 -146 -148 -160 -161 -172 -174 0
-23 -44 -45 -64 -65 -83 -84 -100 -102 -116 -118 -132 -133 -146 -148 -160 -161 -172 -174 0
-23 -44 -45 -64 -65 -83 -84 -101 -102 -116 -119 -132 -133 -146 -148 -160 -161 -172 -174 0
-22 -43 -44 -63 -64 -82 -83 -100 -101 -117 -118 -132 -134 -146 -148 -160 -161 -172 -174 0
-23 -43 -45 -63 -64 -82 -83 -100 -101 -117 -118 -132 -134 -146 -148 -160 -161 -172 -174 0
-23 -44 -45 -63 -65 -82 -83 -100 -101 -117 -118 -132 -134 -146 -148 -160 -161 -172 -174 0
-23 -44 -45 -64 -65 -82 -84 -100 -101 -117 -118 -132 -134 -146 -148 -160 -161 -172 -174 0
-23 -44 -45 -64 -65 -83 -84 -100 -102 -117 -118 -132 -134 -146 -148 -160 -161 -172 -174 0
-23 -44 -45 -64 -65 -83 -84 -101 -102 -117 -119 -132 -134 -146 -148 -160 -161 -172 -174 0
-23 -44 -45 -64 -65 -83 -84 -101 -102 -118 -119 -132 -135 -146 -148 -160 -161 -172 -174 0
-22 -43 -44 -63 -64 -82 -83 -100 -101 -117 -118 -133 -134 -146 -149 -160 -161 -172 -174 0
-23 -43 -45 -63 -64 -82 -83 -100 -101 -117 -118 -133 -134 -146 -149 -160 -161 -172 -174 0
-23 -44 -45 -63 -65 -82 -83 -100 -101 -117 -118 -133 -134 -146 -149 -160 -161 -172 -174 0
-23 -44 -45 -64 -65 -82 -84 -100 -101 -117 -118 -133 -134 -146 -149 -160 -161 -172 -174 0
-23 -44 -45 -64 -65 -83 -84 -100 -102 -117 -118 -133 -134 -146 -149 -160 -161 -172 -174 0
-23 -44 -45 -64 -65 -83 -84 -101 -102 -117 -119 -133 -134 -146 -149 -160 -161 -172 -174 0
-23 -44 -45 -64 -65 -83 -84 -101 -102 -118 -119 -133 -135 -146 -149 -160 -161 -172 -174 0
-23 -44 -45 -64 -65 -83 -84 -101 -102 -118 -119 -134 -135 -146 -150 -160 -161 -172 -174 0
-21 -42 -43 -62 -63 -81 -82 -99 -100 -116 -117 -132 -133 -147 -148 -160 -162 -172 -174 0
-22 -42 -44 -62 -63 -81 -82 -99 -100 -116 -117 -132 -133 -147 -148 -160 -162 -172 -174 0
-23 -42 -45 -62 -63 -81 -82 -99 -100 -116 -117 -132 -133 -147 -148 -160 -162 -172 -174 0
-22 -43 -44 -62 -64 -81 -82 -99 -100 -116 -117 -132 -133 -147 -148 -160 -162 -172 -174 0
-23 -43 -45 -62 -64 -81 -82 -99 -100 -116 -117 -132 -133 -147 -148 -160 -162 -172 -174 0
-23 -44 -45 -62 -65 -81 -82 -99 -100 -116 -117 -132 -133 -147 -148 -160 -162 -172 -174 0
-22 -43 -44 -63 -64 -81 -83 -99 -100 -116 -117 -132 -133 -147 -148 -160 -162 -172 -174 0
-23 -43 -45 -63 -64 -81 -83 -99 -100 -116 -117 -132 -133 -147 -148 -160 -162 -172 -174 0
-23 -44 -45 -63 -65 -81 -83 -99 -100 -116 -117 -132 -133 -147 -148 -160 -162 -172 -174 0
-23 -44 -45 -64 -65 -81 -84 -99 -100 -116 -117 -132 -133 -147 -148 -160 -162 -172 -174 0
-22 -43 -44 -63 -64 -82 -83 -99 -101 -116 -117 -132 -133 -147 -148 -160 -162 -172 -174 0
-23 -43 -45 -63 -64 -82 -83 -99 -101 -116 -117 -132 -133 -147 -148 -160 -162 -172 -174 0
-23 -44 -45 -63 -65 -82 -83 -99 -101 -116 -117 -132 -133 -147 -148 -160 -162 -172 -174 0
-23 -44 -45 -64 -65 -82 -84 -99 -101 -116 -117 -132 -133 -147 -148 -160 -162 -172 -174 0
-23 -44 -45 -64 -65 -83 -84 -99 -102 -116 -117 -132 -133 -147 -148 -160 -162 -172 -174 0
-22 -43 -44 -63 -64 -82 -83 -100 -101 -116 -118 -132 -133 -147 -148 -160 -162 -172 -174 0
-23 -43 -45 -63 -64 -82 -83 -100 -101 -116 -118 -132 -133 -147 -148 -160 -162 -172 -174 0
-23 -44 -45 -63 -65 -82 -83 -100 -101 -116 -118 -132 -133 -147 -148 -160 -162 -172 -174 0
-23 -44 -45 -64 -65 -82 -84 -100 -101 -116 -118 -132 -133 -147 -148 -160 -162 -172 -174 0
-23 -44 -45 -64 -65 -83 -84 -100 -102 -116 -118 -132 -133 -147 -148 -160 -162 -172 -174 0
-23 -44 -45 -64 -65 -83 -84 -101 -102 -116 -119 -132 -133 -147 -148 -160 -162 -172 -174 0
-22 -43 -44 -63 -64 -82 -83 -100 -101 -117 -118 -132 -134 -147 -148 -160 -162 -172 -174 0
-23 -43 -45 -63 -64 -82 -83 -100 -101 -117 -118 -132 -134 -147 -148 -160 -162 -172 -174 0
-23 -44 -45 -63 -65 -82 -83 -100 -101 -117 -118 -132 -134 -147 -148 -160 -162 -172 -174 0
-23 -44 -45 -64 -65 -82 -84 -100 -101 -117 -118 -132 -134 -147 -148 -160 -162 -172 -174 0
-23 -44 -45 -64 -65 -83 -84 -100 -102 -117 -118 -132 -134 -147 -148 -160 -162 -172 -174 0
-23 -44 -45 -64 -65 -83 -84 -101 -102 -117 -119 -132 -134 -147 -148 -160 -162 -172 -174 0
-23 -44 -45 -64 -65 -83 -84 -101 -102 -118 -119 -132 -135 -147 -148 -160 -162 -172 -174 0
-22 -43 -44 -63 -64 -82 -83 -100 -101 -117 -118 -133 -134 -147 -149 -160 -162 -172 -174 0
-23 -43 -45 -63 -64 -82 -83 -100 -101 -117 -118 -133 -134 -147 -149 -160 -162 -172 -174 0
-23 -44 -45 -63 -65 -82 -83 -100 -101 -117 -118 -133 -134 -147 -149 -160 -162 -172 -174 0
-23 -44 -45 -64 -65 -82 -84 -100 -101 -117 -118 -133 -134 -147 -149 -160 -162 -172 -174 0
-23 -44 -45 -64 -65 -83 -84 -100 -102 -117 -118 -133 -134 -147 -149 -160 -162 -172 -174 0
-23 -44 -45 -64 -65 -83 -84 -101 -102 -117 -119 -133 -134 -147 -149 -160 -162 -172 -174 0
-23 -44 -45 -64 -65 -83 -84 -101 -102 -118 -119 -133 -135 -147 -149 -160 -162 -172 -174 0
-23 -44 -45 -64 -65 -83 -84 -101 -102 -118 -119 -134 -135 -147 -150 -160 -162 -172 -174 0
-22 -43 -44 -63 -64 -82 -83 -100 -101 -117 -118 -133 -134 -148 -149 -160 -163 -172 -174 0
-23 -43 -45 -63 -64 -82 -83 -100 -101 -117 -118 -133 -134 -148 -149 -160 -163 -172 -174 0
-23 -44 -45 -63 -65 -82 -83 -100 -101 -117 -118 -133 -134 -148 -149 -160 -163 -172 -174 0
-23 -44 -45 -64 -65 -82 -84 -100 -101 -117 -118 -133 -134 -148 -149 -160 -163 -172 -174 0
-23 -44 -45 -64 -65 -83 -84 -100 -102 -117 -118 -133 -134 -148 -149 -160 -163 -172 -174 0
-23 -44 -45 -64 -65 -83 -84 -101 -102 -117 -119 -133 -134 -148 -149 -160 -163 -172 -174 0
-23 -44 -45 -64 -65 -83 -84 -101 -102 -118 -119 -133 -135 -148 -149 -160 -163 -172 -174 0
-23 -44 -45 -64 -65 -83 -84 -101 -102 -118 -119 -134 -135 -148 -150 -160 -163 -172 -174 0
-23 -44 -45 -64 -65 -83 -84 -101 -102 -118 -119 -134 -135 -149 -150 -160 -164 -172 -174 0
-21 -42 -43 -62 -63 -81 -82 -99 -100 -116 -117 -132 -133 -147 -148 -161 -162 -172 -175 0
-22 -42 -44 -62 -63 -81 -82 -99 -100 -116 -117 -132 -133 -147 -148 -161 -162 -172 -175 0
-23 -42 -45 -62 -63 -81 -82 -99 -100 -116 -117 -132 -133 -147 -148 -161 -162 -172 -175 0
-22 -43 -44 -62 -64 -81 -82 -99 -100 -116 -117 -132 -133 -147 -148 -161 -162 -172 -175 0
-23 -43 -45 -62 -64 -81 -82 -99 -100 -116 -117 -132 -133 -147 -148 -161 -162 -172 -175 0
-23 -44 -45 -62 -65 -81 -82 -99 -100 -116 -117 -132 -133 -147 -148 -161 -162 -172 -175 0
-22 -43 -44 -63 -64 -81 -83 -99 -100 -116 -117 -132 -133 -147 -148 -161 -162 -172 -175 0
-23 -43 -45 -63 -64 -81 -83 -99 -100 -116 -117 -132 -133 -147 -148 -161 -162 -172 -175 0
-23 -44 -45 -63 -65 -81 -83 -99 -100 -116 -117 -132 -133 -147 -148 -161 -162 -172 -175 0
-23 -44 -45 -64 -65 -81 -84 -99 -100 -116 -117 -132 -133 -147 -148 -161 -162 -172 -175 0
-22 -43 -44 -63 -64 -82 -83 -99 -101 -116 -117 -132 -133 -147 -148 -161 -162 -172 -175 0
-23 -43 -45 -63 -64 -82 -83 -99 -101 -116 -117 -132 -133 -147 -148 -161 -162 -172 -175 0
-23 -44 -45 -63 -65 -82 -83 -99 -101 -116 -117 -132 -133 -147 -148 -161 -162 -172 -175 0
-23 -44 -45 -64 -65 -82 -84 -99 -101 -116 -117 -132 -133 -147 -148 -161 -162 -172 -175 0
-23 -44 -45 -64 -65 -83 -84 -99 -102 -116 -117 -132 -133 -147 -148 -161 -162 -172 -175 0
-22 -43 -44 -63 -64 -82 -83 -100 -101 -116 -118 -132 -133 -147 -148 -161 -162 -172 -175 0
-23 -43 -45 -63 -64 -82 -83 -100 -101 -116 -118 -132 -133 -147 -148 -161 -162 -172 -175 0
-23 -44 -45 -63 -65 -82 -83 -100 -101 -116 -118 -132 -133 -147 -148 -161 -162 -172 -175 0
-23 -44 -45 -64 -65 -82 -84 -100 -101 -116 -118 -132 -133 -147 -148 -161 -162 -172 -175 0
-23 -44 -45 -64 -65 -83 -84 -100 -102 -116 -118 -132 -133 -147 -148 -161 -162 -172 -175 0
-23 -44 -45 -64 -65 -83 -84 -101 -102 -116 -119 -132 -133 -147 -148 -161 -162 -172 -175 0
-22 -43 -44 -63 -64 -82 -83 -100 -101 -117 -118 -132 -134 -147 -148 -161 -162 -172 -175 0
-23 -43 -45 -63 -64 -82 -83 -100 -101 -117 -118 -132 -134 -147 -148 -161 -162 -172 -175 0
-23 -44 -45 -63 -65 -82 -83 -100 -101 -117 -118 -132 -134 -147 -148 -161 -162 -172 -175 0
-23 -44 -45 -64 -65 -82 -84 -100 -101 -117 -118 -132 -134 -147 -148 -161 -162 -172 -175 0
-23 -44 -45 -64 -65 -83 -84 -100 -102 -117 -118 -132 -134 -147 -148 -161 -162 -172 -175 0
-23 -44 -45 -64 -65 -83 -84 -101 -102 -117 -119 -132 -134 -147 -148 -161 -162 -172 -175 0
-23 -44 -45 -64 -65 -83 -84 -101 -102 -118 -119 -132 -135 -147 -148 -161 -162 -172 -175 0
-22 -43 -44 -63 -64 -82 -83 -100 -101 -117 -118 -133 -134 -147 -149 -161 -162 -172 -175 0
-23 -43 -45 -63 -64 -82 -83 -100 -101 -117 -118 -133 -134 -147 -149 -161 -162 -172 -175 0
-23 -44 -45 -63 -65 -82 -83 -100 -101 -117 -118 -133 -134 -147 -149 -161 -162 -172 -175 0
-23 -44 -45 -64 -65 -82 -84 -100 -101 -117 -118 -133 -134 -147 -149 -161 -162 -172 -175 0
-23 -44 -45 -64 -65 -83 -84 -100 -102 -117 -118 -133 -134 -147 -149 -161 -162 -172 -175 0
-23 -44 -45 -64 -65 -83 -84 -101 -102 -117 -119 -133 -134 -147 -149 -161 -162 -172 -175 0
-23 -44 -45 -64 -65 -83 -84 -101 -102 -118 -119 -133 -135 -147 -149 -161 -162 -172 -175 0
-23 -44 -45 -64 -65 -83 -84 -101 -102 -118 -119 -134 -135 -147 -150 -161 -162 -172 -175 0
-22 -43 -44 -63 -64 -82 -83 -100 -101 -117 -118 -133 -134 -148 -149 -161 -163 -172 -175 0
-23 -43 -45 -63 -64 -82 -83 -100 -101 -117 -118 -133 -134 -148 -149 -161 -163 -172 -175 0
-23 -44 -45 -63 -65 -82 -83 -100 -101 -117 -118 -133 -134 -148 -149 -161 -163 -172 -175 0
-23 -44 -45 -64 -65 -82 -84 -100 -101 -117 -118 -133 -134 -148 -149 -161 -163 -172 -175 0
-23 -44 -45 -64 -65 -83 -84 -100 -102 -117 -118 -133 -134 -148 -149 -161 -163 -172 -175 0
-23 -44 -45 -64 -65 -83 -84 -101 -102 -117 -119 -133 -134 -148 -149 -161 -163 -172 -175 0
-23 -44 -45 -64 -65 -83 -84 -101 -102 -118 -119 -133 -135 -148 -149 -161 -163 -172 -175 0
-23 -44 -45 -64 -65 -83 -84 -101 -102 -118 -119 -134 -135 -148 -150 -161 -163 -172 -175 0
-23 -44 -45 -64 -65 -83 -84 -101 -102 -118 -119 -134 -135 -149 -150 -161 -164 -172 -175 0
-22 -43 -44 -63 -64 -82 -83 -100 -101 -117 -118 -133 -134 -148 -149 -162 -163 -172 -176 0
-23 -43 -45 -63 -64 -82 -83 -100 -101 -117 -118 -133 -134 -148 -149 -162 -163 -172 -176 0
-23 -44 -45 -63 -65 -82 -83 -100 -101 -117 -118 -133 -134 -148 -149 -162 -163 -172 -176 0
-23 -44 -45 -64 -65 -82 -84 -100 -101 -117 -118 -133 -134 -148 -149 -162 -163 -172 -176 0
-23 -44 -45 -64 -65 -83 -84 -100 -102 -117 -118 -133 -134 -148 -149 -162 -163 -172 -176 0
-23 -44 -45 -64 -65 -83 -84 -101 -102 -117 -119 -133 -134 -148 -149 -162 -163 -172 -176 0
-23 -44 -45 -64 -65 -83 -84 -101 -102 -118 -119 -133 -135 -148 -149 -162 -163 -172 -176 0
-23 -44 -45 -64 -65 -83 -84 -101 -102 -118 -119 -134 -135 -148 -150 -162 -163 -172 -176 0
-23 -44 -45 -64 -65 -83 -84 -101 -102 -118 -119 -134 -135 -149 -150 -162 -164 -172 -176 0
-23 -44 -45 -64 -65 -83 -84 -101 -102 -118 -119 -134 -135 -149 -150 -163 -164 -172 -177 0
-20 -41 -42 -61 -62 -80 -81 -98 -99 -115 -116 -131 -132 -146 -147 -160 -161 -173 -174 0
-21 -41 -43 -61 -62 -80 -81 -98 -99 -115 -116 -131 -132 -146 -147 -160 -161 -173 -174 0
-22 -41 -44 -61 -62 -80 -81 -98 -99 -115 -116 -131 -132 -146 -147 -160 -161 -173 -174 0
-23 -41 -45 -61 -62 -80 -81 -98 -99 -115 -116 -131 -132 -146 -147 -160 -161 -173 -174 0
-21 -42 -43 -61 -63 -80 -81 -98 -99 -115 -116 -131 -132 -146 -147 -160 -161 -173 -174 0
-22 -42 -44 -61 -63 -80 -81 -98 -99 -115 -116 -131 -132 -146 -147 -160 -161 -173 -174 0
-23 -42 -45 -61 -63 -80 -81 -98 -99 -115 -116 -131 -132 -146 -147 -160 -161 -173 -174 0
-22 -43 -44 -61 -64 -80 -81 -98 -99 -115 -116 -131 -132 -146 -147 -160 -161 -173 -174 0
-23 -43 -45 -61 -64 -80 -81 -98 -99 -115 -116 -131 -132 -146 -147 -160 -161 -173 -174 0
-23 -44 -45 -61 -65 -80 -81 -98 -99 -115 -116 -131 -132 -146 -147 -160 -161 -173 -174 0
-21 -42 -43 -62 -63 -80 -82 -98 -99 -115 -116 -131 -132 -146 -147 -160 -161 -173 -174 0
-22 -42 -44 -62 -63 -80 -82 -98 -99 -115 -116 -131 -132 -146 -147 -160 -161 -173 -174 0
-23 -42 -45 -62 -63 -80 -82 -98 -99 -115 -116 -131 -132 -146 -147 -160 -161 -173 -174 0
-22 -43 -44 -62 -64 -80 -82 -98 -99 -115 -116 -131 -132 -146 -147 -160 -161 -173 -174 0
-23 -43 -45 -62 -64 -80 -82 -98 -99 -115 -116 -131 -132 -146 -147 -160 -161 -173 -174 0
-23 -44 -45 -62 -65 -80 -82 -98 -99 -115 -116 -131 -132 -146 -147 -160 -161 -173 -174 0
-22 -43 -44 -63 -64 -80 -83 -98 -99 -115 -116 -131 -132 -146 -147 -160 -161 -173 -174 0
-23 -43 -45 -63 -64 -80 -83 -98 -99 -115 -116 -131 -132 -146 -147 -160 -161 -173 -174 0
-23 -44 -45 -63 -65 -80 -83 -98 -99 -115 -116 -131 -132 -146 -147 -160 -161 -173 -174 0
-23 -44 -45 -64 -65 -80 -84 -98 -99 -115 -116 -131 -132 -146 -147 -160 -161 -173 -174 0
-21 -42 -43 -62 -63 -81 -82 -98 -100 -115 -116 -131 -132 -146 -147 -160 -161 -173 -174 0
-22 -42 -44 -62 -63 -81 -82 -98 -100 -115 -116 -131 -132 -146 -147 -160 -161 -173 -174 0
-23 -42 -45 -62 -63 -81 -82 -98 -100 -115 -116 -131 -132 -146 -147 -160 -161 -173 -174 0
-22 -43 -44 -62 -64 -81 -82 -98 -100 -115 -116 -131 -132 -146 -147 -160 -161 -173 -174 0
-23 -43 -45 -62 -64 -81 -82 -98 -100 -115 -116 -131 -132 -146 -147 -160 -161 -173 -174 0
-23 -44 -45 -62 -65 -81 -82 -98 -100 -115 -116 -131 -132 -146 -147 -160 -161 -173 -174 0
-22 -43 -44 -63 -64 -81 -83 -98 -100 -115 -116 -131 -132 -146 -147 -160 -161 -173 -174 0
-23 -43 -45 -63 -64 -81 -83 -98 -100 -115 -116 -131 -132 -146 -147 -160 -161 -173 -174 0
-23 -44 -45 -63 -65 -81 -83 -98 -100 -115 -116 -131 -132 -146 -147 -160 -161 -173 -174 0
-23 -44 -45 -64 -65 -81 -84 -98 -100 -115 -116 -131 -132 -146 -147 -160 -161 -173 -174 0
-22 -43 -44 -63 -64 -82 -83 -98 -101 -115 -116 -131 -132 -146 -147 -160 -161 -173 -174 0
-23 -43 -45 -63 -64 -82 -83 -98 -101 -115 -116 -131 -132 -146 -147 -160 -161 -173 -174 0
-23 -44 -45 -63 -65 -82 -83 -98 -101 -115 -116 -131 -132 -146 -147 -160 -161 -173 -174 0
-23 -44 -45 -64 -65 -82 -84 -98 -101 -115 -116 -131 -132 -146 -147 -160 -161 -173 -174 0
-23 -44 -45 -64 -65 -83 -84 -98 -102 -115 -116 -131 -132 -146 -147 -160 -161 -173 -174 0
-21 -42 -43 -62 -63 -81 -82 -99 -100 -115 -117 -131 -132 -146 -147 -160 -161 -173 -174 0
-22 -42 -44 -62 -63 -81 -82 -99 -100 -115 -117 -131 -132 -146 -147 -160 -161 -173 -174 0
-23 -42 -45 -62 -63 -81 -82 -99 -100 -115 -117 -131 -132 -146 -147 -160 -161 -173 -174 0
-22 -43 -44 -62 -64 -81 -82 -99 -100 -115 -117 -131 -132 -146 -147 -160 -161 -173 -174 0
-23 -43 -45 -62 -64 -81 -82 -99 -100 -115 -117 -131 -132 -146 -147 -160 -161 -173 -174 0
-23 -44 -45 -62 -65 -81 -82 -99 -100 -115 -117 -131 -132 -146 -147 -160 -161 -173 -174 0
-22 -43 -44 -63 -64 -81 -83 -99 -100 -115 -117 -131 -132 -146 -147 -160 -161 -173 -174 0
-23 -43 -45 -63 -64 -81 -83 -99 -100 -115 -117 -131 -132 -146 -147 -160 -161 -173 -174 0
-23 -44 -45 -63 -65 -81 -83 -99 -100 -115 -117 -131 -132 -146 -147 -160 -161 -173 -174 0
-23 -44 -45 -64 -65 -81 -84 -99 -100 -115 -117 -131 -132 -146 -147 -160 -161 -173 -174 0
-22 -43 -44 -63 -64 -82 -83 -99 -101 -115 -117 -131 -132 -146 -147 -160 -161 -173 -174 0
-23 -43 -45 -63 -64 -82 -83 -99 -101 -115 -117 -131 -132 -146 -147 -160 -161 -173 -174 0
-23 -44 -45 -63 -65 -82 -83 -99 -101 -115 -117 -131 -132 -146 -147 -160 -161 -173 -174 0
-23 -44 -45 -64 -65 -82 -84 -99 -101 -115 -117 -131 -132 -146 -147 -160 -161 -173 -174 0
-23 -44 -45 -64 -65 -83 -84 -99 -102 -115 -117 -131 -132 -146 -147 -160 -161 -173 -174 0
-22 -43 -44 -63 -64 -82 -83 -100 -101 -115 -118 -131 -132 -146 -147 -160 -161 -173 -174 0
-23 -43 -45 -63 -64 -82 -83 -100 -101 -115 -118 -131 -132 -146 -147 -160 -161 -173 -174 0
-23 -44 -45 -63 -65 -82 -83 -100 -101 -115 -118 -131 -132 -146 -147 -160 -161 -173 -174 0
-23 -44 -45 -64 -65 -82 -84 -100 -101 -115 -118 -131 -132 -146 -147 -160 -161 -173 -174 0
-23 -44 -45 -64 -65 -83 -84 -100 -102 -115 -118 -131 -132 -146 -147 -160 -161 -173 -174 0
-23 -44 -45 -64 -65 -83 -84 -101 -102 -115 -119 -131 -132 -146 -147 -160 -161 -173 -174 0
-21 -42 -43 -62 -63 -81 -82 -99 -100 -116 -117 -131 -133 -146 -147 -160 -161 -173 -174 0
-22 -42 -44 -62 -63 -81 -82 -99 -100 -116 -117 -131 -133 -146 -147 -160 -161 -173 -174 0
-23 -42 -45 -62 -63 -81 -82 -99 -100 -116 -117 -131 -133 -146 -147 -160 -161 -173 -174 0
-22 -43 -44 -62 -64 -81 -82 -99 -100 -116 -117 -131 -133 -146 -147 -160 -161 -173 -174 0
-23 -43 -45 -62 -64 -81 -82 -99 -100 -116 -117 -131 -133 -146 -147 -160 -161 -173 -174 0
-23 -44 -45 -62 -65 -81 -82 -99 -100 -116 -117 -131 -133 -146 -147 -160 -161 -173 -174 0
-22 -43 -44 -63 -64 -81 -83 -99 -100 -116 -117 -131 -133 -146 -147 -160 -161 -173 -174 0
-23 -43 -45 -63 -64 -81 -83 -99 -100 -116 -117 -131 -133 -146 -147 -160 -161 -173 -174 0
-23 -44 -45 -63 -65 -81 -83 -99 -100 -116 -117 -131 -133 -146 -147 -160 -161 -173 -174 0
-23 -44 -45 -64 -65 -81 -84 -99 -100 -116 -117 -131 -133 -146 -147 -160 -161 -173 -174 0
-22 -43 -44 -63 -64 -82 -83 -99 -101 -116 -117 -131 -133 -146 -147 -160 -161 -173 -174 0
-23 -43 -45 -63 -64 -82 -83 -99 -101 -116 -117 -131 -133 -146 -147 -160 -161 -173 -174 0
-23 -44 -45 -63 -65 -82 -83 -99 -101 -116 -117 -131 -133 -146 -147 -160 -161 -173 -174 0
-23 -44 -45 -64 -65 -82 -84 -99 -101 -116 -117 -131 -133 -146 -147 -160 -161 -173 -174 0
-23 -44 -45 -64 -65 -83 -84 -99 -102 -116 -117 -131 -133 -146 -147 -160 -161 -173 -174 0
-22 -43 -44 -63 -64 -82 -83 -100 -101 -116 -118 -131 -133 -146 -147 -160 -161 -173 -174 0
-23 -43 -45 -63 -64 -82 -83 -100 -101 -116 -118 -131 -133 -146 -147 -160 -161 -173 -174 0
-23 -44 -45 -63 -65 -82 -83 -100 -101 -116 -118 -131 -133 -146 -147 -160 -161 -173 -174 0
-23 -44 -45 -64 -65 -82 -84 -100 -101 -116 -118 -131 -133 -146 -147 -160 -161 -173 -174 0
-23 -44 -45 -64 -65 -83 -84 -100 -102 -116 -118 -131 -133 -146 -147 -160 -161 -173 -174 0
-23 -44 -45 -64 -65 -83 -84 -101 -102 -116 -119 -131 -133 -146 -147 -160 -161 -173 -174 0
-22 -43 -44 -63 -64 -82 -83 -100 -101 -117 -118 -131 -134 -146 -147 -160 -161 -173 -174 0
-23 -43 -45 -63 -64 -82 -83 -100 -101 -117 -118 -131 -134 -146 -147 -160 -161 -173 -174 0
-23 -44 -45 -63 -65 -82 -83 -100 -101 -117 -118 -131 -134 -146 -147 -160 -161 -173 -174 0
-23 -44 -45 -64 -65 -82 -84 -100 -101 -117 -118 -131 -134 -146 -147 -160 -161 -173 -174 0
-23 -44 -45 -64 -65 -83 -84 -100 -102 -117 -118 -131 -134 -146 -147 -160 -161 -173 -174 0
-23 -44 -45 -64 -65 -83 -84 -101 -102 -117 -119 -131 -134 -146 -147 -160 -161 -173 -174 0
-23 -44 -45 -64 -65 -83 -84 -101 -102 -118 -119 -131 -135 -146 -147 -160 -161 -173 -174 0
-21 -42 -43 -62 -63 -81 -82 -99 -100 -116 -117 -132 -133 -146 -148 -160 -161 -173 -174 0
-22 -42 -44 -62 -63 -81 -82 -99 -100 -116 -117 -132 -133 -146 -148 -160 -161 -173 -174 0
-23 -42 -45 -62 -63 -81 -82 -99 -100 -116 -117 -132 -133 -146 -148 -160 -161 -173 -174 0
-22 -43 -44 -62 -64 -81 -82 -99 -100 -116 -117 -132 -133 -146 -148 -160 -161 -173 -174 0
-23 -43 -45 -62 -64 -81 -82 -99 -100 -116 -117 -132 -133 -146 -148 -160 -161 -173 -174 0
-23 -44 -45 -62 -65 -81 -82 -99 -100 -116 -117 -132 -133 -146 -148 -160 -161 -173 -174 0
-22 -43 -44 -63 -64 -81 -83 -99 -100 -116 -117 -132 -133 -146 -148 -160 -161 -173 -174 0
-23 -43 -45 -63 -64 -81 -83 -99 -100 -116 -117 -132 -133 -146 -148 -160 -161 -173 -174 0
-23 -44 -45 -63 -65 -81 -83 -99 -100 -116 -117 -132 -133 -146 -148 -160 -161 -173 -174 0
-23 -44 -45 -64 -65 -81 -84 -99 -100 -116 -117 -132 -133 -146 -148 -160 -161 -173 -174 0
-22 -43 -44 -63 -64 -82 -83 -99 -101 -116 -117 -132 -133 -146 -148 -160 -161 -173 -174 0
-23 -43 -45 -63 -64 -82 -83 -99 -101 -116 -117 -132 -133 -146 -148 -160 -161 -173 -174 0
-23 -44 -45 -63 -65 -82 -83 -99 -101 -116 -117 -132 -133 -146 -148 -160 -161 -173 -174 0
-23 -44 -45 -64 -65 -82 -84 -99 -101 -116 -117 -132 -133 -146 -148 -160 -161 -173 -174 0
-23 -44 -45 -64 -65 -83 -84 -99 -102 -116 -117 -132 -133 -146 -148 -160 -161 -173 -174 0
-22 -43 -44 -63 -64 -82 -83 -100 -101 -116 -118 -132 -133 -146 -148 -160 -161 -173 -174 0
-23 -43 -45 -63 -64 -82 -83 -100 -101 -116 -118 -132 -133 -146 -148 -160 -161 -173 -174 0
-23 -44 -45 -63 -65 -82 -83 -100 -101 -116 -118 -132 -133 -146 -148 -160 -161 -173 -174 0
-23 -44 -45 -64 -65 -82 -84 -100 -101 -116 -118 -132 -133 -146 -148 -160 -161 -173 -174 0
-23 -44 -45 -64 -65 -83 -84 -100 -102 -116 -118 -132 -133 -146 -148 -160 -161 -173 -174 0
-23 -44 -45 -64 -65 -83 -84 -101 -102 -116 -119 -132 -133 -146 -148 -160 -161 -173 -174 0
-22 -43 -44 -63 -64 -82 -83 -100 -101 -117 -118 -132 -134 -146 -148 -160 -161 -173 -174 0
-23 -43 -45 -63 -64 -82 -83 -100 -101 -117 -118 -132 -134 -146 -148 -160 -161 -173 -174 0
-23 -44 -45 -63 -65 -82 -83 -100 -101 -117 -118 -132 -134 -146 -148 -160 -161 -173 -174 0
-23 -44 -45 -64 -65 -82 -84 -100 -101 -117 -118 -132 -134 -146 -148 -160 -161 -173 -174 0
-23 -44 -45 -64 -65 -83 -84 -100 -102 -117 -118 -132 -134 -146 -148 -160 -161 -173 -174 0
-23 -44 -45 -64 -65 -83 -84 -101 -102 -117 -119 -132 -134 -146 -148 -160 -161 -173 -174 0
-23 -44 -45 -64 -65 -83 -84 -101 -102 -118 -119 -132 -135 -146 -148 -160 -161 -173 -174 0
-22 -43 -44 -63 -64 -82 -83 -100 -101 -117 -118 -133 -134 -146 -149 -160 -161 -173 -174 0
-23 -43 -45 -63 -64 -82 -83 -100 -101 -117 -118 -133 -134 -146 -149 -160 -161 -173 -174 0
-23 -44 -45 -63 -65 -82 -83 -100 -101 -117 -118 -133 -134 -146 -149 -160 -161 -173 -174 0
-23 -44 -45 -64 -65 -82 -84 -100 -101 -117 -118 -133 -134 -146 -149 -160 -161 -173 -174 0
-23 -44 -45 -64 -65 -83 -84 -100 -102 -117 -118 -133 -134 -146 -149 -160 -161 -173 -174 0
-23 -44 -45 -64 -65 -83 -84 -101 -102 -117 -119 -133 -134 -146 -149 -160 -161 -173 -174 0
-23 -44 -45 -64 -65 -83 -84 -101 -102 -118 -119 -133 -135 -146 -149 -160 -161 -173 -174 0
-23 -44 -45 -64 -65 -83 -84 -101 -102 -118 -119 -134 -135 -146 -150 -160 -161 -173 -174 0
-21 -42 -43 -62 -63 -81 -82 -99 -100 -116 -117 -132 -133 -147 -148 -160 -162 -173 -174 0
-22 -42 -44 -62 -63 -81 -82 -99 -100 -116 -117 -132 -133 -147 -148 -160 -162 -173 -174 0
-23 -42 -45 -62 -63 -81 -82 -99 -100 -116 -117 -132 -133 -147 -148 -160 -162 -173 -174 0
-22 -43 -44 -62 -64 -81 -82 -99 -100 -116 -117 -132 -133 -147 -148 -160 -162 -173 -174 0
-23 -43 -45 -62 -64 -81 -82 -99 -100 -116 -117 -132 -133 -147 -148 -160 -162 -173 -174 0
-23 -44 -45 -62 -65 -81 -82 -99 -100 -116 -117 -132 -133 -147 -148 -160 -162 -173 -174 0
-22 -43 -44 -63 -64 -81 -83 -99 -100 -116 -117 -132 -133 -147 -148 -160 -162 -173 -174 0
-23 -43 -45 -63 -64 -81 -83 -99 -100 -116 -117 -132 -133 -147 -148 -160 -162 -173 -174 0
-23 -44 -45 -63 -65 -81 -83 -99 -100 -116 -117 -132 -133 -147 -148 -160 -162 -173 -174 0
-23 -44 -45 -64 -65 -81 -84 -99 -100 -116 -117 -132 -133 -147 -148 -160 -162 -173 -174 0
-22 -43 -44 -63 -64 -82 -83 -99 -101 -116 -117 -132 -133 -147 -148 -160 -162 -173 -174 0
-23 -43 -45 -63 -64 -82 -83 -99 -101 -116 -117 -132 -133 -147 -148 -160 -162 -173 -174 0
-23 -44 -45 -63 -65 -82 -83 -99 -101 -116 -117 -132 -133 -147 -148 -160 -162 -173 -174 0
-23 -44 -45 -64 -65 -82 -84 -99 -101 -116 -117 -132 -133 -147 -148 -160 -162 -173 -174 0
-23 -44 -45 -64 -65 -83 -84 -99 -102 -116 -117 -132 -133 -147 -148 -160 -162 -173 -174 0
-22 -43 -44 -63 -64 -82 -83 -100 -101 -116 -118 -132 -133 -147 -148 -160 -162 -173 -174 0
-23 -43 -45 -63 -64 -82 -83 -100 -101 -116 -118 -132 -133 -147 -148 -160 -162 -173 -174 0
-23 -44 -45 -63 -65 -82 -83 -100 -101 -116 -118 -132 -133 -147 -148 -160 -162 -173 -174 0
-23 -44 -45 -64 -65 -82 -84 -100 -101 -116 -118 -132 -133 -147 -148 -160 -162 -173 -174 0
-23 -44 -45 -64 -65 -83 -84 -100 -102 -116 -118 -132 -133 -147 -148 -160 -162 -173 -174 0
-23 -44 -45 -64 -65 -83 -84 -101 -102 -116 -119 -132 -133 -147 -148 -160 -162 -173 -174 0
-22 -43 -44 -63 -64 -82 -83 -100 -101 -117 -118 -132 -134 -147 -148 -160 -162 -173 -174 0
-23 -43 -45 -63 -64 -82 -83 -100 -101 -117 -118 -132 -134 -147 -148 -160 -162 -173 -174 0
-23 -44 -45 -63 -65 -82 -83 -100 -101 -117 -118 -132 -134 -147 -148 -160 -162 -173 -174 0
-23 -44 -45 -64 -65 -82 -84 -100 -101 -117 -118 -132 -134 -147 -148 -160 -162 -173 -174 0
-23 -44 -45 -64 -65 -83 -84 -100 -102 -117 -118 -132 -134 -147 -148 -160 -162 -173 -174 0
-23 -44 -45 -64 -65 -83 -84 -101 -102 -117 -119 -132 -134 -147 -148 -160 -162 -173 -174 0
-23 -44 -45 -64 -65 -83 -84 -101 -102 -118 -119 -132 -135 -147 -148 -160 -162 -173 -174 0
-22 -43 -44 -63 -64 -82 -83 -100 -101 -117 -118 -133 -134 -147 -149 -160 -162 -173 -174 0
-23 -43 -45 -63 -64 -82 -83 -100 -101 -117 -118 -133 -134 -147 -149 -160 -162 -173 -174 0
-23 -44 -45 -63 -65 -82 -83 -100 -101 -117 -118 -133 -134 -147 -149 -160 -162 -173 -174 0
-23 -44 -45 -64 -65 -82 -84 -100 -101 -117 -118 -133 -134 -147 -149 -160 -162 -173 -174 0
-23 -44 -45 -64 -65 -83 -84 -100 -102 -117 -118 -133 -134 -147 -149 -160 -162 -173 -174 0
-23 -44 -45 -64 -65 -83 -84 -101 -102 -117 -119 -133 -134 -147 -149 -160 -162 -173 -174 0
-23 -44 -45 -64 -65 -83 -84 -101 -102 -118 -119 -133 -135 -147 -149 -160 -162 -173 -174 0
-23 -44 -45 -64 -65 -83 -84 -101 -102 -118 -119 -134 -135 -147 -150 -160 -162 -173 -174 0
-22 -43 -44 -63 -64 -82 -83 -100 -101 -117 -118 -133 -134 -148 -149 -160 -163 -173 -174 0
-23 -43 -45 -63 -64 -82 -83 -100 -101 -117 -118 -133 -134 -148 -149 -160 -163 -173 -174 0
-23 -44 -45 -63 -65 -82 -83 -100 -101 -117 -118 -133 -134 -148 -149 -160 -163 -173 -174 0
-23 -44 -45 -64 -65 -82 -84 -100 -101 -117 -118 -133 -134 -148 -149 -160 -163 -173 -174 0
-23 -44 -45 -64 -65 -83 -84 -100 -102 -117 -118 -133 -134 -148 -149 -160 -163 -173 -174 0
-23 -44 -45 -64 -65 -83 -84 -101 -102 -117 -119 -133 -134 -148 -149 -160 -163 -173 -174 0
-23 -44 -45 -64 -65 -83 -84 -101 -102 -118 -119 -133 -135 -148 -149 -160 -163 -173 -174 0
-23 -44 -45 -64 -65 -83 -84 -101 -102 -118 -119 -134 -135 -148 -150 -160 -163 -173 -174 0
-23 -44 -45 -64 -65 -83 -84 -101 -102 -118 -119 -134 -135 -149 -150 -160 -164 -173 -174 0
-21 -42 -43 -62 -63 -81 -82 -99 -100 -116 -117 -132 -133 -147 -148 -161 -162 -173 -175 0
-22 -42 -44 -62 -63 -81 -82 -99 -100 -116 -117 -132 -133 -147 -148 -161 -162 -173 -175 0
-23 -42 -45 -62 -63 -81 -82 -99 -100 -116 -117 -132 -133 -147 -148 -161 -162 -173 -175 0
-22 -43 -44 -62 -64 -81 -82 -99 -100 -116 -117 -132 -133 -147 -148 -161 -162 -173 -175 0
-23 -43 -45 -62 -64 -81 -82 -99 -100 -116 -117 -132 -133 -147 -148 -161 -162 -173 -175 0
-23 -44 -45 -62 -65 -81 -82 -99 -100 -116 -117 -132 -133 -147 -148 -161 -162 -173 -175 0
-22 -43 -44 -63 -64 -81 -83 -99 -100 -116 -117 -132 -133 -147 -148 -161 -162 -173 -175 0
-23 -43 -45 -63 -64 -81 -83 -99 -100 -116 -117 -132 -133 -147 -148 -161 -162 -173 -175 0
-23 -44 -45 -63 -65 -81 -83 -99 -100 -116 -117 -132 -133 -147 -148 -161 -162 -173 -175 0
-23 -44 -45 -64 -65 -81 -84 -99 -100 -116 -117 -132 -133 -147 -148 -161 -162 -173 -175 0
-22 -43 -44 -63 -64 -82 -83 -99 -101 -116 -117 -132 -133 -147 -148 -161 -162 -173 -175 0
-23 -43 -45 -63 -64 -82 -83 -99 -101 -116 -117 -132 -133 -147 -148 -161 -162 -173 -175 0
-23 -44 -45 -63 -65 -82 -83 -99 -101 -116 -117 -132 -133 -147 -148 -161 -162 -173 -175 0
-23 -44 -45 -64 -65 -82 -84 -99 -101 -116 -117 -132 -133 -147 -148 -161 -162 -173 -175 0
-23 -44 -45 -64 -65 -83 -84 -99 -102 -116 -117 -132 -133 -147 -148 -161 -162 -173 -175 0
-22 -43 -44 -63 -64 -82 -83 -100 -101 -116 -118 -132 -133 -147 -148 -161 -162 -173 -175 0
-23 -43 -45 -63 -64 -82 -83 -100 -101 -116 -118 -132 -133 -147 -148 -161 -162 -173 -175 0
-23 -44 -45 -63 -65 -82 -83 -100 -101 -116 -118 -132 -133 -147 -148 -161 -162 -173 -175 0
-23 -44 -45 -64 -65 -82 -84 -100 -101 -116 -118 -132 -133 -147 -148 -161 -162 -173 -175 0
-23 -44 -45 -64 -65 -83 -84 -100 -102 -116 -118 -132 -133 -147 -148 -161 -162 -173 -175 0
-23 -44 -45 -64 -65 -83 -84 -101 -102 -116 -119 -132 -133 -147 -148 -161 -162 -173 -175 0
-22 -43 -44 -63 -64 -82 -83 -100 -101 -117 -118 -132 -134 -147 -148 -161 -162 -173 -175 0
-23 -43 -45 -63 -64 -82 -83 -100 -101 -117 -118 -132 -134 -147 -148 -161 -162 -173 -175 0
-23 -44 -45 -63 -65 -82 -83 -100 -101 -117 -118 -132 -134 -147 -148 -161 -162 -173 -175 0
-23 -44 -45 -64 -65 -82 -84 -100 -101 -117 -118 -132 -134 -147 -148 -161 -162 -173 -175 0
-23 -44 -45 -64 -65 -83 -84 -100 -102 -117 -118 -132 -134 -147 -148 -161 -162 -173 -175 0
-23 -44 -45 -64 -65 -83 -84 -101 -102 -117 -119 -132 -134 -147 -148 -161 -162 -173 -175 0
-23 -44 -45 -64 -65 -83 -84 -101 -102 -118 -119 -132 -135 -147 -148 -161 -162 -173 -175 0
-22 -43 -44 -63 -64 -82 -83 -100 -101 -117 -118 -133 -134 -147 -149 -161 -162 -173 -175 0
-23 -43 -45 -63 -64 -82 -83 -100 -101 -117 -118 -133 -134 -147 -149 -161 -162 -173 -175 0
-23 -44 -45 -63 -65 -82 -83 -100 -101 -117 -118 -133 -134 -147 -149 -161 -162 -173 -175 0
-23 -44 -45 -64 -65 -82 -84 -100 -101 -117 -118 -133 -134 -147 -149 -161 -162 -173 -175 0
-23 -44 -45 -64 -65 -83 -84 -100 -102 -117 -118 -133 -134 -147 -149 -161 -162 -173 -175 0
-23 -44 -45 -64 -65 -83 -84 -101 -102 -117 -119 -133 -134 -147 -149 -161 -162 -173 -175 0
-23 -44 -45 -64 -65 -83 -84 -101 -102 -118 -119 -133 -135 -147 -149 -161 -162 -173 -175 0
-23 -44 -45 -64 -65 -83 -84 -101 -102 -118 -119 -134 -135 -147 -150 -161 -162 -173 -175 0
-22 -43 -44 -63 -64 -82 -83 -100 -101 -117 -118 -133 -134 -148 -149 -161 -163 -173 -175 0
-23 -43 -45 -63 -64 -82 -83 -100 -101 -117 -118 -133 -134 -148 -149 -161 -163 -173 -175 0
-23 -44 -45 -63 -65 -82 -83 -100 -101 -117 -118 -133 -134 -148 -149 -161 -163 -173 -175 0
-23 -44 -45 -64 -65 -82 -84 -100 -101 -117 -118 -133 -134 -148 -149 -161 -163 -173 -175 0
-23 -44 -45 -64 -65 -83 -84 -100 -102 -117 -118 -133 -134 -148 -149 -161 -163 -173 -175 0
-23 -44 -45 -64 -65 -83 -84 -101 -102 -117 -119 -133 -134 -148 -149 -161 -163 -173 -175 0
-23 -44 -45 -64 -65 -83 -84 -101 -102 -118 -119 -133 -135 -148 -149 -161 -163 -173 -175 0
-23 -44 -45 -64 -65 -83 -84 -101 -102 -118 -119 -134 -135 -148 -150 -161 -163 -173 -175 0
-23 -44 -45 -64 -65 -83 -84 -101 -102 -118 -119 -134 -135 -149 -150 -161 -164 -173 -175 0
-22 -43 -44 -63 -64 -82 -83 -100 -101 -117 -118 -133 -134 -148 -149 -162 -163 -173 -176 0
-23 -43 -45 -63 -64 -82 -83 -100 -101 -117 -118 -133 -134 -148 -149 -162 -163 -173 -176 0
-23 -44 -45 -63 -65 -82 -83 -100 -101 -117 -118 -133 -134 -148 -149 -162 -163 -173 -176 0
-23 -44 -45 -64 -65 -82 -84 -100 -101 -117 -118 -133 -134 -148 -149 -162 -163 -173 -176 0
-23 -44 -45 -64 -65 -83 -84 -100 -102 -117 -118 -133 -134 -148 -149 -162 -163 -173 -176 0
-23 -44 -45 -64 -65 -83 -84 -101 -102 -117 -119 -133 -134 -148 -149 -162 -163 -173 -176 0
-23 -44 -45 -64 -65 -83 -84 -101 -102 -118 -119 -133 -135 -148 -149 -162 -163 -173 -176 0
-23 -44 -45 -64 -65 -83 -84 -101 -102 -118 -119 -134 -135 -148 -150 -162 -163 -173 -176 0
-23 -44 -45 -64 -65 -83 -84 -101 -102 -118 -119 -134 -135 -149 -150 -162 -164 -173 -176 0
-23 -44 -45 -64 -65 -83 -84 -101 -102 -118 -119 -134 -135 -149 -150 -163 -164 -173 -177 0
-21 -42 -43 -62 -63 -81 -82 -99 -100 -116 -117 -132 -133 -147 -148 -161 -162 -174 -175 0
-22 -42 -44 -62 -63 -81 -82 -99 -100 -116 -117 -132 -133 -147 -148 -161 -162 -174 -175 0
-23 -42 -45 -62 -63 -81 -82 -99 -100 -116 -117 -132 -133 -147 -148 -161 -162 -174 -175 0
-22 -43 -44 -62 -64 -81 -82 -99 -100 -116 -117 -132 -133 -147 -148 -161 -162 -174 -175 0
-23 -43 -45 -62 -64 -81 -82 -99 -100 -116 -117 -132 -133 -147 -148 -161 -162 -174 -175 0
-23 -44 -45 -62 -65 -81 -82 -99 -100 -116 -117 -132 -133 -147 -148 -161 -162 -174 -175 0
-22 -43 -44 -63 -64 -81 -83 -99 -100 -116 -117 -132 -133 -147 -148 -161 -162 -174 -175 0
-23 -43 -45 -63 -64 -81 -83 -99 -100 -116 -117 -132 -133 -147 -148 -161 -162 -174 -175 0
-23 -44 -45 -63 -65 -81 -83 -99 -100 -116 -117 -132 -133 -147 -148 -161 -162 -174 -175 0
-23 -44 -45 -64 -65 -81 -84 -99 -100 -116 -117 -132 -133 -147 -148 -161 -162 -174 -175 0
-22 -43 -44 -63 -64 -82 -83 -99 -101 -116 -117 -132 -133 -147 -148 -161 -162 -174 -175 0
-23 -43 -45 -63 -64 -82 -83 -99 -101 -116 -117 -132 -133 -147 -148 -161 -162 -174 -175 0
-23 -44 -45 -63 -65 -82 -83 -99 -101 -116 -117 -132 -133 -147 -148 -161 -162 -174 -175 0
-23 -44 -45 -64 -65 -82 -84 -99 -101 -116 -117 -132 -133 -147 -148 -161 -162 -174 -175 0
-23 -44 -45 -64 -65 -83 -84 -99 -102 -116 -117 -132 -133 -147 -148 -161 -162 -174 -175 0
-22 -43 -44 -63 -64 -82 -83 -100 -101 -116 -118 -132 -133 -147 -148 -161 -162 -174 -175 0
-23 -43 -45 -63 -64 -82 -83 -100 -101 -116 -118 -132 -133 -147 -148 -161 -162 -174 -175 0
-23 -44 -45 -63 -65 -82 -83 -100 -101 -116 -118 -132 -133 -147 -148 -161 -162 -174 -175 0
-23 -44 -45 -64 -65 -82 -84 -100 -101 -116 -118 -132 -133 -147 -148 -161 -162 -174 -175 0
-23 -44 -45 -64 -65 -83 -84 -100 -102 -116 -118 -132 -133 -147 -148 -161 -162 -174 -175 0
-23 -44 -45 -64 -65 -83 -84 -101 -102 -116 -119 -132 -133 -147 -148 -161 -162 -174 -175 0
-22 -43 -44 -63 -64 -82 -83 -100 -101 -117 -118 -132 -134 -147 -148 -161 -162 -174 -175 0
-23 -43 -45 -63 -64 -82 -83 -100 -101 -117 -118 -132 -134 -147 -148 -161 -162 -174 -175 0
-23 -44 -45 -63 -65 -82 -83 -100 -101 -117 -118 -132 -134 -147 -148 -161 -162 -174 -175 0
-23 -44 -45 -64 -65 -82 -84 -100 -101 -117 -118 -132 -134 -147 -148 -161 -162 -174 -175 0
-23 -44 -45 -64 -65 -83 -84 -100 -102 -117 -118 -132 -134 -147 -148 -161 -162 -174 -175 0
-23 -44 -45 -64 -65 -83 -84 -101 -102 -117 -119 -132 -134 -147 -148 -161 -162 -174 -175 0
-23 -44 -45 -64 -65 -83 -84 -101 -102 -118 -119 -132 -135 -147 -148 -161 -162 -174 -175 0
-22 -43 -44 -63 -64 -82 -83 -100 -101 -117 -118 -133 -134 -147 -149 -161 -162 -174 -175 0
-23 -43 -45 -63 -64 -82 -83 -100 -101 -117 -118 -133 -134 -147 -149 -161 -162 -174 -175 0
-23 -44 -45 -63 -65 -82 -83 -100 -101 -117 -118 -133 -134 -147 -149 -161 -162 -174 -175 0
-23 -44 -45 -64 -65 -82 -84 -100 -101 -117 -118 -133 -134 -147 -149 -161 -162 -174 -175 0
-23 -44 -45 -64 -65 -83 -84 -100 -102 -117 -118 -133 -134 -147 -149 -161 -162 -174 -175 0
-23 -44 -45 -64 -65 -83 -84 -101 -102 -117 -119 -133 -134 -147 -149 -161 -162 -174 -175 0
-23 -44 -45 -64 -65 -83 -84 -101 -102 -118 -119 -133 -135 -147 -149 -161 -162 -174 -175 0
-23 -44 -45 -64 -65 -83 -84 -101 -102 -118 -119 -134 -135 -147 -150 -161 -162 -174 -175 0
-22 -43 -44 -63 -64 -82 -83 -100 -101 -117 -118 -133 -134 -148 -149 -161 -163 -174 -175 0
-23 -43 -45 -63 -64 -82 -83 -100 -101 -117 -118 -133 -134 -148 -149 -161 -163 -174 -175 0
-23 -44 -45 -63 -65 -82 -83 -100 -101 -117 -118 -133 -134 -148 -149 -161 -163 -174 -175 0
-23 -44 -45 -64 -65 -82 -84 -100 -101 -117 -118 -133 -134 -148 -149 -161 -163 -174 -175 0
-23 -44 -45 -64 -65 -83 -84 -100 -102 -117 -118 -133 -134 -148 -149 -161 -163 -174 -175 0
-23 -44 -45 -64 -65 -83 -84 -101 -102 -117 -119 -133 -134 -148 -149 -161 -163 -174 -175 0
-23 -44 -45 -64 -65 -83 -84 -101 -102 -118 -119 -133 -135 -148 -149 -161 -163 -174 -175 0
-23 -44 -45 -64 -65 -83 -84 -101 -102 -118 -119 -134 -135 -148 -150 -161 -163 -174 -175 0
-23 -44 -45 -64 -65 -83 -84 -101 -102 -118 -119 -134 -135 -149 -150 -161 -164 -174 -175 0
-22 -43 -44 -63 -64 -82 -83 -100 -101 -117 -118 -133 -134 -148 -149 -162 -163 -174 -176 0
-23 -43 -45 -63 -64 -82 -83 -100 -101 -117 -118 -133 -134 -148 -149 -162 -163 -174 -176 0
-23 -44 -45 -63 -65 -82 -83 -100 -101 -117 -118 -133 -134 -148 -149 -162 -163 -174 -176 0
-23 -44 -45 -64 -65 -82 -84 -100 -101 -117 -118 -133 -134 -148 -149 -162 -163 -174 -176 0
-23 -44 -45 -64 -65 -83 -84 -100 -102 -117 -118 -133 -134 -148 -149 -162 -163 -174 -176 0
-23 -44 -45 -64 -65 -83 -84 -101 -102 -117 -119 -133 -134 -148 -149 -162 -163 -174 -176 0
-23 -44 -45 -64 -65 -83 -84 -101 -102 -118 -119 -133 -135 -148 -149 -162 -163 -174 -176 0
-23 -44 -45 -64 -65 -83 -84 -101 -102 -118 -119 -134 -135 -148 -150 -162 -163 -174 -176 0
-23 -44 -45 -64 -65 -83 -84 -101 -102 -118 -119 -134 -135 -149 -150 -162 -164 -174 -176 0
-23 -44 -45 -64 -65 -83 -84 -101 -102 -118 -119 -134 -135 -149 -150 -163 -164 -174 -177 0
-22 -43 -44 -63 -64 -82 -83 -100 -101 -117 -118 -133 -134 -148 -149 -162 -163 -175 -176 0
-23 -43 -45 -63 -64 -82 -83 -100 -101 -117 -118 -133 -134 -148 -149 -162 -163 -175 -176 0
-23 -44 -45 -63 -65 -82 -83 -100 -101 -117 -118 -133 -134 -148 -149 -162 -163 -175 -176 0
-23 -44 -45 -64 -65 -82 -84 -100 -101 -117 -118 -133 -134 -148 -149 -162 -163 -175 -176 0
-23 -44 -45 -64 -65 -83 -84 -100 -102 -117 -118 -133 -134 -148 -149 -162 -163 -175 -176 0
-23 -44 -45 -64 -65 -83 -84 -101 -102 -117 -119 -133 -134 -148 -149 -162 -163 -175 -176 0
-23 -44 -45 -64 -65 -83 -84 -101 -102 -118 -119 -133 -135 -148 -149 -162 -163 -175 -176 0
-23 -44 -45 -64 -65 -83 -84 -101 -102 -118 -119 -134 -135 -148 -150 -162 -163 -175 -176 0
-23 -44 -45 -64 -65 -83 -84 -101 -102 -118 -119 -134 -135 -149 -150 -162 -164 -175 -176 0
-23 -44 -45 -64 -65 -83 -84 -101 -102 -118 -119 -134 -135 -149 -150 -163 -164 -175 -177 0
-23 -44 -45 -64 -65 -83 -84 -101 -102 -118 -119 -134 -135 -149 -150 -163 -164 -176 -177 0
-20 -41 -42 -61 -62 -80 -81 -98 -99 -115 -116 -131 -132 -146 -147 -160 -161 -186 -187 0
-21 -41 -43 -61 -62 -80 -81 -98 -99 -115 -116 -131 -132 -146 -147 -160 -161 -186 -187 0
-22 -41 -44 -61 -62 -80 -81 -98 -99 -115 -116 -131 -132 -146 -147 -160 -161 -186 -187 0
-23 -41 -45 -61 -62 -80 -81 -98 -99 -115 -116 -131 -132 -146 -147 -160 -161 -186 -187 0
-21 -42 -43 -61 -63 -80 -81 -98 -99 -115 -116 -131 -132 -146 -147 -160 -161 -186 -187 0
-22 -42 -44 -61 -63 -80 -81 -98 -99 -115 -116 -131 -132 -146 -147 -160 -161 -186 -187 0
-23 -42 -45 -61 -63 -80 -81 -98 -99 -115 -116 -131 -132 -146 -147 -160 -161 -186 -187 0
-22 -43 -44 -61 -64 -80 -81 -98 -99 -115 -116 -131 -132 -146 -147 -160 -161 -186 -187 0
-23 -43 -45 -61 -64 -80 -81 -98 -99 -115 -116 -131 -132 -146 -147 -160 -161 -186 -187 0
-23 -44 -45 -61 -65 -80 -81 -98 -99 -115 -116 -131 -132 -146 -147 -160 -161 -186 -187 0
-21 -42 -43 -62 -63 -80 -82 -98 -99 -115 -116 -131 -132 -146 -147 -160 -161 -186 -187 0
-22 -42 -44 -62 -63 -80 -82 -98 -99 -115 -116 -131 -132 -146 -147 -160 -161 -186 -187 0
-23 -42 -45 -62 -63 -80 -82 -98 -99 -115 -116 -131 -132 -146 -147 -160 -161 -186 -187 0
-22 -43 -44 -62 -64 -80 -82 -98 -99 -115 -116 -131 -132 -146 -147 -160 -161 -186 -187 0
-23 -43 -45 -62 -64 -80 -82 -98 -99 -115 -116 -131 -132 -146 -147 -160 -161 -186 -187 0
-23 -44 -45 -62 -65 -80 -82 -98 -99 -115 -116 -131 -132 -146 -147 -160 -161 -186 -187 0
-22 -43 -44 -63 -64 -80 -83 -98 -99 -115 -116 -131 -132 -146 -147 -160 -161 -186 -187 0
-23 -43 -45 -63 -64 -80 -83 -98 -99 -115 -116 -131 -132 -146 -147 -160 -161 -186 -187 0
-23 -44 -45 -63 -65 -80 -83 -98 -99 -115 -116 -131 -132 -146 -147 -160 -161 -186 -187 0
-23 -44 -45 -64 -65 -80 -84 -98 -99 -115 -116 -131 -132 -146 -147 -160 -161 -186 -187 0
-21 -42 -43 -62 -63 -81 -82 -98 -100 -115 -116 -131 -132 -146 -147 -160 -161 -186 -187 0
-22 -42 -44 -62 -63 -81 -82 -98 -100 -115 -116 -131 -132 -146 -147 -160 -161 -186 -187 0
-23 -42 -45 -62 -63 -81 -82 -98 -100 -115 -116 -131 -132 -146 -147 -160 -161 -186 -187 0
-22 -43 -44 -62 -64 -81 -82 -98 -100 -115 -116 -131 -132 -146 -147 -160 -161 -186 -187 0
-23 -43 -45 -62 -64 -81 -82 -98 -100 -115 -116 -131 -132 -146 -147 -160 -161 -186 -187 0
-23 -44 -45 -62 -65 -81 -82 -98 -100 -115 -116 -131 -132 -146 -147 -160 -161 -186 -187 0
-22 -43 -44 -63 -64 -81 -83 -98 -100 -115 -116 -131 -132 -146 -147 -160 -161 -186 -187 0
-23 -43 -45 -63 -64 -81 -83 -98 -100 -115 -116 -131 -132 -146 -147 -160 -161 -186 -187 0
-23 -44 -45 -63 -65 -81 -83 -98 -100 -115 -116 -131 -132 -146 -147 -160 -161 -186 -187 0
-23 -44 -45 -64 -65 -81 -84 -98 -100 -115 -116 -131 -132 -146 -147 -160 -161 -186 -187 0
-22 -43 -44 -63 -64 -82 -83 -98 -101 -115 -116 -131 -132 -146 -147 -160 -161 -186 -187 0
-23 -43 -45 -63 -64 -82 -83 -98 -101 -115 -116 -131 -132 -146 -147 -160 -161 -186 -187 0
-23 -44 -45 -63 -65 -82 -83 -98 -101 -115 -116 -131 -132 -146 -147 -160 -161 -186 -187 0
-23 -44 -45 -64 -65 -82 -84 -98 -101 -115 -116 -131 -132 -146 -147 -160 -161 -186 -187 0
-23 -44 -45 -64 -65 -83 -84 -98 -102 -115 -116 -131 -132 -146 -147 -160 -161 -186 -187 0
-21 -42 -43 -62 -63 -81 -82 -99 -100 -115 -117 -131 -132 -146 -147 -160 -161 -186 -187 0
-22 -42 -44 -62 -63 -81 -82 -99 -100 -115 -117 -131 -132 -146 -147 -160 -161 -186 -187 0
-23 -42 -45 -62 -63 -81 -82 -99 -100 -115 -117 -131 -132 -146 -147 -160 -161 -186 -187 0
-22 -43 -44 -62 -64 -81 -82 -99 -100 -115 -117 -131 -132 -146 -147 -160 -161 -186 -187 0
-23 -43 -45 -62 -64 -81 -82 -99 -100 -115 -117 -131 -132 -146 -147 -160 -161 -186 -187 0
-23 -44 -45 -62 -65 -81 -82 -99 -100 -115 -117 -131 -132 -146 -147 -160 -161 -186 -187 0
-22 -43 -44 -63 -64 -81 -83 -99 -100 -115 -117 -131 -132 -146 -147 -160 -161 -186 -187 0
-23 -43 -45 -63 -64 -81 -83 -99 -100 -115 -117 -131 -132 -146 -147 -160 -161 -186 -187 0
-23 -44 -45 -63 -65 -81 -83 -99 -100 -115 -117 -131 -132 -146 -147 -160 -161 -186 -187 0
-23 -44 -45 -64 -65 -81 -84 -99 -100 -115 -117 -131 -132 -146 -147 -160 -161 -186 -187 0
-22 -43 -44 -63 -64 -82 -83 -99 -101 -115 -117 -131 -132 -146 -147 -160 -161 -186 -187 0
-23 -43 -45 -63 -64 -82 -83 -99 -101 -115 -117 -131 -132 -146 -147 -160 -161 -186 -187 0
-23 -44 -45 -63 -65 -82 -83 -99 -101 -115 -117 -131 -132 -146 -147 -160 -161 -186 -187 0
-23 -44 -45 -64 -65 -82 -84 -99 -101 -115 -117 -131 -132 -146 -147 -160 -161 -186 -187 0
-23 -44 -45 -64 -65 -83 -84 -99 -102 -115 -117 -131 -132 -146 -147 -160 -161 -186 -187 0
-22 -43 -44 -63 -64 -82 -83 -100 -101 -115 -118 -131 -132 -146 -147 -160 -161 -186 -187 0
-23 -43 -45 -63 -64 -82 -83 -100 -101 -115 -118 -131 -132 -146 -147 -160 -161 -186 -187 0
-23 -44 -45 -63 -65 -82 -83 -100 -101 -115 -118 -131 -132 -146 -147 -160 -161 -186 -187 0
-23 -44 -45 -64 -65 -82 -84 -100 -101 -115 -118 -131 -132 -146 -147 -160 -161 -186 -187 0
-23 -44 -45 -64 -65 -83 -84 -100 -102 -115 -118 -131 -132 -146 -147 -160 -161 -186 -187 0
-23 -44 -45 -64 -65 -83 -84 -101 -102 -115 -119 -131 -132 -146 -147 -160 -161 -186 -187 0
-21 -42 -43 -62 -63 -81 -82 -99 -100 -116 -117 -131 -133 -146 -147 -160 -161 -186 -187 0
-22 -42 -44 -62 -63 -81 -82 -99 -100 -116 -117 -131 -133 -146 -147 -160 -161 -186 -187 0
-23 -42 -45 -62 -63 -81 -82 -99 -100 -116 -117 -131 -133 -146 -147 -160 -161 -186 -187 0
-22 -43 -44 -62 -64 -81 -82 -99 -100 -116 -117 -131 -133 -146 -147 -160 -161 -186 -187 0
-23 -43 -45 -62 -64 -81 -82 -99 -100 -116 -117 -131 -133 -146 -147 -160 -161 -186 -187 0
-23 -44 -45 -62 -65 -81 -82 -99 -100 -116 -117 -131 -133 -146 -147 -160 -161 -186 -187 0
-22 -43 -44 -63 -64 -81 -83 -99 -100 -116 -117 -131 -133 -146 -147 -160 -161 -186 -187 0
-23 -43 -45 -63 -64 -81 -83 -99 -100 -116 -117 -131 -133 -146 -147 -160 -161 -186 -187 0
-23 -44 -45 -63 -65 -81 -83 -99 -100 -116 -117 -131 -133 -146 -147 -160 -161 -186 -187 0
-23 -44 -45 -64 -65 -81 -84 -99 -100 -116 -117 -131 -133 -146 -147 -160 -161 -186 -187 0
-22 -43 -44 -63 -64 -82 -83 -99 -101 -116 -117 -131 -133 -146 -147 -160 -161 -186 -187 0
-23 -43 -45 -63 -64 -82 -83 -99 -101 -116 -117 -131 -133 -146 -147 -160 -161 -186 -187 0
-23 -44 -45 -63 -65 -82 -83 -99 -101 -116 -117 -131 -133 -146 -147 -160 -161 -186 -187 0
-23 -44 -45 -64 -65 -82 -84 -99 -101 -116 -117 -131 -133 -146 -147 -160 -161 -186 -187 0
-23 -44 -45 -64 -65 -83 -84 -99 -102 -116 -117 -131 -133 -146 -147 -160 -161 -186 -187 0
-22 -43 -44 -63 -64 -82 -83 -100 -101 -116 -118 -131 -133 -146 -147 -160 -161 -186 -187 0
-23 -43 -45 -63 -64 -82 -83 -100 -101 -116 -118 -131 -133 -146 -147 -160 -161 -186 -187 0
-23 -44 -45 -63 -65 -82 -83 -100 -101 -116 -118 -131 -133 -146 -147 -160 -161 -186 -187 0
-23 -44 -45 -64 -65 -82 -84 -100 -101 -116 -118 -131 -133 -146 -147 -160 -161 -186 -187 0
-23 -44 -45 -64 -65 -83 -84 -100 -102 -116 -118 -131 -133 -146 -147 -160 -161 -186 -187 0
-23 -44 -45 -64 -65 -83 -84 -101 -102 -116 -119 -131 -133 -146 -147 -160 -161 -186 -187 0
-22 -43 -44 -63 -64 -82 -83 -100 -101 -117 -118 -131 -134 -146 -147 -160 -161 -186 -187 0
-23 -43 -45 -63 -64 -82 -83 -100 -101 -117 -118 -131 -134 -146 -147 -160 -161 -186 -187 0
-23 -44 -45 -63 -65 -82 -83 -100 -101 -117 -118 -131 -134 -146 -147 -160 -161 -186 -187 0
-23 -44 -45 -64 -65 -82 -84 -100 -101 -117 -118 -131 -134 -146 -147 -160 -161 -186 -187 0
-23 -44 -45 -64 -65 -83 -84 -100 -102 -117 -118 -131 -134 -146 -147 -160 -161 -186 -187 0
-23 -44 -45 -64 -65 -83 -84 -101 -102 -117 -119 -131 -134 -146 -147 -160 -161 -186 -187 0
-23 -44 -45 -64 -65 -83 -84 -101 -102 -118 -119 -131 -135 -146 -147 -160 -161 -186 -187 0
-21 -42 -43 -62 -63 -81 -82 -99 -100 -116 -117 -132 -133 -146 -148 -160 -161 -186 -187 0
-22 -42 -44 -62 -63 -81 -82 -99 -100 -116 -117 -132 -133 -146 -148 -160 -161 -186 -187 0
-23 -42 -45 -62 -63 -81 -82 -99 -100 -116 -117 -132 -133 -146 -148 -160 -161 -186 -187 0
-22 -43 -44 -62 -64 -81 -82 -99 -100 -116 -117 -132 -133 -146 -148 -160 -161 -186 -187 0
-23 -43 -45 -62 -64 -81 -82 -99 -100 -116 -117 -132 -133 -146 -148 -160 -161 -186 -187 0
-23 -44 -45 -62 -65 -81 -82 -99 -100 -116 -117 -132 -133 -146 -148 -160 -161 -186 -187 0
-22 -43 -44 -63 -64 -81 -83 -99 -100 -116 -117 -132 -133 -146 -148 -160 -161 -186 -187 0
-23 -43 -45 -63 -64 -81 -83 -99 -100 -116 -117 -132 -133 -146 -148 -160 -161 -186 -187 0
-23 -44 -45 -63 -65 -81 -83 -99 -100 -116 -117 -132 -133 -146 -148 -160 -161 -186 -187 0
-23 -44 -45 -64 -65 -81 -84 -99 -100 -116 -117 -132 -133 -146 -148 -160 -161 -186 -187 0
-22 -43 -44 -63 -64 -82 -83 -99 -101 -116 -117 -132 -133 -146 -148 -160 -161 -186 -187 0
-23 -43 -45 -63 -64 -82 -83 -99 -101 -116 -117 -132 -133 -146 -148 -160 -161 -186 -187 0
-23 -44 -45 -63 -65 -82 -83 -99 -101 -116 -117 -132 -133 -146 -148 -160 -161 -186 -187 0
-23 -44 -45 -64 -65 -82 -84 -99 -101 -116 -117 -132 -133 -146 -148 -160 -161 -186 -187 0
-23 -44 -45 -64 -65 -83 -84 -99 -102 -116 -117 -132 -133 -146 -148 -160 -161 -186 -187 0
-22 -43 -44 -63 -64 -82 -83 -100 -101 -116 -118 -132 -133 -146 -148 -160 -161 -186 -187 0
-23 -43 -45 -63 -64 -82 -83 -100 -101 -116 -118 -132 -133 -146 -148 -160 -161 -186 -187 0
-23 -44 -45 -63 -65 -82 -83 -100 -101 -116 -118 -132 -133 -146 -148 -160 -161 -186 -187 0
-23 -44 -45 -64 -65 -82 -84 -100 -101 -116 -118 -132 -133 -146 -148 -160 -161 -186 -187 0
-23 -44 -45 -64 -65 -83 -84 -100 -102 -116 -118 -132 -133 -146 -148 -160 -161 -186 -187 0
-23 -44 -45 -64 -65 -83 -84 -101 -102 -116 -119 -132 -133 -146 -148 -160 -161 -186 -187 0
-22 -43 -44 -63 -64 -82 -83 -100 -101 -117 -118 -132 -134 -146 -148 -160 -161 -186 -187 0
-23 -43 -45 -63 -64 -82 -83 -100 -101 -117 -118 -132 -134 -146 -148 -160 -161 -186 -187 0
-23 -44 -45 -63 -65 -82 -83 -100 -101 -117 -118 -132 -134 -146 -148 -160 -161 -186 -187 0
-23 -44 -45 -64 -65 -82 -84 -100 -101 -117 -118 -132 -134 -146 -148 -160 -161 -186 -187 0
-23 -44 -45 -64 -65 -83 -84 -100 -102 -117 -118 -132 -134 -146 -148 -160 -161 -186 -187 0
-23 -44 -45 -64 -65 -83 -84 -101 -102 -117 -119 -132 -134 -146 -148 -160 -161 -186 -187 0
-23 -44 -45 -64 -65 -83 -84 -101 -102 -118 -119 -132 -135 -146 -148 -160 -161 -186 -187 0
-22 -43 -44 -63 -64 -82 -83 -100 -101 -117 -118 -133 -134 -146 -149 -160 -161 -186 -187 0
-23 -43 -45 -63 -64 -82 -83 -100 -101 -117 -118 -133 -134 -146 -149 -160 -161 -186 -187 0
-23 -44 -45 -63 -65 -82 -83 -100 -101 -117 -118 -133 -134 -146 -149 -160 -161 -186 -187 0
-23 -44 -45 -64 -65 -82 -84 -100 -101 -117 -118 -133 -134 -146 -149 -160 -161 -186 -187 0
-23 -44 -45 -64 -65 -83 -84 -100 -102 -117 -118 -133 -134 -146 -149 -160 -161 -186 -187 0
-23 -44 -45 -64 -65 -83 -84 -101 -102 -117 -119 -133 -134 -146 -149 -160 -161 -186 -187 0
-23 -44 -45 -64 -65 -83 -84 -101 -102 -118 -119 -133 -135 -146 -149 -160 -161 -186 -187 0
-23 -44 -45 -64 -65 -83 -84 -101 -102 -118 -119 -134 -135 -146 -150 -160 -161 -186 -187 0
-21 -42 -43 -62 -63 -81 -82 -99 -100 -116 -117 -132 -133 -147 -148 -160 -162 -186 -187 0
-22 -42 -44 -62 -63 -81 -82 -99 -100 -116 -117 -132 -133 -147 -148 -160 -162 -186 -187 0
-23 -42 -45 -62 -63 -81 -82 -99 -100 -116 -117 -132 -133 -147 -148 -160 -162 -186 -187 0
-22 -43 -44 -62 -64 -81 -82 -99 -100 -116 -117 -132 -133 -147 -148 -160 -162 -186 -187 0
-23 -43 -45 -62 -64 -81 -82 -99 -100 -116 -117 -132 -133 -147 -148 -160 -162 -186 -187 0
-23 -44 -45 -62 -65 -81 -82 -99 -100 -116 -117 -132 -133 -147 -148 -160 -162 -186 -187 0
-22 -43 -44 -63 -64 -81 -83 -99 -100 -116 -117 -132 -133 -147 -148 -160 -162 -186 -187 0
-23 -43 -45 -63 -64 -81 -83 -99 -100 -116 -117 -132 -133 -147 -148 -160 -162 -186 -187 0
-23 -44 -45 -63 -65 -81 -83 -99 -100 -116 -117 -132 -133 -147 -148 -160 -162 -186 -187 0
-23 -44 -45 -64 -65 -81 -84 -99 -100 -116 -117 -132 -133 -147 -148 -160 -162 -186 -187 0
-22 -43 -44 -63 -64 -82 -83 -99 -101 -116 -117 -132 -133 -147 -148 -160 -162 -186 -187 0
-23 -43 -45 -63 -64 -82 -83 -99 -101 -116 -117 -132 -133 -147 -148 -160 -162 -186 -187 0
-23 -44 -45 -63 -65 -82 -83 -99 -101 -116 -117 -132 -133 -147 -148 -160 -162 -186 -187 0
-23 -44 -45 -64 -65 -82 -84 -99 -101 -116 -117 -132 -133 -147 -148 -160 -162 -186 -187 0
-23 -44 -45 -64 -65 -83 -84 -99 -102 -116 -117 -132 -133 -147 -148 -160 -162 -186 -187 0
-22 -43 -44 -63 -64 -82 -83 -100 -101 -116 -118 -132 -133 -147 -148 -160 -162 -186 -187 0
-23 -43 -45 -63 -64 -82 -83 -100 -101 -116 -118 -132 -133 -147 -148 -160 -162 -186 -187 0
-23 -44 -45 -63 -65 -82 -83 -100 -101 -116 -118 -132 -133 -147 -148 -160 -162 -186 -187 0
-23 -44 -45 -64 -65 -82 -84 -100 -101 -116 -118 -132 -133 -147 -148 -160 -162 -186 -187 0
-23 -44 -45 -64 -65 -83 -84 -100 -102 -116 -118 -132 -133 -147 -148 -160 -162 -186 -187 0
-23 -44 -45 -64 -65 -83 -84 -101 -102 -116 -119 -132 -133 -147 -148 -160 -162 -186 -187 0
-22 -43 -44 -63 -64 -82 -83 -100 -101 -117 -118 -132 -134 -147 -148 -160 -162 -186 -187 0
-23 -43 -45 -63 -64 -82 -83 -100 -101 -117 -118 -132 -134 -147 -148 -160 -162 -186 -187 0
-23 -44 -45 -63 -65 -82 -83 -100 -101 -117 -118 -132 -134 -147 -148 -160 -162 -186 -187 0
-23 -44 -45 -64 -65 -82 -84 -100 -101 -117 -118 -132 -134 -147 -148 -160 -162 -186 -187 0
-23 -44 -45 -64 -65 -83 -84 -100 -102 -117 -118 -132 -134 -147 -148 -160 -162 -186 -187 0
-23 -44 -45 -64 -65 -83 -84 -101 -102 -117 -119 -132 -134 -147 -148 -160 -162 -186 -187 0
-23 -44 -45 -64 -65 -83 -84 -101 -102 -118 -119 -132 -135 -147 -148 -160 -162 -186 -187 0
-22 -43 -44 -63 -64 -82 -83 -100 -101 -117 -118 -133 -134 -147 -149 -160 -162 -186 -187 0
-23 -43 -45 -63 -64 -82 -83 -100 -101 -117 -118 -133 -134 -147 -149 -160 -162 -186 -187 0
-23 -44 -45 -63 -65 -82 -83 -100 -101 -117 -118 -133 -134 -147 -149 -160 -162 -186 -187 0
-23 -44 -45 -64 -65 -82 -84 -100 -101 -117 -118 -133 -134 -147 -149 -160 -162 -186 -187 0
-23 -44 -45 -64 -65 -83 -84 -100 -102 -117 -118 -133 -134 -147 -149 -160 -162 -186 -187 0
-23 -44 -45 -64 -65 -83 -84 -101 -102 -117 -119 -133 -134 -147 -149 -160 -162 -186 -187 0
-23 -44 -45 -64 -65 -83 -84 -101 -102 -118 -119 -133 -135 -147 -149 -160 -162 -186 -187 0
-23 -44 -45 -64 -65 -83 -84 -101 -102 -118 -119 -134 -135 -147 -150 -160 -162 -186 -187 0
-22 -43 -44 -63 -64 -82 -83 -100 -101 -117 -118 -133 -134 -148 -149 -160 -163 -186 -187 0
-23 -43 -45 -63 -64 -82 -83 -100 -101 -117 -118 -133 -134 -148 -149 -160 -163 -186 -187 0
-23 -44 -45 -63 -65 -82 -83 -100 -101 -117 -118 -133 -134 -148 -149 -160 -163 -186 -187 0
-23 -44 -45 -64 -65 -82 -84 -100 -101 -117 -118 -133 -134 -148 -149 -160 -163 -186 -187 0
-23 -44 -45 -64 -65 -83 -84 -100 -102 -117 -118 -133 -134 -148 -149 -160 -163 -186 -187 0
-23 -44 -45 -64 -65 -83 -84 -101 -102 -117 -119 -133 -134 -148 -149 -160 -163 -186 -187 0
-23 -44 -45 -64 -65 -83 -84 -101 -102 -118 -119 -133 -135 -148 -149 -160 -163 -186 -187 0
-23 -44 -45 -64 -65 -83 -84 -101 -102 -118 -119 -134 -135 -148 -150 -160 -163 -186 -187 0
-23 -44 -45 -64 -65 -83 -84 -101 -102 -118 -119 -134 -135 -149 -150 -160 -164 -186 -187 0
-21 -42 -43 -62 -63 -81 -82 -99 -100 -116 -117 -132 -133 -147 -148 -161 -162 -186 -188 0
-22 -42 -44 -62 -63 -81 -82 -99 -100 -116 -117 -132 -133 -147 -148 -161 -162 -186 -188 0
-23 -42 -45 -62 -63 -81 -82 -99 -100 -116 -117 -132 -133 -147 -148 -161 -162 -186 -188 0
-22 -43 -44 -62 -64 -81 -82 -99 -100 -116 -117 -132 -133 -147 -148 -161 -162 -186 -188 0
-23 -43 -45 -62 -64 -81 -82 -99 -100 -116 -117 -132 -133 -147 -148 -161 -162 -186 -188 0
-23 -44 -45 -62 -65 -81 -82 -99 -100 -116 -117 -132 -133 -147 -148 -161 -162 -186 -188 0
-22 -43 -44 -63 -64 -81 -83 -99 -100 -116 -117 -132 -133 -147 -148 -161 -162 -186 -188 0
-23 -43 -45 -63 -64 -81 -83 -99 -100 -116 -117 -132 -133 -147 -148 -161 -162 -186 -188 0
-23 -44 -45 -63 -65 -81 -83 -99 -100 -116 -117 -132 -133 -147 -148 -161 -162 -186 -188 0
-23 -44 -45 -64 -65 -81 -84 -99 -100 -116 -117 -132 -133 -147 -148 -161 -162 -186 -188 0
-22 -43 -44 -63 -64 -82 -83 -99 -101 -116 -117 -132 -133 -147 -148 -161 -162 -186 -188 0
-23 -43 -45 -63 -64 -82 -83 -99 -101 -116 -117 -132 -133 -147 -148 -161 -162 -186 -188 0
-23 -44 -45 -63 -65 -82 -83 -99 -101 -116 -117 -132 -133 -147 -148 -161 -162 -186 -188 0
-23 -44 -45 -64 -65 -82 -84 -99 -101 -116 -117 -132 -133 -147 -148 -161 -162 -186 -188 0
-23 -44 -45 -64 -65 -83 -84 -99 -102 -116 -117 -132 -133 -147 -148 -161 -162 -186 -188 0
-22 -43 -44 -63 -64 -82 -83 -100 -101 -116 -118 -132 -133 -147 -148 -161 -162 -186 -188 0
-23 -43 -45 -63 -64 -82 -83 -100 -101 -116 -118 -132 -133 -147 -148 -161 -162 -186 -188 0
-23 -44 -45 -63 -65 -82 -83 -100 -101 -116 -118 -132 -133 -147 -148 -161 -162 -186 -188 0
-23 -44 -45 -64 -65 -82 -84 -100 -101 -116 -118 -132 -133 -147 -148 -161 -162 -186 -188 0
-23 -44 -45 -64 -65 -83 -84 -100 -102 -116 -118 -132 -133 -147 -148 -161 -162 -186 -188 0
-23 -44 -45 -64 -65 -83 -84 -101 -102 -116 -119 -132 -133 -147 -148 -161 -162 -186 -188 0
-22 -43 -44 -63 -64 -82 -83 -100 -101 -117 -118 -132 -134 -147 -148 -161 -162 -186 -188 0
-23 -43 -45 -63 -64 -82 -83 -100 -101 -117 -118 -132 -134 -147 -148 -161 -162 -186 -188 0
-23 -44 -45 -63 -65 -82 -83 -100 -101 -117 -118 -132 -134 -147 -148 -161 -162 -186 -188 0
-23 -44 -45 -64 -65 -82 -84 -100 -101 -117 -118 -132 -134 -147 -148 -161 -162 -186 -188 0
-23 -44 -45 -64 -65 -83 -84 -100 -102 -117 -118 -132 -134 -147 -148 -161 -162 -186 -188 0
-23 -44 -45 -64 -65 -83 -84 -101 -102 -117 -119 -132 -134 -147 -148 -161 -162 -186 -188 0
-23 -44 -45 -64 -65 -83 -84 -101 -102 -118 -119 -132 -135 -147 -148 -161 -162 -186 -188 0
-22 -43 -44 -63 -64 -82 -83 -100 -101 -117 -118 -133 -134 -147 -149 -161 -162 -186 -188 0
-23 -43 -45 -63 -64 -82 -83 -100 -101 -117 -118 -133 -134 -147 -149 -161 -162 -186 -188 0
-23 -44 -45 -63 -65 -82 -83 -100 -101 -117 -118 -133 -134 -147 -149 -161 -162 -186 -188 0
-23 -44 -45 -64 -65 -82 -84 -100 -101 -117 -118 -133 -134 -147 -149 -161 -162 -186 -188 0
-23 -44 -45 -64 -65 -83 -84 -100 -102 -117 -118 -133 -134 -147 -149 -161 -162 -186 -188 0
-23 -44 -45 -64 -65 -83 -84 -101 -102 -117 -119 -133 -134 -147 -149 -161 -162 -186 -188 0
-23 -44 -45 -64 -65 -83 -84 -101 -102 -118 -119 -133 -135 -147 -149 -161 -162 -186 -188 0
-23 -44 -45 -64 -65 -83 -84 -101 -102 -118 -119 -134 -135 -147 -150 -161 -162 -186 -188 0
-22 -43 -44 -63 -64 -82 -83 -100 -101 -117 -118 -133 -134 -148 -149 -161 -163 -186 -188 0
-23 -43 -45 -63 -64 -82 -83 -100 -101 -117 -118 -133 -134 -148 -149 -161 -163 -186 -188 0
-23 -44 -45 -63 -65 -82 -83 -100 -101 -117 -118 -133 -134 -148 -149 -161 -163 -186 -188 0
-23 -44 -45 -64 -65 -82 -84 -100 -101 -117 -118 -133 -134 -148 -149 -161 -163 -186 -188 0
-23 -44 -45 -64 -65 -83 -84 -100 -102 -117 -118 -133 -134 -148 -149 -161 -163 -186 -188 0
-23 -44 -45 -64 -65 -83 -84 -101 -102 -117 -119 -133 -134 -148 -149 -161 -163 -186 -188 0
-23 -44 -45 -64 -65 -83 -84 -101 -102 -118 -119 -133 -135 -148 -149 -161 -163 -186 -188 0
-23 -44 -45 -64 -65 -83 -84 -101 -102 -118 -119 -134 -135 -148 -150 -161 -163 -186 -188 0
-23 -44 -45 -64 -65 -83 -84 -101 -102 -118 -119 -134 -135 -149 -150 -161 -164 -186 -188 0
-22 -43 -44 -63 -64 -82 -83 -100 -101 -117 -118 -133 -134 -148 -149 -162 -163 -186 -189 0
-23 -43 -45 -63 -64 -82 -83 -100 -101 -117 -118 -133 -134 -148 -149 -162 -163 -186 -189 0
-23 -44 -45 -63 -65 -82 -83 -100 -101 -117 -118 -133 -134 -148 -149 -162 -163 -186 -189 0
-23 -44 -45 -64 -65 -82 -84 -100 -101 -117 -118 -133 -134 -148 -149 -162 -163 -186 -189 0
-23 -44 -45 -64 -65 -83 -84 -100 -102 -117 -118 -133 -134 -148 -149 -162 -163 -186 -189 0
-23 -44 -45 -64 -65 -83 -84 -101 -102 -117 -119 -133 -134 -148 -149 -162 -163 -186 -189 0
-23 -44 -45 -64 -65 -83 -84 -101 -102 -118 -119 -133 -135 -148 -149 -162 -163 -186 -189 0
-23 -44 -45 -64 -65 -83 -84 -101 -102 -118 -119 -134 -135 -148 -150 -162 -163 -186 -189 0
-23 -44 -45 -64 -65 -83 -84 -101 -102 -118 -119 -134 -135 -149 -150 -162 -164 -186 -189 0
-23 -44 -45 -64 -65 -83 -84 -101 -102 -118 -119 -134 -135 -149 -150 -163 -164 -186 -190 0
-21 -42 -43 -62 -63 -81 -82 -99 -100 -116 -117 -132 -133 -147 -148 -161 -162 -187 -188 0
-22 -42 -44 -62 -63 -81 -82 -99 -100 -116 -117 -132 -133 -147 -148 -161 -162 -187 -188 0
-23 -42 -45 -62 -63 -81 -82 -99 -100 -116 -117 -132 -133 -147 -148 -161 -162 -187 -188 0
-22 -43 -44 -62 -64 -81 -82 -99 -100 -116 -117 -132 -133 -147 -148 -161 -162 -187 -188 0
-23 -43 -45 -62 -64 -81 -82 -99 -100 -116 -117 -132 -133 -147 -148 -161 -162 -187 -188 0
-23 -44 -45 -62 -65 -81 -82 -99 -100 -116 -117 -132 -133 -147 -148 -161 -162 -187 -188 0
-22 -43 -44 -63 -64 -81 -83 -99 -100 -116 -117 -132 -133 -147 -148 -161 -162 -187 -188 0
-23 -43 -45 -63 -64 -81 -83 -99 -100 -116 -117 -132 -133 -147 -148 -161 -162 -187 -188 0
-23 -44 -45 -63 -65 -81 -83 -99 -100 -116 -117 -132 -133 -147 -148 -161 -162 -187 -188 0
-23 -44 -45 -64 -65 -81 -84 -99 -100 -116 -117 -132 -133 -147 -148 -161 -162 -187 -188 0
-22 -43 -44 -63 -64 -82 -83 -99 -101 -116 -117 -132 -133 -147 -148 -161 -162 -187 -188 0
-23 -43 -45 -63 -64 -82 -83 -99 -101 -116 -117 -132 -133 -147 -148 -161 -162 -187 -188 0
-23 -44 -45 -63 -65 -82 -83 -99 -101 -116 -117 -132 -133 -147 -148 -161 -162 -187 -188 0
-23 -44 -45 -64 -65 -82 -84 -99 -101 -116 -117 -132 -133 -147 -148 -161 -162 -187 -188 0
-23 -44 -45 -64 -65 -83 -84 -99 -102 -116 -117 -132 -133 -147 -148 -161 -162 -187 -188 0
-22 -43 -44 -63 -64 -82 -83 -100 -101 -116 -118 -132 -133 -147 -148 -161 -162 -187 -188 0
-23 -43 -45 -63 -64 -82 -83 -100 -101 -116 -118 -132 -133 -147 -148 -161 -162 -187 -188 0
-23 -44 -45 -63 -65 -82 -83 -100 -101 -116 -118 -132 -133 -147 -148 -161 -162 -187 -188 0
-23 -44 -45 -64 -65 -82 -84 -100 -101 -116 -118 -132 -133 -147 -148 -161 -162 -187 -188 0
-23 -44 -45 -64 -65 -83 -84 -100 -102 -116 -118 -132 -133 -147 -148 -161 -162 -187 -188 0
-23 -44 -45 -64 -65 -83 -84 -101 -102 -116 -119 -132 -133 -147 -148 -161 -162 -187 -188 0
-22 -43 -44 -63 -64 -82 -83 -100 -101 -117 -118 -132 -134 -147 -148 -161 -162 -187 -188 0
-23 -43 -45 -63 -64 -82 -83 -100 -101 -117 -118 -132 -134 -147 -148 -161 -162 -187 -188 0
-23 -44 -45 -63 -65 -82 -83 -100 -101 -117 -118 -132 -134 -147 -148 -161 -162 -187 -188 0
-23 -44 -45 -64 -65 -82 -84 -100 -101 -117 -118 -132 -134 -147 -148 -161 -162 -187 -188 0
-23 -44 -45 -64 -65 -83 -84 -100 -102 -117 -118 -132 -134 -147 -148 -161 -162 -187 -188 0
-23 -44 -45 -64 -65 -83 -84 -101 -102 -117 -119 -132 -134 -147 -148 -161 -162 -187 -188 0
-23 -44 -45 -64 -65 -83 -84 -101 -102 -118 -119 -132 -135 -147 -148 -161 -162 -187 -188 0
-22 -43 -44 -63 -64 -82 -83 -100 -101 -117 -118 -133 -134 -147 -149 -161 -162 -187 -188 0
-23 -43 -45 -63 -64 -82 -83 -100 -101 -117 -118 -133 -134 -147 -149 -161 -162 -187 -188 0
-23 -44 -45 -63 -65 -82 -83 -100 -101 -117 -118 -133 -134 -147 -149 -161 -162 -187 -188 0
-23 -44 -45 -64 -65 -82 -84 -100 -101 -117 -118 -133 -134 -147 -149 -161 -162 -187 -188 0
-23 -44 -45 -64 -65 -83 -84 -100 -102 -117 -118 -133 -134 -147 -149 -161 -162 -187 -188 0
-23 -44 -45 -64 -65 -83 -84 -101 -102 -117 -119 -133 -134 -147 -149 -161 -162 -187 -188 0
-23 -44 -45 -64 -65 -83 -84 -101 -102 -118 -119 -133 -135 -147 -149 -161 -162 -187 -188 0
-23 -44 -45 -64 -65 -83 -84 -101 -102 -118 -119 -134 -135 -147 -150 -161 -162 -187 -188 0
-22 -43 -44 -63 -64 -82 -83 -100 -101 -117 -118 -133 -134 -148 -149 -161 -163 -187 -188 0
-23 -43 -45 -63 -64 -82 -83 -100 -101 -117 -118 -133 -134 -148 -149 -161 -163 -187 -188 0
-23 -44 -45 -63 -65 -82 -83 -100 -101 -117 -118 -133 -134 -148 -149 -161 -163 -187 -188 0
-23 -44 -45 -64 -65 -82 -84 -100 -101 -117 -118 -133 -134 -148 -149 -161 -163 -187 -188 0
-23 -44 -45 -64 -65 -83 -84 -100 -102 -117 -118 -133 -134 -148 -149 -161 -163 -187 -188 0
-23 -44 -45 -64 -65 -83 -84 -101 -102 -117 -119 -133 -134 -148 -149 -161 -163 -187 -188 0
-23 -44 -45 -64 -65 -83 -84 -101 -102 -118 -119 -133 -135 -148 -149 -161 -163 -187 -188 0
-23 -44 -45 -64 -65 -83 -84 -101 -102 -118 -119 -134 -135 -148 -150 -161 -163 -187 -188 0
-23 -44 -45 -64 -65 -83 -84 -101 -102 -118 -119 -134 -135 -149 -150 -161 -164 -187 -188 0
-22 -43 -44 -63 -64 -82 -83 -100 -101 -117 -118 -133 -134 -148 -149 -162 -163 -187 -189 0
-23 -43 -45 -63 -64 -82 -83 -100 -101 -117 -118 -133 -134 -148 -149 -162 -163 -187 -189 0
-23 -44 -45 -63 -65 -82 -83 -100 -101 -117 -118 -133 -134 -148 -149 -162 -163 -187 -189 0
-23 -44 -45 -64 -65 -82 -84 -100 -101 -117 -118 -133 -134 -148 -149 -162 -163 -187 -189 0
-23 -44 -45 -64 -65 -83 -84 -100 -102 -117 -118 -133 -134 -148 -149 -162 -163 -187 -189 0
-23 -44 -45 -64 -65 -83 -84 -101 -102 -117 -119 -133 -134 -148 -149 -162 -163 -187 -189 0
-23 -44 -45 -64 -65 -83 -84 -101 -102 -118 -119 -133 -135 -148 -149 -162 -163 -187 -189 0
-23 -44 -45 -64 -65 -83 -84 -101 -102 -118 -119 -134 -135 -148 -150 -162 -163 -187 -189 0
-23 -44 -45 -64 -65 -83 -84 -101 -102 -118 -119 -134 -135 -149 -150 -162 -164 -187 -189 0
-23 -44 -45 -64 -65 -83 -84 -101 -102 -118 -119 -134 -135 -149 -150 -163 -164 -187 -190 0
-22 -43 -44 -63 -64 -82 -83 -100 -101 -117 -118 -133 -134 -148 -149 -162 -163 -188 -189 0
-23 -43 -45 -63 -64 -82 -83 -100 -101 -117 -118 -133 -134 -148 -149 -162 -163 -188 -189 0
-23 -44 -45 -63 -65 -82 -83 -100 -101 -117 -118 -133 -134 -148 -149 -162 -163 -188 -189 0
-23 -44 -45 -64 -65 -82 -84 -100 -101 -117 -118 -133 -134 -148 -149 -162 -163 -188 -189 0
-23 -44 -45 -64 -65 -83 -84 -100 -102 -117 -118 -133 -134 -148 -149 -162 -163 -188 -189 0
-23 -44 -45 -64 -65 -83 -84 -101 -102 -117 -119 -133 -134 -148 -149 -162 -163 -188 -189 0
-23 -44 -45 -64 -65 -83 -84 -101 -102 -118 -119 -133 -135 -148 -149 -162 -163 -188 -189 0
-23 -44 -45 -64 -65 -83 -84 -101 -102 -118 -119 -134 -135 -148 -150 -162 -163 -188 -189 0
-23 -44 -45 -64 -65 -83 -84 -101 -102 -118 -119 -134 -135 -149 -150 -162 -164 -188 -189 0
-23 -44 -45 -64 -65 -83 -84 -101 -102 -118 -119 -134 -135 -149 -150 -163 -164 -188 -190 0
-23 -44 -45 -64 -65 -83 -84 -101 -102 -118 -119 -134 -135 -149 -150 -163 -164 -189 -190 0
-21 -42 -43 -62 -63 -81 -82 -99 -100 -116 -117 -132 -133 -147 -148 -161 -162 -199 -200 0
-22 -42 -44 -62 -63 -81 -82 -99 -100 -116 -117 -132 -133 -147 -148 -161 -162 -199 -200 0
-23 -42 -45 -62 -63 -81 -82 -99 -100 -116 -117 -132 -133 -147 -148 -161 -162 -199 -200 0
-22 -43 -44 -62 -64 -81 -82 -99 -100 -116 -117 -132 -133 -147 -148 -161 -162 -199 -200 0
-23 -43 -45 -62 -64 -81 -82 -99 -100 -116 -117 -132 -133 -147 -148 -161 -162 -199 -200 0
-23 -44 -45 -62 -65 -81 -82 -99 -100 -116 -117 -132 -133 -147 -148 -161 -162 -199 -200 0
-22 -43 -44 -63 -64 -81 -83 -99 -100 -116 -117 -132 -133 -147 -148 -161 -162 -199 -200 0
-23 -43 -45 -63 -64 -81 -83 -99 -100 -116 -117 -132 -133 -147 -148 -161 -162 -199 -200 0
-23 -44 -45 -63 -65 -81 -83 -99 -100 -116 -117 -132 -133 -147 -148 -161 -162 -199 -200 0
-23 -44 -45 -64 -65 -81 -84 -99 -100 -116 -117 -132 -133 -147 -148 -161 -162 -199 -200 0
-22 -43 -44 -63 -64 -82 -83 -99 -101 -116 -117 -132 -133 -147 -148 -161 -162 -199 -200 0
-23 -43 -45 -63 -64 -82 -83 -99 -101 -116 -117 -132 -133 -147 -148 -161 -162 -199 -200 0
-23 -44 -45 -63 -65 -82 -83 -99 -101 -116 -117 -132 -133 -147 -148 -161 -162 -199 -200 0
-23 -44 -45 -64 -65 -82 -84 -99 -101 -116 -117 -132 -133 -147 -148 -161 -162 -199 -200 0
-23 -44 -45 -64 -65 -83 -84 -99 -102 -116 -117 -132 -133 -147 -148 -161 -162 -199 -200 0
-22 -43 -44 -63 -64 -82 -83 -100 -101 -116 -118 -132 -133 -147 -148 -161 -162 -199 -200 0
-23 -43 -45 -63 -64 -82 -83 -100 -101 -116 -118 -132 -133 -147 -148 -161 -162 -199 -200 0
-23 -44 -45 -63 -65 -82 -83 -100 -101 -116 -118 -132 -133 -147 -148 -161 -162 -199 -200 0
-23 -44 -45 -64 -65 -82 -84 -100 -101 -116 -118 -132 -133 -147 -148 -161 -162 -199 -200 0
-23 -44 -45 -64 -65 -83 -84 -100 -102 -116 -118 -132 -133 -147 -148 -161 -162 -199 -200 0
-23 -44 -45 -64 -65 -83 -84 -101 -102 -116 -119 -132 -133 -147 -148 -161 -162 -199 -200 0
-22 -43 -44 -63 -64 -82 -83 -100 -101 -117 -118 -132 -134 -147 -148 -161 -162 -199 -200 0
-23 -43 -45 -63 -64 -82 -83 -100 -101 -117 -118 -132 -134 -147 -148 -161 -162 -199 -200 0
-23 -44 -45 -63 -65 -82 -83 -100 -101 -117 -118 -132 -134 -147 -148 -161 -162 -199 -200 0
-23 -44 -45 -64 -65 -82 -84 -100 -101 -117 -118 -132 -134 -147 -148 -161 -162 -199 -200 0
-23 -44 -45 -64 -65 -83 -84 -100 -102 -117 -118 -132 -134 -147 -148 -161 -162 -199 -200 0
-23 -44 -45 -64 -65 -83 -84 -101 -102 -117 -119 -132 -134 -147 -148 -161 -162 -199 -200 0
-23 -44 -45 -64 -65 -83 -84 -101 -102 -118 -119 -132 -135 -147 -148 -161 -162 -199 -200 0
-22 -43 -44 -63 -64 -82 -83 -100 -101 -117 -118 -133 -134 -147 -149 -161 -162 -199 -200 0
-23 -43 -45 -63 -64 -82 -83 -100 -101 -117 -118 -133 -134 -147 -149 -161 -162 -199 -200 0
-23 -44 -45 -63 -65 -82 -83 -100 -101 -117 -118 -133 -134 -147 -149 -161 -162 -199 -200 0
-23 -44 -45 -64 -65 -82 -84 -100 -101 -117 -118 -133 -134 -147 -149 -161 -162 -199 -200 0
-23 -44 -45 -64 -65 -83 -84 -100 -102 -117 -118 -133 -134 -147 -149 -161 -162 -199 -200 0
-23 -44 -45 -64 -65 -83 -84 -101 -102 -117 -119 -133 -134 -147 -149 -161 -162 -199 -200 0
-23 -44 -45 -64 -65 -83 -84 -101 -102 -118 -119 -133 -135 -147 -149 -161 -162 -199 -200 0
-23 -44 -45 -64 -65 -83 -84 -101 -102 -118 -119 -134 -135 -147 -150 -161 -162 -199 -200 0
-22 -43 -44 -63 -64 -82 -83 -100 -101 -117 -118 -133 -134 -148 -149 -161 -163 -199 -200 0
-23 -43 -45 -63 -64 -82 -83 -100 -101 -117 -118 -133 -134 -148 -149 -161 -163 -199 -200 0
-23 -44 -45 -63 -65 -82 -83 -100 -101 -117 -118 -133 -134 -148 -149 -161 -163 -199 -200 0
-23 -44 -45 -64 -65 -82 -84 -100 -101 -117 -118 -133 -134 -148 -149 -161 -163 -199 -200 0
-23 -44 -45 -64 -65 -83 -84 -100 -102 -117 -118 -133 -134 -148 -149 -161 -163 -199 -200 0
-23 -44 -45 -64 -65 -83 -84 -101 -102 -117 -119 -133 -134 -148 -149 -161 -163 -199 -200 0
-23 -44 -45 -64 -65 -83 -84 -101 -102 -118 -119 -133 -135 -148 -149 -161 -163 -199 -200 0
-23 -44 -45 -64 -65 -83 -84 -101 -102 -118 -119 -134 -135 -148 -150 -161 -163 -199 -200 0
-23 -44 -45 -64 -65 -83 -84 -101 -102 -118 -119 -134 -135 -149 -150 -161 -164 -199 -200 0
-22 -43 -44 -63 -64 -82 -83 -100 -101 -117 -118 -133 -134 -148 -149 -162 -163 -199 -201 0
-23 -43 -45 -63 -64 -82 -83 -100 -101 -117 -118 -133 -134 -148 -149 -162 -163 -199 -201 0
-23 -44 -45 -63 -65 -82 -83 -100 -101 -117 -118 -133 -134 -148 -149 -162 -163 -199 -201 0
-23 -44 -45 -64 -65 -82 -84 -100 -101 -117 -118 -133 -134 -148 -149 -162 -163 -199 -201 0
-23 -44 -45 -64 -65 -83 -84 -100 -102 -117 -118 -133 -134 -148 -149 -162 -163 -199 -201 0
-23 -44 -45 -64 -65 -83 -84 -101 -102 -117 -119 -133 -134 -148 -149 -162 -163 -199 -201 0
-23 -44 -45 -64 -65 -83 -84 -101 -102 -118 -119 -133 -135 -148 -149 -162 -163 -199 -201 0
-23 -44 -45 -64 -65 -83 -84 -101 -102 -118 -119 -134 -135 -148 -150 -162 -163 -199 -201 0
-23 -44 -45 -64 -65 -83 -84 -101 -102 -118 -119 -134 -135 -149 -150 -162 -164 -199 -201 0
-23 -44 -45 -64 -65 -83 -84 -101 -102 -118 -119 -134 -135 -149 -150 -163 -164 -199 -202 0
-22 -43 -44 -63 -64 -82 -83 -100 -101 -117 -118 -133 -134 -148 -149 -162 -163 -200 -201 0
-23 -43 -45 -63 -64 -82 -83 -100 -101 -117 -118 -133 -134 -148 -149 -162 -163 -200 -201 0
-23 -44 -45 -63 -65 -82 -83 -100 -101 -117 -118 -133 -134 -148 -149 -162 -163 -200 -201 0
-23 -44 -45 -64 -65 -82 -84 -100 -101 -117 -118 -133 -134 -148 -149 -162 -163 -200 -201 0
-23 -44 -45 -64 -65 -83 -84 -100 -102 -117 -118 -133 -134 -148 -149 -162 -163 -200 -201 0
-23 -44 -45 -64 -65 -83 -84 -101 -102 -117 -119 -133 -134 -148 -149 -162 -163 -200 -201 0
-23 -44 -45 -64 -65 -83 -84 -101 -102 -118 -119 -133 -135 -148 -149 -162 -163 -200 -201 0
-23 -44 -45 -64 -65 -83 -84 -101 -102 -118 -119 -134 -135 -148 -150 -162 -163 -200 -201 0
-23 -44 -45 -64 -65 -83 -84 -101 -102 -118 -119 -134 -135 -149 -150 -162 -164 -200 -201 0
-23 -44 -45 -64 -65 -83 -84 -101 -102 -118 -119 -134 -135 -149 -150 -163 -164 -200 -202 0
-23 -44 -45 -64 -65 -83 -84 -101 -102 -118 -119 -134 -135 -149 -150 -163 -164 -201 -202 0
-22 -43 -44 -63 -64 -82 -83 -100 -101 -117 -118 -133 -134 -148 -149 -162 -163 -211 -212 0
-23 -43 -45 -63 -64 -82 -83 -100 -101 -117 -118 -133 -134 -148 -149 -162 -163 -211 -212 0
-23 -44 -45 -63 -65 -82 -83 -100 -101 -117 -118 -133 -134 -148 -149 -162 -163 -211 -212 0
-23 -44 -45 -64 -65 -82 -84 -100 -101 -117 -118 -133 -134 -148 -149 -162 -163 -211 -212 0
-23 -44 -45 -64 -65 -83 -84 -100 -102 -117 -118 -133 -134 -148 -149 -162 -163 -211 -212 0
-23 -44 -45 -64 -65 -83 -84 -101 -102 -117 -119 -133 -134 -148 -149 -162 -163 -211 -212 0
-23 -44 -45 -64 -65 -83 -84 -101 -102 -118 -119 -133 -135 -148 -149 -162 -163 -211 -212 0
-23 -44 -45 -64 -65 -83 -84 -101 -102 -118 -119 -134 -135 -148 -150 -162 -163 -211 -212 0
-23 -44 -45 -64 -65 -83 -84 -101 -102 -118 -119 -134 -135 -149 -150 -162 -164 -211 -212 0
-23 -44 -45 -64 -65 -83 -84 -101 -102 -118 -119 -134 -135 -149 -150 -163 -164 -211 -213 0
-23 -44 -45 -64 -65 -83 -84 -101 -102 -118 -119 -134 -135 -149 -150 -163 -164 -212 -213 0
-23 -44 -45 -64 -65 -83 -84 -101 -102 -118 -119 -134 -135 -149 -150 -163 -164 -222 -223 0
-20 -41 -42 -61 -62 -80 -81 -98 -99 -115 -116 -131 -132 -146 -147 -174 -175 -186 -187 0
-21 -41 -43 -61 -62 -80 -81 -98 -99 -115 -116 -131 -132 -146 -147 -174 -175 -186 -187 0
-22 -41 -44 -61 -62 -80 -81 -98 -99 -115 -116 -131 -132 -146 -147 -174 -175 -186 -187 0
-23 -41 -45 -61 -62 -80 -81 -98 -99 -115 -116 -131 -132 -146 -147 -174 -175 -186 -187 0
-21 -42 -43 -61 -63 -80 -81 -98 -99 -115 -116 -131 -132 -146 -147 -174 -175 -186 -187 0
-22 -42 -44 -61 -63 -80 -81 -98 -99 -115 -116 -131 -132 -146 -147 -174 -175 -186 -187 0
-23 -42 -45 -61 -63 -80 -81 -98 -99 -115 -116 -131 -132 -146 -147 -174 -175 -186 -187 0
-22 -43 -44 -61 -64 -80 -81 -98 -99 -115 -116 -131 -132 -146 -147 -174 -175 -186 -187 0
-23 -43 -45 -61 -64 -80 -81 -98 -99 -115 -116 -131 -132 -146 -147 -174 -175 -186 -187 0
-23 -44 -45 -61 -65 -80 -81 -98 -99 -115 -116 -131 -132 -146 -147 -174 -175 -186 -187 0
-21 -42 -43 -62 -63 -80 -82 -98 -99 -115 -116 -131 -132 -146 -147 -174 -175 -186 -187 0
-22 -42 -44 -62 -63 -80 -82 -98 -99 -115 -116 -131 -132 -146 -147 -174 -175 -186 -187 0
-23 -42 -45 -62 -63 -80 -82 -98 -99 -115 -116 -131 -132 -146 -147 -174 -175 -186 -187 0
-22 -43 -44 -62 -64 -80 -82 -98 -99 -115 -116 -131 -132 -146 -147 -174 -175 -186 -187 0
-23 -43 -45 -62 -64 -80 -82 -98 -99 -115 -116 -131 -132 -146 -147 -174 -175 -186 -187 0
-23 -44 -45 -62 -65 -80 -82 -98 -99 -115 -116 -131 -132 -146 -147 -174 -175 -186 -187 0
-22 -43 -44 -63 -64 -80 -83 -98 -99 -115 -116 -131 -132 -146 -147 -174 -175 -186 -187 0
-23 -43 -45 -63 -64 -80 -83 -98 -99 -115 -116 -131 -132 -146 -147 -174 -175 -186 -187 0
-23 -44 -45 -63 -65 -80 -83 -98 -99 -115 -116 -131 -132 -146 -147 -174 -175 -186 -187 0
-23 -44 -45 -64 -65 -80 -84 -98 -99 -115 -116 -131 -132 -146 -147 -174 -175 -186 -187 0
-21 -42 -43 -62 -63 -81 -82 -98 -100 -115 -116 -131 -132 -146 -147 -174 -175 -186 -187 0
-22 -42 -44 -62 -63 -81 -82 -98 -100 -115 -116 -131 -132 -146 -147 -174 -175 -186 -187 0
-23 -42 -45 -62 -63 -81 -82 -98 -100 -115 -116 -131 -132 -146 -147 -174 -175 -186 -187 0
-22 -43 -44 -62 -64 -81 -82 -98 -100 -115 -116 -131 -132 -146 -147 -174 -175 -186 -187 0
-23 -43 -45 -62 -64 -81 -82 -98 -100 -115 -116 -131 -132 -146 -147 -174 -175 -186 -187 0
-23 -44 -45 -62 -65 -81 -82 -98 -100 -115 -116 -131 -132 -146 -147 -174 -175 -186 -187 0
-22 -43 -44 -63 -64 -81 -83 -98 -100 -115 -116 -131 -132 -146 -147 -174 -175 -186 -187 0
-23 -43 -45 -63 -64 -81 -83 -98 -100 -115 -116 -131 -132 -146 -147 -174 -175 -186 -187 0
-23 -44 -45 -63 -65 -81 -83 -98 -100 -115 -116 -131 -132 -146 -147 -174 -175 -186 -187 0
-23 -44 -45 -64 -65 -81 -84 -98 -100 -115 -116 -131 -132 -146 -147 -174 -175 -186 -187 0
-22 -43 -44 -63 -64 -82 -83 -98 -101 -115 -116 -131 -132 -146 -147 -174 -175 -186 -187 0
-23 -43 -45 -63 -64 -82 -83 -98 -101 -115 -116 -131 -132 -146 -147 -174 -175 -186 -187 0
-23 -44 -45 -63 -65 -82 -83 -98 -101 -115 -116 -131 -132 -146 -147 -174 -175 -186 -187 0
-23 -44 -45 -64 -65 -82 -84 -98 -101 -115 -116 -131 -132 -146 -147 -174 -175 -186 -187 0
-23 -44 -45 -64 -65 -83 -84 -98 -102 -115 -116 -131 -132 -146 -147 -174 -175 -186 -187 0
-21 -42 -43 -62 -63 -81 -82 -99 -100 -115 -117 -131 -132 -146 -147 -174 -175 -186 -187 0
-22 -42 -44 -62 -63 -81 -82 -99 -100 -115 -117 -131 -132 -146 -147 -174 -175 -186 -187 0
-23 -42 -45 -62 -63 -81 -82 -99 -100 -115 -117 -131 -132 -146 -147 -174 -175 -186 -187 0
-22 -43 -44 -62 -64 -81 -82 -99 -100 -115 -117 -131 -132 -146 -147 -174 -175 -186 -187 0
-23 -43 -45 -62 -64 -81 -82 -99 -100 -115 -117 -131 -132 -146 -147 -174 -175 -186 -187 0
-23 -44 -45 -62 -65 -81 -82 -99 -100 -115 -117 -131 -132 -146 -147 -174 -175 -186 -187 0
-22 -43 -44 -63 -64 -81 -83 -99 -100 -115 -117 -131 -132 -146 -147 -174 -175 -186 -187 0
-23 -43 -45 -63 -64 -81 -83 -99 -100 -115 -117 -131 -132 -146 -147 -174 -175 -186 -187 0
-23 -44 -45 -63 -65 -81 -83 -99 -100 -115 -117 -131 -132 -146 -147 -174 -175 -186 -187 0
-23 -44 -45 -64 -65 -81 -84 -99 -100 -115 -117 -131 -132 -146 -147 -174 -175 -186 -187 0
-22 -43 -44 -63 -64 -82 -83 -99 -101 -115 -117 -131 -132 -146 -147 -174 -175 -186 -187 0
-23 -43 -45 -63 -64 -82 -83 -99 -101 -115 -117 -131 -132 -146 -147 -174 -175 -186 -187 0
-23 -44 -45 -63 -65 -82 -83 -99 -101 -115 -117 -131 -132 -146 -147 -174 -175 -186 -187 0
-23 -44 -45 -64 -65 -82 -84 -99 -101 -115 -117 -131 -132 -146 -147 -174 -175 -186 -187 0
-23 -44 -45 -64 -65 -83 -84 -99 -102 -115 -117 -131 -132 -146 -147 -174 -175 -186 -187 0
-22 -43 -44 -63 -64 -82 -83 -100 -101 -115 -118 -131 -132 -146 -147 -174 -175 -186 -187 0
-23 -43 -45 -63 -64 -82 -83 -100 -101 -115 -118 -131 -132 -146 -147 -174 -175 -186 -187 0
-23 -44 -45 -63 -65 -82 -83 -100 -101 -115 -118 -131 -132 -146 -147 -174 -175 -186 -187 0
-23 -44 -45 -64 -65 -82 -84 -100 -101 -115 -118 -131 -132 -146 -147 -174 -175 -186 -187 0
-23 -44 -45 -64 -65 -83 -84 -100 -102 -115 -118 -131 -132 -146 -147 -174 -175 -186 -187 0
-23 -44 -45 -64 -65 -83 -84 -101 -102 -115 -119 -131 -132 -146 -147 -174 -175 -186 -187 0
-21 -42 -43 -62 -63 -81 -82 -99 -100 -116 -117 -131 -133 -146 -147 -174 -175 -186 -187 0
-22 -42 -44 -62 -63 -81 -82 -99 -100 -116 -117 -131 -133 -146 -147 -174 -175 -186 -187 0
-23 -42 -45 -62 -63 -81 -82 -99 -100 -116 -117 -131 -133 -146 -147 -174 -175 -186 -187 0
-22 -43 -44 -62 -64 -81 -82 -99 -100 -116 -117 -131 -133 -146 -147 -174 -175 -186 -187 0
-23 -43 -45 -62 -64 -81 -82 -99 -100 -116 -117 -131 -133 -146 -147 -174 -175 -186 -187 0
-23 -44 -45 -62 -65 -81 -82 -99 -100 -116 -117 -131 -133 -146 -147 -174 -175 -186 -187 0
-22 -43 -44 -63 -64 -81 -83 -99 -100 -116 -117 -131 -133 -146 -147 -174 -175 -186 -187 0
-23 -43 -45 -63 -64 -81 -83 -99 -100 -116 -117 -131 -133 -146 -147 -174 -175 -186 -187 0
-23 -44 -45 -63 -65 -81 -83 -99 -100 -116 -117 -131 -133 -146 -147 -174 -175 -186 -187 0
-23 -44 -45 -64 -65 -81 -84 -99 -100 -116 -117 -131 -133 -146 -147 -174 -175 -186 -187 0
-22 -43 -44 -63 -64 -82 -83 -99 -101 -116 -117 -131 -133 -146 -147 -174 -175 -186 -187 0
-23 -43 -45 -63 -64 -82 -83 -99 -101 -116 -117 -131 -133 -146 -147 -174 -175 -186 -187 0
-23 -44 -45 -63 -65 -82 -83 -99 -101 -116 -117 -131 -133 -146 -147 -174 -175 -186 -187 0
-23 -44 -45 -64 -65 -82 -84 -99 -101 -116 -117 -131 -133 -146 -147 -174 -175 -186 -187 0
-23 -44 -45 -64 -65 -83 -84 -99 -102 -116 -117 -131 -133 -146 -147 -174 -175 -186 -187 0
-22 -43 -44 -63 -64 -82 -83 -100 -101 -116 -118 -131 -133 -146 -147 -174 -175 -186 -187 0
-23 -43 -45 -63 -64 -82 -83 -100 -101 -116 -118 -131 -133 -146 -147 -174 -175 -186 -187 0
-23 -44 -45 -63 -65 -82 -83 -100 -101 -116 -118 -131 -133 -146 -147 -174 -175 -186 -187 0
-23 -44 -45 -64 -65 -82 -84 -100 -101 -116 -118 -131 -133 -146 -147 -174 -175 -186 -187 0
-23 -44 -45 -64 -65 -83 -84 -100 -102 -116 -118 -131 -133 -146 -147 -174 -175 -186 -187 0
-23 -44 -45 -64 -65 -83 -84 -101 -102 -116 -119 -131 -133 -146 -147 -174 -175 -186 -187 0
-22 -43 -44 -63 -64 -82 -83 -100 -101 -117 -118 -131 -134 -146 -147 -174 -175 -186 -187 0
-23 -43 -45 -63 -64 -82 -83 -100 -101 -117 -118 -131 -134 -146 -147 -174 -175 -186 -187 0
-23 -44 -45 -63 -65 -82 -83 -100 -101 -117 -118 -131 -134 -146 -147 -174 -175 -186 -187 0
-23 -44 -45 -64 -65 -82 -84 -100 -101 -117 -118 -131 -134 -146 -147 -174 -175 -186 -187 0
-23 -44 -45 -64 -65 -83 -84 -100 -102 -117 -118 -131 -134 -146 -147 -174 -175 -186 -187 0
-23 -44 -45 -64 -65 -83 -84 -101 -102 -117 -119 -131 -134 -146 -147 -174 -175 -186 -187 0
-23 -44 -45 -64 -65 -83 -84 -101 -102 -118 -119 -131 -135 -146 -147 -174 -175 -186 -187 0
-21 -42 -43 -62 -63 -81 -82 -99 -100 -116 -117 -132 -133 -146 -148 -174 -175 -186 -187 0
-22 -42 -44 -62 -63 -81 -82 -99 -100 -116 -117 -132 -133 -146 -148 -174 -175 -186 -187 0
-23 -42 -45 -62 -63 -81 -82 -99 -100 -116 -117 -132 -133 -146 -148 -174 -175 -186 -187 0
-22 -43 -44 -62 -64 -81 -82 -99 -100 -116 -117 -132 -133 -146 -148 -174 -175 -186 -187 0
-23 -43 -45 -62 -64 -81 -82 -99 -100 -116 -117 -132 -133 -146 -148 -174 -175 -186 -187 0
-23 -44 -45 -62 -65 -81 -82 -99 -100 -116 -117 -132 -133 -146 -148 -174 -175 -186 -187 0
-22 -43 -44 -63 -64 -81 -83 -99 -100 -116 -117 -132 -133 -146 -148 -174 -175 -186 -187 0
-23 -43 -45 -63 -64 -81 -83 -99 -100 -116 -117 -132 -133 -146 -148 -174 -175 -186 -187 0
-23 -44 -45 -63 -65 -81 -83 -99 -100 -116 -117 -132 -133 -146 -148 -174 -175 -186 -187 0
-23 -44 -45 -64 -65 -81 -84 -99 -100 -116 -117 -132 -133 -146 -148 -174 -175 -186 -187 0
-22 -43 -44 -63 -64 -82 -83 -99 -101 -116 -117 -132 -133 -146 -148 -174 -175 -186 -187 0
-23 -43 -45 -63 -64 -82 -83 -99 -101 -116 -117 -132 -133 -146 -148 -174 -175 -186 -187 0
-23 -44 -45 -63 -65 -82 -83 -99 -101 -116 -117 -132 -133 -146 -148 -174 -175 -186 -187 0
-23 -44 -45 -64 -65 -82 -84 -99 -101 -116 -117 -132 -133 -146 -148 -174 -175 -186 -187 0
-23 -44 -45 -64 -65 -83 -84 -99 -102 -116 -117 -132 -133 -146 -148 -174 -175 -186 -187 0
-22 -43 -44 -63 -64 -82 -83 -100 -101 -116 -118 -132 -133 -146 -148 -174 -175 -186 -187 0
-23 -43 -45 -63 -64 -82 -83 -100 -101 -116 -118 -132 -133 -146 -148 -174 -175 -186 -187 0
-23 -44 -45 -63 -65 -82 -83 -100 -101 -116 -118 -132 -133 -146 -148 -174 -175 -186 -187 0
-23 -44 -45 -64 -65 -82 -84 -100 -101 -116 -118 -132 -133 -146 -148 -174 -175 -186 -187 0
-23 -44 -45 -64 -65 -83 -84 -100 -102 -116 -118 -132 -133 -146 -148 -174 -175 -186 -187 0
-23 -44 -45 -64 -65 -83 -84 -101 -102 -116 -119 -132 -133 -146 -148 -174 -175 -186 -187 0
-22 -43 -44 -63 -64 -82 -83 -100 -101 -117 -118 -132 -134 -146 -148 -174 -175 -186 -187 0
-23 -43 -45 -63 -64 -82 -83 -100 -101 -117 -118 -132 -134 -146 -148 -174 -175 -186 -187 0
-23 -44 -45 -63 -65 -82 -83 -100 -101 -117 -118 -132 -134 -146 -148 -174 -175 -186 -187 0
-23 -44 -45 -64 -65 -82 -84 -100 -101 -117 -118 -132 -134 -146 -148 -174 -175 -186 -187 0
-23 -44 -45 -64 -65 -83 -84 -100 -102 -117 -118 -132 -134 -146 -148 -174 -175 -186 -187 0
-23 -44 -45 -64 -65 -83 -84 -101 -102 -117 -119 -132 -134 -146 -148 -174 -175 -186 -187 0
-23 -44 -45 -64 -65 -83 -84 -101 -102 -118 -119 -132 -135 -146 -148 -174 -175 -186 -187 0
-22 -43 -44 -63 -64 -82 -83 -100 -101 -117 -118 -133 -134 -146 -149 -174 -175 -186 -187 0
-23 -43 -45 -63 -64 -82 -83 -100 -101 -117 -118 -133 -134 -146 -149 -174 -175 -186 -187 0
-23 -44 -45 -63 -65 -82 -83 -100 -101 -117 -118 -133 -134 -146 -149 -174 -175 -186 -187 0
-23 -44 -45 -64 -65 -82 -84 -100 -101 -117 -118 -133 -134 -146 -149 -174 -175 -186 -187 0
-23 -44 -45 -64 -65 -83 -84 -100 -102 -117 -118 -133 -134 -146 -149 -174 -175 -186 -187 0
-23 -44 -45 -64 -65 -83 -84 -101 -102 -117 -119 -133 -134 -146 -149 -174 -175 -186 -187 0
-23 -44 -45 -64 -65 -83 -84 -101 -102 -118 -119 -133 -135 -146 -149 -174 -175 -186 -187 0
-23 -44 -45 -64 -65 -83 -84 -101 -102 -118 -119 -134 -135 -146 -150 -174 -175 -186 -187 0
-21 -42 -43 -62 -63 -81 -82 -99 -100 -116 -117 -132 -133 -147 -148 -174 -176 -186 -187 0
-22 -42 -44 -62 -63 -81 -82 -99 -100 -116 -117 -132 -133 -147 -148 -174 -176 -186 -187 0
-23 -42 -45 -62 -63 -81 -82 -99 -100 -116 -117 -132 -133 -147 -148 -174 -176 -186 -187 0
-22 -43 -44 -62 -64 -81 -82 -99 -100 -116 -117 -132 -133 -147 -148 -174 -176 -186 -187 0
-23 -43 -45 -62 -64 -81 -82 -99 -100 -116 -117 -132 -133 -147 -148 -174 -176 -186 -187 0
-23 -44 -45 -62 -65 -81 -82 -99 -100 -116 -117 -132 -133 -147 -148 -174 -176 -186 -187 0
-22 -43 -44 -63 -64 -81 -83 -99 -100 -116 -117 -132 -133 -147 -148 -174 -176 -186 -187 0
-23 -43 -45 -63 -64 -81 -83 -99 -100 -116 -117 -132 -133 -147 -148 -174 -176 -186 -187 0
-23 -44 -45 -63 -65 -81 -83 -99 -100 -116 -117 -132 -133 -147 -148 -174 -176 -186 -187 0
-23 -44 -45 -64 -65 -81 -84 -99 -100 -116 -117 -132 -133 -147 -148 -174 -176 -186 -187 0
-22 -43 -44 -63 -64 -82 -83 -99 -101 -116 -117 -132 -133 -147 -148 -174 -176 -186 -187 0
-23 -43 -45 -63 -64 -82 -83 -99 -101 -116 -117 -132 -133 -147 -148 -174 -176 -186 -187 0
-23 -44 -45 -63 -65 -82 -83 -99 -101 -116 -117 -132 -133 -147 -148 -174 -176 -186 -187 0
-23 -44 -45 -64 -65 -82 -84 -99 -101 -116 -117 -132 -133 -147 -148 -174 -176 -186 -187 0
-23 -44 -45 -64 -65 -83 -84 -99 -102 -116 -117 -132 -133 -147 -148 -174 -176 -186 -187 0
-22 -43 -44 -63 -64 -82 -83 -100 -101 -116 -118 -132 -133 -147 -148 -174 -176 -186 -187 0
-23 -43 -45 -63 -64 -82 -83 -100 -101 -116 -118 -132 -133 -147 -148 -174 -176 -186 -187 0
-23 -44 -45 -63 -65 -82 -83 -100 -101 -116 -118 -132 -133 -147 -148 -174 -176 -186 -187 0
-23 -44 -45 -64 -65 -82 -84 -100 -101 -116 -118 -132 -133 -147 -148 -174 -176 -186 -187 0
-23 -44 -45 -64 -65 -83 -84 -100 -102 -116 -118 -132 -133 -147 -148 -174 -176 -186 -187 0
-23 -44 -45 -64 -65 -83 -84 -101 -102 -116 -119 -132 -133 -147 -148 -174 -176 -186 -187 0
-22 -43 -44 -63 -64 -82 -83 -100 -101 -117 -118 -132 -134 -147 -148 -174 -176 -186 -187 0
-23 -43 -45 -63 -64 -82 -83 -100 -101 -117 -118 -132 -134 -147 -148 -174 -176 -186 -187 0
-23 -44 -45 -63 -65 -82 -83 -100 -101 -117 -118 -132 -134 -147 -148 -174 -176 -186 -187 0
-23 -44 -45 -64 -65 -82 -84 -100 -101 -117 -118 -132 -134 -147 -148 -174 -176 -186 -187 0
-23 -44 -45 -64 -65 -83 -84 -100 -102 -117 -118 -132 -134 -147 -148 -174 -176 -186 -187 0
-23 -44 -45 -64 -65 -83 -84 -101 -102 -117 -119 -132 -134 -147 -148 -174 -176 -186 -187 0
-23 -44 -45 -64 -65 -83 -84 -101 -102 -118 -119 -132 -135 -147 -148 -174 -176 -186 -187 0
-22 -43 -44 -63 -64 -82 -83 -100 -101 -117 -118 -133 -134 -147 -149 -174 -176 -186 -187 0
-23 -43 -45 -63 -64 -82 -83 -100 -101 -117 -118 -133 -134 -147 -149 -174 -176 -186 -187 0
-23 -44 -45 -63 -65 -82 -83 -100 -101 -117 -118 -133 -134 -147 -149 -174 -176 -186 -187 0
-23 -44 -45 -64 -65 -82 -84 -100 -101 -117 -118 -133 -134 -147 -149 -174 -176 -186 -187 0
-23 -44 -45 -64 -65 -83 -84 -100 -102 -117 -118 -133 -134 -147 -149 -174 -176 -186 -187 0
-23 -44 -45 -64 -65 -83 -84 -101 -102 -117 -119 -133 -134 -147 -149 -174 -176 -186 -187 0
-23 -44 -45 -64 -65 -83 -84 -101 -102 -118 -119 -133 -135 -147 -149 -174 -176 -186 -187 0
-23 -44 -45 -64 -65 -83 -84 -101 -102 -118 -119 -134 -135 -147 -150 -174 -176 -186 -187 0
-22 -43 -44 -63 -64 -82 -83 -100 -101 -117 -118 -133 -134 -148 -149 -174 -177 -186 -187 0
-23 -43 -45 -63 -64 -82 -83 -100 -101 -117 -118 -133 -134 -148 -149 -174 -177 -186 -187 0
-23 -44 -45 -63 -65 -82 -83 -100 -101 -117 -118 -133 -134 -148 -149 -174 -177 -186 -187 0
-23 -44 -45 -64 -65 -82 -84 -100 -101 -117 -118 -133 -134 -148 -149 -174 -177 -186 -187 0
-23 -44 -45 -64 -65 -83 -84 -100 -102 -117 -118 -133 -134 -148 -149 -174 -177 -186 -187 0
-23 -44 -45 -64 -65 -83 -84 -101 -102 -117 -119 -133 -134 -148 -149 -174 -177 -186 -187 0
-23 -44 -45 -64 -65 -83 -84 -101 -102 -118 -119 -133 -135 -148 -149 -174 -177 -186 -187 0
-23 -44 -45 -64 -65 -83 -84 -101 -102 -118 -119 -134 -135 -148 -150 -174 -177 -186 -187 0
-23 -44 -45 -64 -65 -83 -84 -101 -102 -118 -119 -134 -135 -149 -150 -174 -178 -186 -187 0
-21 -42 -43 -62 -63 -81 -82 -99 -100 -116 -117 -132 -133 -147 -148 -175 -176 -186 -188 0
-22 -42 -44 -62 -63 -81 -82 -99 -100 -116 -117 -132 -133 -147 -148 -175 -176 -186 -188 0
-23 -42 -45 -62 -63 -81 -82 -99 -100 -116 -117 -132 -133 -147 -148 -175 -176 -186 -188 0
-22 -43 -44 -62 -64 -81 -82 -99 -100 -116 -117 -132 -133 -147 -148 -175 -176 -186 -188 0
-23 -43 -45 -62 -64 -81 -82 -99 -100 -116 -117 -132 -133 -147 -148 -175 -176 -186 -188 0
-23 -44 -45 -62 -65 -81 -82 -99 -100 -116 -117 -132 -133 -147 -148 -175 -176 -186 -188 0
-22 -43 -44 -63 -64 -81 -83 -99 -100 -116 -117 -132 -133 -147 -148 -175 -176 -186 -188 0
-23 -43 -45 -63 -64 -81 -83 -99 -100 -116 -117 -132 -133 -147 -148 -175 -176 -186 -188 0
-23 -44 -45 -63 -65 -81 -83 -99 -100 -116 -117 -132 -133 -147 -148 -175 -176 -186 -188 0
-23 -44 -45 -64 -65 -81 -84 -99 -100 -116 -117 -132 -133 -147 -148 -175 -176 -186 -188 0
-22 -43 -44 -63 -64 -82 -83 -99 -101 -116 -117 -132 -133 -147 -148 -175 -176 -186 -188 0
-23 -43 -45 -63 -64 -82 -83 -99 -101 -116 -117 -132 -133 -147 -148 -175 -176 -186 -188 0
-23 -44 -45 -63 -65 -82 -83 -99 -101 -116 -117 -132 -133 -147 -148 -175 -176 -186 -188 0
-23 -44 -45 -64 -65 -82 -84 -99 -101 -116 -117 -132 -133 -147 -148 -175 -176 -186 -188 0
-23 -44 -45 -64 -65 -83 -84 -99 -102 -116 -117 -132 -133 -147 -148 -175 -176 -186 -188 0
-22 -43 -44 -63 -64 -82 -83 -100 -101 -116 -118 -132 -133 -147 -148 -175 -176 -186 -188 0
-23 -43 -45 -63 -64 -82 -83 -100 -101 -116 -118 -132 -133 -147 -148 -175 -176 -186 -188 0
-23 -44 -45 -63 -65 -82 -83 -100 -101 -116 -118 -132 -133 -147 -148 -175 -176 -186 -188 0
-23 -44 -45 -64 -65 -82 -84 -100 -101 -116 -118 -132 -133 -147 -148 -175 -176 -186 -188 0
-23 -44 -45 -64 -65 -83 -84 -100 -102 -116 -118 -132 -133 -147 -148 -175 -176 -186 -188 0
-23 -44 -45 -64 -65 -83 -84 -101 -102 -116 -119 -132 -133 -147 -148 -175 -176 -186 -188 0
-22 -43 -44 -63 -64 -82 -83 -100 -101 -117 -118 -132 -134 -147 -148 -175 -176 -186 -188 0
-23 -43 -45 -63 -64 -82 -83 -100 -101 -117 -118 -132 -134 -147 -148 -175 -176 -186 -188 0
-23 -44 -45 -63 -65 -82 -83 -100 -101 -117 -118 -132 -134 -147 -148 -175 -176 -186 -188 0
-23 -44 -45 -64 -65 -82 -84 -100 -101 -117 -118 -132 -134 -147 -148 -175 -176 -186 -188 0
-23 -44 -45 -64 -65 -83 -84 -100 -102 -117 -118 -132 -134 -147 -148 -175 -176 -186 -188 0
-23 -44 -45 -64 -65 -83 -84 -101 -102 -117 -119 -132 -134 -147 -148 -175 -176 -186 -188 0
-23 -44 -45 -64 -65 -83 -84 -101 -102 -118 -119 -132 -135 -147 -148 -175 -176 -186 -188 0
-22 -43 -44 -63 -64 -82 -83 -100 -101 -117 -118 -133 -134 -147 -149 -175 -176 -186 -188 0
-23 -43 -45 -63 -64 -82 -83 -100 -101 -117 -118 -133 -134 -147 -149 -175 -176 -186 -188 0
-23 -44 -45 -63 -65 -82 -83 -100 -101 -117 -118 -133 -134 -147 -149 -175 -176 -186 -188 0
-23 -44 -45 -64 -65 -82 -84 -100 -101 -117 -118 -133 -134 -147 -149 -175 -176 -186 -188 0
-23 -44 -45 -64 -65 -83 -84 -100 -102 -117 -118 -133 -134 -147 -149 -175 -176 -186 -188 0
-23 -44 -45 -64 -65 -83 -84 -101 -102 -117 -119 -133 -134 -147 -149 -175 -176 -186 -188 0
-23 -44 -45 -64 -65 -83 -84 -101 -102 -118 -119 -133 -135 -147 -149 -175 -176 -186 -188 0
-23 -44 -45 -64 -65 -83 -84 -101 -102 -118 -119 -134 -135 -147 -150 -175 -176 -186 -188 0
-22 -43 -44 -63 -64 -82 -83 -100 -101 -117 -118 -133 -134 -148 -149 -175 -177 -186 -188 0
-23 -43 -45 -63 -64 -82 -83 -100 -101 -117 -118 -133 -134 -148 -149 -175 -177 -186 -188 0
-23 -44 -45 -63 -65 -82 -83 -100 -101 -117 -118 -133 -134 -148 -149 -175 -177 -186 -188 0
-23 -44 -45 -64 -65 -82 -84 -100 -101 -117 -118 -133 -134 -148 -149 -175 -177 -186 -188 0
-23 -44 -45 -64 -65 -83 -84 -100 -102 -117 -118 -133 -134 -148 -149 -175 -177 -186 -188 0
-23 -44 -45 -64 -65 -83 -84 -101 -102 -117 -119 -133 -134 -148 -149 -175 -177 -186 -188 0
-23 -44 -45 -64 -65 -83 -84 -101 -102 -118 -119 -133 -135 -148 -149 -175 -177 -186 -188 0
-23 -44 -45 -64 -65 -83 -84 -101 -102 -118 -119 -134 -135 -148 -150 -175 -177 -186 -188 0
-23 -44 -45 -64 -65 -83 -84 -101 -102 -118 -119 -134 -135 -149 -150 -175 -178 -186 -188 0
-22 -43 -44 -63 -64 -82 -83 -100 -101 -117 -118 -133 -134 -148 -149 -176 -177 -186 -189 0
-23 -43 -45 -63 -64 -82 -83 -100 -101 -117 -118 -133 -134 -148 -149 -176 -177 -186 -189 0
-23 -44 -45 -63 -65 -82 -83 -100 -101 -117 -118 -133 -134 -148 -149 -176 -177 -186 -189 0
-23 -44 -45 -64 -65 -82 -84 -100 -101 -117 -118 -133 -134 -148 -149 -176 -177 -186 -189 0
-23 -44 -45 -64 -65 -83 -84 -100 -102 -117 -118 -133 -134 -148 -149 -176 -177 -186 -189 0
-23 -44 -45 -64 -65 -83 -84 -101 -102 -117 -119 -133 -134 -148 -149 -176 -177 -186 -189 0
-23 -44 -45 -64 -65 -83 -84 -101 -102 -118 -119 -133 -135 -148 -149 -176 -177 -186 -189 0
-23 -44 -45 -64 -65 -83 -84 -101 -102 -118 -119 -134 -135 -148 -150 -176 -177 -186 -189 0
-23 -44 -45 -64 -65 -83 -84 -101 -102 -118 -119 -134 -135 -149 -150 -176 -178 -186 -189 0
-23 -44 -45 -64 -65 -83 -84 -101 -102 -118 -119 -134 -135 -149 -150 -177 -178 -186 -190 0
-21 -42 -43 -62 -63 -81 -82 -99 -100 -116 -117 -132 -133 -147 -148 -175 -176 -187 -188 0
-22 -42 -44 -62 -63 -81 -82 -99 -100 -116 -117 -132 -133 -147 -148 -175 -176 -187 -188 0
-23 -42 -45 -62 -63 -81 -82 -99 -100 -116 -117 -132 -133 -147 -148 -175 -176 -187 -188 0
-22 -43 -44 -62 -64 -81 -82 -99 -100 -116 -117 -132 -133 -147 -148 -175 -176 -187 -188 0
-23 -43 -45 -62 -64 -81 -82 -99 -100 -116 -117 -132 -133 -147 -148 -175 -176 -187 -188 0
-23 -44 -45 -62 -65 -81 -82 -99 -100 -116 -117 -132 -133 -147 -148 -175 -176 -187 -188 0
-22 -43 -44 -63 -64 -81 -83 -99 -100 -116 -117 -132 -133 -147 -148 -175 -176 -187 -188 0
-23 -43 -45 -63 -64 -81 -83 -99 -100 -116 -117 -132 -133 -147 -148 -175 -176 -187 -188 0
-23 -44 -45 -63 -65 -81 -83 -99 -100 -116 -117 -132 -133 -147 -148 -175 -176 -187 -188 0
-23 -44 -45 -64 -65 -81 -84 -99 -100 -116 -117 -132 -133 -147 -148 -175 -176 -187 -188 0
-22 -43 -44 -63 -64 -82 -83 -99 -101 -116 -117 -132 -133 -147 -148 -175 -176 -187 -188 0
-23 -43 -45 -63 -64 -82 -83 -99 -101 -116 -117 -132 -133 -147 -148 -175 -176 -187 -188 0
-23 -44 -45 -63 -65 -82 -83 -99 -101 -116 -117 -132 -133 -147 -148 -175 -176 -187 -188 0
-23 -44 -45 -64 -65 -82 -84 -99 -101 -116 -117 -132 -133 -147 -148 -175 -176 -187 -188 0
-23 -44 -45 -64 -65 -83 -84 -99 -102 -116 -117 -132 -133 -147 -148 -175 -176 -187 -188 0
-22 -43 -44 -63 -64 -82 -83 -100 -101 -116 -118 -132 -133 -147 -148 -175 -176 -187 -188 0
-23 -43 -45 -63 -64 -82 -83 -100 -101 -116 -118 -132 -133 -147 -148 -175 -176 -187 -188 0
-23 -44 -45 -63 -65 -82 -83 -100 -101 -116 -118 -132 -133 -147 -148 -175 -176 -187 -188 0
-23 -44 -45 -64 -65 -82 -84 -100 -101 -116 -118 -132 -133 -147 -148 -175 -176 -187 -188 0
-23 -44 -45 -64 -65 -83 -84 -100 -102 -116 -118 -132 -133 -147 -148 -175 -176 -187 -188 0
-23 -44 -45 -64 -65 -83 -84 -101 -102 -116 -119 -132 -133 -147 -148 -175 -176 -187 -188 0
-22 -43 -44 -63 -64 -82 -83 -100 -101 -117 -118 -132 -134 -147 -148 -175 -176 -187 -188 0
-23 -43 -45 -63 -64 -82 -83 -100 -101 -117 -118 -132 -134 -147 -148 -175 -176 -187 -188 0
-23 -44 -45 -63 -65 -82 -83 -100 -101 -117 -118 -132 -134 -147 -148 -175 -176 -187 -188 0
-23 -44 -45 -64 -65 -82 -84 -100 -101 -117 -118 -132 -134 -147 -148 -175 -176 -187 -188 0
-23 -44 -45 -64 -65 -83 -84 -100 -102 -117 -118 -132 -134 -147 -148 -175 -176 -187 -188 0
-23 -44 -45 -64 -65 -83 -84 -101 -102 -117 -119 -132 -134 -147 -148 -175 -176 -187 -188 0
-23 -44 -45 -64 -65 -83 -84 -101 -102 -118 -119 -132 -135 -147 -148 -175 -176 -187 -188 0
-22 -43 -44 -63 -64 -82 -83 -100 -101 -117 -118 -133 -134 -147 -149 -175 -176 -187 -188 0
-23 -43 -45 -63 -64 -82 -83 -100 -101 -117 -118 -133 -134 -147 -149 -175 -176 -187 -188 0
-23 -44 -45 -63 -65 -82 -83 -100 -101 -117 -118 -133 -134 -147 -149 -175 -176 -187 -188 0
-23 -44 -45 -64 -65 -82 -84 -100 -101 -117 -118 -133 -134 -147 -149 -175 -176 -187 -188 0
-23 -44 -45 -64 -65 -83 -84 -100 -102 -117 -118 -133 -134 -147 -149 -175 -176 -187 -188 0
-23 -44 -45 -64 -65 -83 -84 -101 -102 -117 -119 -133 -134 -147 -149 -175 -176 -187 -188 0
-23 -44 -45 -64 -65 -83 -84 -101 -102 -118 -119 -133 -135 -147 -149 -175 -176 -187 -188 0
-23 -44 -45 -64 -65 -83 -84 -101 -102 -118 -119 -134 -135 -147 -150 -175 -176 -187 -188 0
-22 -43 -44 -63 -64 -82 -83 -100 -101 -117 -118 -133 -134 -148 -149 -175 -177 -187 -188 0
-23 -43 -45 -63 -64 -82 -83 -100 -101 -117 -118 -133 -134 -148 -149 -175 -177 -187 -188 0
-23 -44 -45 -63 -65 -82 -83 -100 -101 -117 -118 -133 -134 -148 -149 -175 -177 -187 -188 0
-23 -44 -45 -64 -65 -82 -84 -100 -101 -117 -118 -133 -134 -148 -149 -175 -177 -187 -188 0
-23 -44 -45 -64 -65 -83 -84 -100 -102 -117 -118 -133 -134 -148 -149 -175 -177 -187 -188 0
-23 -44 -45 -64 -65 -83 -84 -101 -102 -117 -119 -133 -134 -148 -149 -175 -177 -187 -188 0
-23 -44 -45 -64 -65 -83 -84 -101 -102 -118 -119 -133 -135 -148 -149 -175 -177 -187 -188 0
-23 -44 -45 -64 -65 -83 -84 -101 -102 -118 -119 -134 -135 -148 -150 -175 -177 -187 -188 0
-23 -44 -45 -64 -65 -83 -84 -101 -102 -118 -119 -134 -135 -149 -150 -175 -178 -187 -188 0
-22 -43 -44 -63 -64 -82 -83 -100 -101 -117 -118 -133 -134 -148 -149 -176 -177 -187 -189 0
-23 -43 -45 -63 -64 -82 -83 -100 -101 -117 -118 -133 -134 -148 -149 -176 -177 -187 -189 0
-23 -44 -45 -63 -65 -82 -83 -100 -101 -117 -118 -133 -134 -148 -149 -176 -177 -187 -189 0
-23 -44 -45 -64 -65 -82 -84 -100 -101 -117 -118 -133 -134 -148 -149 -176 -177 -187 -189 0
-23 -44 -45 -64 -65 -83 -84 -100 -102 -117 -118 -133 -134 -148 -149 -176 -177 -187 -189 0
-23 -44 -45 -64 -65 -83 -84 -101 -102 -117 -119 -133 -134 -148 -149 -176 -177 -187 -189 0
-23 -44 -45 -64 -65 -83 -84 -101 -102 -118 -119 -133 -135 -148 -149 -176 -177 -187 -189 0
-23 -44 -45 -64 -65 -83 -84 -101 -102 -118 -119 -134 -135 -148 -150 -176 -177 -187 -189 0
-23 -44 -45 -64 -65 -83 -84 -101 -102 -118 -119 -134 -135 -149 -150 -176 -178 -187 -189 0
-23 -44 -45 -64 -65 -83 -84 -101 -102 -118 -119 -134 -135 -149 -150 -177 -178 -187 -190 0
-22 -43 -44 -63 -64 -82 -83 -100 -101 -117 -118 -133 -134 -148 -149 -176 -177 -188 -189 0
-23 -43 -45 -63 -64 -82 -83 -100 -101 -117 -118 -133 -134 -148 -149 -176 -177 -188 -189 0
-23 -44 -45 -63 -65 -82 -83 -100 -101 -117 -118 -133 -134 -148 -149 -176 -177 -188 -189 0
-23 -44 -45 -64 -65 -82 -84 -100 -101 -117 -118 -133 -134 -148 -149 -176 -177 -188 -189 0
-23 -44 -45 -64 -65 -83 -84 -100 -102 -117 -118 -133 -134 -148 -149 -176 -177 -188 -189 0
-23 -44 -45 -64 -65 -83 -84 -101 -102 -117 -119 -133 -134 -148 -149 -176 -177 -188 -189 0
-23 -44 -45 -64 -65 -83 -84 -101 -102 -118 -119 -133 -135 -148 -149 -176 -177 -188 -189 0
-23 -44 -45 -64 -65 -83 -84 -101 -102 -118 -119 -134 -135 -148 -150 -176 -177 -188 -189 0
-23 -44 -45 -64 -65 -83 -84 -101 -102 -118 -119 -134 -135 -149 -150 -176 -178 -188 -189 0
-23 -44 -45 -64 -65 -83 -84 -101 -102 -118 -119 -134 -135 -149 -150 -177 -178 -188 -190 0
-23 -44 -45 -64 -65 -83 -84 -101 -102 -118 -119 -134 -135 -149 -150 -177 -178 -189 -190 0
-21 -42 -43 -62 -63 -81 -82 -99 -100 -116 -117 -132 -133 -147 -148 -175 -176 -199 -200 0
-22 -42 -44 -62 -63 -81 -82 -99 -100 -116 -117 -132 -133 -147 -148 -175 -176 -199 -200 0
-23 -42 -45 -62 -63 -81 -82 -99 -100 -116 -117 -132 -133 -147 -148 -175 -176 -199 -200 0
-22 -43 -44 -62 -64 -81 -82 -99 -100 -116 -117 -132 -133 -147 -148 -175 -176 -199 -200 0
-23 -43 -45 -62 -64 -81 -82 -99 -100 -116 -117 -132 -133 -147 -148 -175 -176 -199 -200 0
-23 -44 -45 -62 -65 -81 -82 -99 -100 -116 -117 -132 -133 -147 -148 -175 -176 -199 -200 0
-22 -43 -44 -63 -64 -81 -83 -99 -100 -116 -117 -132 -133 -147 -148 -175 -176 -199 -200 0
-23 -43 -45 -63 -64 -81 -83 -99 -100 -116 -117 -132 -133 -147 -148 -175 -176 -199 -200 0
-23 -44 -45 -63 -65 -81 -83 -99 -100 -116 -117 -132 -133 -147 -148 -175 -176 -199 -200 0
-23 -44 -45 -64 -65 -81 -84 -99 -100 -116 -117 -132 -133 -147 -148 -175 -176 -199 -200 0
-22 -43 -44 -63 -64 -82 -83 -99 -101 -116 -117 -132 -133 -147 -148 -175 -176 -199 -200 0
-23 -43 -45 -63 -64 -82 -83 -99 -101 -116 -117 -132 -133 -147 -148 -175 -176 -199 -200 0
-23 -44 -45 -63 -65 -82 -83 -99 -101 -116 -117 -132 -133 -147 -148 -175 -176 -199 -200 0
-23 -44 -45 -64 -65 -82 -84 -99 -101 -116 -117 -132 -133 -147 -148 -175 -176 -199 -200 0
-23 -44 -45 -64 -65 -83 -84 -99 -102 -116 -117 -132 -133 -147 -148 -175 -176 -199 -200 0
-22 -43 -44 -63 -64 -82 -83 -100 -101 -116 -118 -132 -133 -147 -148 -175 -176 -199 -200 0
-23 -43 -45 -63 -64 -82 -83 -100 -101 -116 -118 -132 -133 -147 -148 -175 -176 -199 -200 0
-23 -44 -45 -63 -65 -82 -83 -100 -101 -116 -118 -132 -133 -147 -148 -175 -176 -199 -200 0
-23 -44 -45 -64 -65 -82 -84 -100 -101 -116 -118 -132 -133 -147 -148 -175 -176 -199 -200 0
-23 -44 -45 -64 -65 -83 -84 -100 -102 -116 -118 -132 -133 -147 -148 -175 -176 -199 -200 0
-23 -44 -45 -64 -65 -83 -84 -101 -102 -116 -119 -132 -133 -147 -148 -175 -176 -199 -200 0
-22 -43 -44 -63 -64 -82 -83 -100 -101 -117 -118 -132 -134 -147 -148 -175 -176 -199 -200 0
-23 -43 -45 -63 -64 -82 -83 -100 -101 -117 -118 -132 -134 -147 -148 -175 -176 -199 -200 0
-23 -44 -45 -63 -65 -82 -83 -100 -101 -117 -118 -132 -134 -147 -148 -175 -176 -199 -200 0
-23 -44 -45 -64 -65 -82 -84 -100 -101 -117 -118 -132 -134 -147 -148 -175 -176 -199 -200 0
-23 -44 -45 -64 -65 -83 -84 -100 -102 -117 -118 -132 -134 -147 -148 -175 -176 -199 -200 0
-23 -44 -45 -64 -65 -83 -84 -101 -102 -117 -119 -132 -134 -147 -148 -175 -176 -199 -200 0
-23 -44 -45 -64 -65 -83 -84 -101 -102 -118 -119 -132 -135 -147 -148 -175 -176 -199 -200 0
-22 -43 -44 -63 -64 -82 -83 -100 -101 -117 -118 -133 -134 -147 -149 -175 -176 -199 -200 0
-23 -43 -45 -63 -64 -82 -83 -100 -101 -117 -118 -133 -134 -147 -149 -175 -176 -199 -200 0
-23 -44 -45 -63 -65 -82 -83 -100 -101 -117 -118 -133 -134 -147 -149 -175 -176 -199 -200 0
-23 -44 -45 -64 -65 -82 -84 -100 -101 -117 -118 -133 -134 -147 -149 -175 -176 -199 -200 0
-23 -44 -45 -64 -65 -83 -84 -100 -102 -117 -118 -133 -134 -147 -149 -175 -176 -199 -200 0
-23 -44 -45 -64 -65 -83 -84 -101 -102 -117 -119 -133 -134 -147 -149 -175 -176 -199 -200 0
-23 -44 -45 -64 -65 -83 -84 -101 -102 -118 -119 -133 -135 -147 -149 -175 -176 -199 -200 0
-23 -44 -45 -64 -65 -83 -84 -101 -102 -118 -119 -134 -135 -147 -150 -175 -176 -199 -200 0
-22 -43 -44 -63 -64 -82 -83 -100 -101 -117 -118 -133 -134 -148 -149 -175 -177 -199 -200 0
-23 -43 -45 -63 -64 -82 -83 -100 -101 -117 -118 -133 -134 -148 -149 -175 -177 -199 -200 0
-23 -44 -45 -63 -65 -82 -83 -100 -101 -117 -118 -133 -134 -148 -149 -175 -177 -199 -200 0
-23 -44 -45 -64 -65 -82 -84 -100 -101 -117 -118 -133 -134 -148 -149 -175 -177 -199 -200 0
-23 -44 -45 -64 -65 -83 -84 -100 -102 -117 -118 -133 -134 -148 -149 -175 -177 -199 -200 0
-23 -44 -45 -64 -65 -83 -84 -101 -102 -117 -119 -133 -134 -148 -149 -175 -177 -199 -200 0
-23 -44 -45 -64 -65 -83 -84 -101 -102 -118 -119 -133 -135 -148 -149 -175 -177 -199 -200 0
-23 -44 -45 -64 -65 -83 -84 -101 -102 -118 -119 -134 -135 -148 -150 -175 -177 -199 -200 0
-23 -44 -45 -64 -65 -83 -84 -101 -102 -118 -119 -134 -135 -149 -150 -175 -178 -199 -200 0
-22 -43 -44 -63 -64 -82 -83 -100 -101 -117 -118 -133 -134 -148 -149 -176 -177 -199 -201 0
-23 -43 -45 -63 -64 -82 -83 -100 -101 -117 -118 -133 -134 -148 -149 -176 -177 -199 -201 0
-23 -44 -45 -63 -65 -82 -83 -100 -101 -117 -118 -133 -134 -148 -149 -176 -177 -199 -201 0
-23 -44 -45 -64 -65 -82 -84 -100 -101 -117 -118 -133 -134 -148 -149 -176 -177 -199 -201 0
-23 -44 -45 -64 -65 -83 -84 -100 -102 -117 -118 -133 -134 -148 -149 -176 -177 -199 -201 0
-23 -44 -45 -64 -65 -83 -84 -101 -102 -117 -119 -133 -134 -148 -149 -176 -177 -199 -201 0
-23 -44 -45 -64 -65 -83 -84 -101 -102 -118 -119 -133 -135 -148 -149 -176 -177 -199 -201 0
-23 -44 -45 -64 -65 -83 -84 -101 -102 -118 -119 -134 -135 -148 -150 -176 -177 -199 -201 0
-23 -44 -45 -64 -65 -83 -84 -101 -102 -118 -119 -134 -135 -149 -150 -176 -178 -199 -201 0
-23 -44 -45 -64 -65 -83 -84 -101 -102 -118 -119 -134 -135 -149 -150 -177 -178 -199 -202 0
-22 -43 -44 -63 -64 -82 -83 -100 -101 -117 -118 -133 -134 -148 -149 -176 -177 -200 -201 0
-23 -43 -45 -63 -64 -82 -83 -100 -101 -117 -118 -133 -134 -148 -149 -176 -177 -200 -201 0
-23 -44 -45 -63 -65 -82 -83 -100 -101 -117 -118 -133 -134 -148 -149 -176 -177 -200 -201 0
-23 -44 -45 -64 -65 -82 -84 -100 -101 -117 -118 -133 -134 -148 -149 -176 -177 -200 -201 0
-23 -44 -45 -64 -65 -83 -84 -100 -102 -117 -118 -133 -134 -148 -149 -176 -177 -200 -201 0
-23 -44 -45 -64 -65 -83 -84 -101 -102 -117 -119 -133 -134 -148 -149 -176 -177 -200 -201 0
-23 -44 -45 -64 -65 -83 -84 -101 -102 -118 -119 -133 -135 -148 -149 -176 -177 -200 -201 0
-23 -44 -45 -64 -65 -83 -84 -101 -102 -118 -119 -134 -135 -148 -150 -176 -177 -200 -201 0
-23 -44 -45 -64 -65 -83 -84 -101 -102 -118 -119 -134 -135 -149 -150 -176 -178 -200 -201 0
-23 -44 -45 -64 -65 -83 -84 -101 -102 -118 -119 -134 -135 -149 -150 -177 -178 -200 -202 0
-23 -44 -45 -64 -65 -83 -84 -101 -102 -118 -119 -134 -135 -149 -150 -177 -178 -201 -202 0
-22 -43 -44 -63 -64 -82 -83 -100 -101 -117 -118 -133 -134 -148 -149 -176 -177 -211 -212 0
-23 -43 -45 -63 -64 -82 -83 -100 -101 -117 -118 -133 -134 -148 -149 -176 -177 -211 -212 0
-23 -44 -45 -63 -65 -82 -83 -100 -101 -117 -118 -133 -134 -148 -149 -176 -177 -211 -212 0
-23 -44 -45 -64 -65 -82 -84 -100 -101 -117 -118 -133 -134 -148 -149 -176 -177 -211 -212 0
-23 -44 -45 -64 -65 -83 -84 -100 -102 -117 -118 -133 -134 -148 -149 -176 -177 -211 -212 0
-23 -44 -45 -64 -65 -83 -84 -101 -102 -117 -119 -133 -134 -148 -149 -176 -177 -211 -212 0
-23 -44 -45 -64 -65 -83 -84 -101 -102 -118 -119 -133 -135 -148 -149 -176 -177 -211 -212 0
-23 -44 -45 -64 -65 -83 -84 -101 -102 -118 -119 -134 -135 -148 -150 -176 -177 -211 -212 0
-23 -44 -45 -64 -65 -83 -84 -101 -102 -118 -119 -134 -135 -149 -150 -176 -178 -211 -212 0
-23 -44 -45 -64 -65 -83 -84 -101 -102 -118 -119 -134 -135 -149 -150 -177 -178 -211 -213 0
-23 -44 -45 -64 -65 -83 -84 -101 -102 -118 -119 -134 -135 -149 -150 -177 -178 -212 -213 0
-23 -44 -45 -64 -65 -83 -84 -101 -102 -118 -119 -134 -135 -149 -150 -177 -178 -222 -223 0
-21 -42 -43 -62 -63 -81 -82 -99 -100 -116 -117 -132 -133 -147 -148 -188 -189 -199 -200 0
-22 -42 -44 -62 -63 -81 -82 -99 -100 -116 -117 -132 -133 -147 -148 -188 -189 -199 -200 0
-23 -42 -45 -62 -63 -81 -82 -99 -100 -116 -117 -132 -133 -147 -148 -188 -189 -199 -200 0
-22 -43 -44 -62 -64 -81 -82 -99 -100 -116 -117 -132 -133 -147 -148 -188 -189 -199 -200 0
-23 -43 -45 -62 -64 -81 -82 -99 -100 -116 -117 -132 -133 -147 -148 -188 -189 -199 -200 0
-23 -44 -45 -62 -65 -81 -82 -99 -100 -116 -117 -132 -133 -147 -148 -188 -189 -199 -200 0
-22 -43 -44 -63 -64 -81 -83 -99 -100 -116 -117 -132 -133 -147 -148 -188 -189 -199 -200 0
-23 -43 -45 -63 -64 -81 -83 -99 -100 -116 -117 -132 -133 -147 -148 -188 -189 -199 -200 0
-23 -44 -45 -63 -65 -81 -83 -99 -100 -116 -117 -132 -133 -147 -148 -188 -189 -199 -200 0
-23 -44 -45 -64 -65 -81 -84 -99 -100 -116 -117 -132 -133 -147 -148 -188 -189 -199 -200 0
-22 -43 -44 -63 -64 -82 -83 -99 -101 -116 -117 -132 -133 -147 -148 -188 -189 -199 -200 0
-23 -43 -45 -63 -64 -82 -83 -99 -101 -116 -117 -132 -133 -147 -148 -188 -189 -199 -200 0
-23 -44 -45 -63 -65 -82 -83 -99 -101 -116 -117 -132 -133 -147 -148 -188 -189 -199 -200 0
-23 -44 -45 -64 -65 -82 -84 -99 -101 -116 -117 -132 -133 -147 -148 -188 -189 -199 -200 0
-23 -44 -45 -64 -65 -83 -84 -99 -102 -116 -117 -132 -133 -147 -148 -188 -189 -199 -200 0
-22 -43 -44 -63 -64 -82 -83 -100 -101 -116 -118 -132 -133 -147 -148 -188 -189 -199 -200 0
-23 -43 -45 -63 -64 -82 -83 -100 -101 -116 -118 -132 -133 -147 -148 -188 -189 -199 -200 0
-23 -44 -45 -63 -65 -82 -83 -100 -101 -116 -118 -132 -133 -147 -148 -188 -189 -199 -200 0
-23 -44 -45 -64 -65 -82 -84 -100 -101 -116 -118 -132 -133 -147 -148 -188 -189 -199 -200 0
-23 -44 -45 -64 -65 -83 -84 -100 -102 -116 -118 -132 -133 -147 -148 -188 -189 -199 -200 0
-23 -44 -45 -64 -65 -83 -84 -101 -102 -116 -119 -132 -133 -147 -148 -188 -189 -199 -200 0
-22 -43 -44 -63 -64 -82 -83 -100 -101 -117 -118 -132 -134 -147 -148 -188 -189 -199 -200 0
-23 -43 -45 -63 -64 -82 -83 -100 -101 -117 -118 -132 -134 -147 -148 -188 -189 -199 -200 0
-23 -44 -45 -63 -65 -82 -83 -100 -101 -117 -118 -132 -134 -147 -148 -188 -189 -199 -200 0
-23 -44 -45 -64 -65 -82 -84 -100 -101 -117 -118 -132 -134 -147 -148 -188 -189 -199 -200 0
-23 -44 -45 -64 -65 -83 -84 -100 -102 -117 -118 -132 -134 -147 -148 -188 -189 -199 -200 0
-23 -44 -45 -64 -65 -83 -84 -101 -102 -117 -119 -132 -134 -147 -148 -188 -189 -199 -200 0
-23 -44 -45 -64 -65 -83 -84 -101 -102 -118 -119 -132 -135 -147 -148 -188 -189 -199 -200 0
-22 -43 -44 -63 -64 -82 -83 -100 -101 -117 -118 -133 -134 -147 -149 -188 -189 -199 -200 0
-23 -43 -45 -63 -64 -82 -83 -100 -101 -117 -118 -133 -134 -147 -149 -188 -189 -199 -200 0
-23 -44 -45 -63 -65 -82 -83 -100 -101 -117 -118 -133 -134 -147 -149 -188 -189 -199 -200 0
-23 -44 -45 -64 -65 -82 -84 -100 -101 -117 -118 -133 -134 -147 -149 -188 -189 -199 -200 0
-23 -44 -45 -64 -65 -83 -84 -100 -102 -117 -118 -133 -134 -147 -149 -188 -189 -199 -200 0
-23 -44 -45 -64 -65 -83 -84 -101 -102 -117 -119 -133 -134 -147 -149 -188 -189 -199 -200 0
-23 -44 -45 -64 -65 -83 -84 -101 -102 -118 -119 -133 -135 -147 -149 -188 -189 -199 -200 0
-23 -44 -45 -64 -65 -83 -84 -101 -102 -118 -119 -134 -135 -147 -150 -188 -189 -199 -200 0
-22 -43 -44 -63 -64 -82 -83 -100 -101 -117 -118 -133 -134 -148 -149 -188 -190 -199 -200 0
-23 -43 -45 -63 -64 -82 -83 -100 -101 -117 -118 -133 -134 -148 -149 -188 -190 -199 -200 0
-23 -44 -45 -63 -65 -82 -83 -100 -101 -117 -118 -133 -134 -148 -149 -188 -190 -199 -200 0
-23 -44 -45 -64 -65 -82 -84 -100 -101 -117 -118 -133 -134 -148 -149 -188 -190 -199 -200 0
-23 -44 -45 -64 -65 -83 -84 -100 -102 -117 -118 -133 -134 -148 -149 -188 -190 -199 -200 0
-23 -44 -45 -64 -65 -83 -84 -101 -102 -117 -119 -133 -134 -148 -149 -188 -190 -199 -200 0
-23 -44 -45 -64 -65 -83 -84 -101 -102 -118 -119 -133 -135 -148 -149 -188 -190 -199 -200 0
-23 -44 -45 -64 -65 -83 -84 -101 -102 -118 -119 -134 -135 -148 -150 -188 -190 -199 -200 0
-23 -44 -45 -64 -65 -83 -84 -101 -102 -118 -119 -134 -135 -149 -150 -188 -191 -199 -200 0
-22 -43 -44 -63 -64 -82 -83 -100 -101 -117 -118 -133 -134 -148 -149 -189 -190 -199 -201 0
-23 -43 -45 -63 -64 -82 -83 -100 -101 -117 -118 -133 -134 -148 -149 -189 -190 -199 -201 0
-23 -44 -45 -63 -65 -82 -83 -100 -101 -117 -118 -133 -134 -148 -149 -189 -190 -199 -201 0
-23 -44 -45 -64 -65 -82 -84 -100 -101 -117 -118 -133 -134 -148 -149 -189 -190 -199 -201 0
-23 -44 -45 -64 -65 -83 -84 -100 -102 -117 -118 -133 -134 -148 -149 -189 -190 -199 -201 0
-23 -44 -45 -64 -65 -83 -84 -101 -102 -117 -119 -133 -134 -148 -149 -189 -190 -199 -201 0
-23 -44 -45 -64 -65 -83 -84 -101 -102 -118 -119 -133 -135 -148 -149 -189 -190 -199 -201 0
-23 -44 -45 -64 -65 -83 -84 -101 -102 -118 -119 -134 -135 -148 -150 -189 -190 -199 -201 0
-23 -44 -45 -64 -65 -83 -84 -101 -102 -118 -119 -134 -135 -149 -150 -189 -191 -199 -201 0
-23 -44 -45 -64 -65 -83 -84 -101 -102 -118 -119 -134 -135 -149 -150 -190 -191 -199 -202 0
-22 -43 -44 -63 -64 -82 -83 -100 -101 -117 -118 -133 -134 -148 -149 -189 -190 -200 -201 0
-23 -43 -45 -63 -64 -82 -83 -100 -101 -117 -118 -133 -134 -148 -149 -189 -190 -200 -201 0
-23 -44 -45 -63 -65 -82 -83 -100 -101 -117 -118 -133 -134 -148 -149 -189 -190 -200 -201 0
-23 -44 -45 -64 -65 -82 -84 -100 -101 -117 -118 -133 -134 -148 -149 -189 -190 -200 -201 0
-23 -44 -45 -64 -65 -83 -84 -100 -102 -117 -118 -133 -134 -148 -149 -189 -190 -200 -201 0
-23 -44 -45 -64 -65 -83 -84 -101 -102 -117 -119 -133 -134 -148 -149 -189 -190 -200 -201 0
-23 -44 -45 -64 -65 -83 -84 -101 -102 -118 -119 -133 -135 -148 -149 -189 -190 -200 -201 0
-23 -44 -45 -64 -65 -83 -84 -101 -102 -118 -119 -134 -135 -148 -150 -189 -190 -200 -201 0
-23 -44 -45 -64 -65 -83 -84 -101 -102 -118 -119 -134 -135 -149 -150 -189 -191 -200 -201 0
-23 -44 -45 -64 -65 -83 -84 -101 -102 -118 -119 -134 -135 -149 -150 -190 -191 -200 -202 0
-23 -44 -45 -64 -65 -83 -84 -101 -102 -118 -119 -134 -135 -149 -150 -190 -191 -201 -202 0
-22 -43 -44 -63 -64 -82 -83 -100 -101 -117 -118 -133 -134 -148 -149 -189 -190 -211 -212 0
-23 -43 -45 -63 -64 -82 -83 -100 -101 -117 -118 -133 -134 -148 -149 -189 -190 -211 -212 0
-23 -44 -45 -63 -65 -82 -83 -100 -101 -117 -118 -133 -134 -148 -149 -189 -190 -211 -212 0
-23 -44 -45 -64 -65 -82 -84 -100 -101 -117 -118 -133 -134 -148 -149 -189 -190 -211 -212 0
-23 -44 -45 -64 -65 -83 -84 -100 -102 -117 -118 -133 -134 -148 -149 -189 -190 -211 -212 0
-23 -44 -45 -64 -65 -83 -84 -101 -102 -117 -119 -133 -134 -148 -149 -189 -190 -211 -212 0
-23 -44 -45 -64 -65 -83 -84 -101 -102 -118 -119 -133 -135 -148 -149 -189 -190 -211 -212 0
-23 -44 -45 -64 -65 -83 -84 -101 -102 -118 -119 -134 -135 -148 -150 -189 -190 -211 -212 0
-23 -44 -45 -64 -65 -83 -84 -101 -102 -118 -119 -134 -135 -149 -150 -189 -191 -211 -212 0
-23 -44 -45 -64 -65 -83 -84 -101 -102 -118 -119 -134 -135 -149 -150 -190 -191 -211 -213 0
-23 -44 -45 -64 -65 -83 -84 -101 -102 -118 -119 -134 -135 -149 -150 -190 -191 -212 -213 0
-23 -44 -45 -64 -65 -83 -84 -101 -102 -118 -119 -134 -135 -149 -150 -190 -191 -222 -223 0
-22 -43 -44 -63 -64 -82 -83 -100 -101 -117 -118 -133 -134 -148 -149 -201 -202 -211 -212 0
-23 -43 -45 -63 -64 -82 -83 -100 -101 -117 -118 -133 -134 -148 -149 -201 -202 -211 -212 0
-23 -44 -45 -63 -65 -82 -83 -100 -101 -117 -118 -133 -134 -148 -149 -201 -202 -211 -212 0
-23 -44 -45 -64 -65 -82 -84 -100 -101 -117 -118 -133 -134 -148 -149 -201 -202 -211 -212 0
-23 -44 -45 -64 -65 -83 -84 -100 -102 -117 -118 -133 -134 -148 -149 -201 -202 -211 -212 0
-23 -44 -45 -64 -65 -83 -84 -101 -102 -117 -119 -133 -134 -148 -149 -201 -202 -211 -212 0
-23 -44 -45 -64 -65 -83 -84 -101 -102 -118 -119 -133 -135 -148 -149 -201 -202 -211 -212 0
-23 -44 -45 -64 -65 -83 -84 -101 -102 -118 -119 -134 -135 -148 -150 -201 -202 -211 -212 0
-23 -44 -45 -64 -65 -83 -84 -101 -102 -118 -119 -134 -135 -149 -150 -201 -203 -211 -212 0
-23 -44 -45 -64 -65 -83 -84 -101 -102 -118 -119 -134 -135 -149 -150 -202 -203 -211 -213 0
-23 -44 -45 -64 -65 -83 -84 -101 -102 -118 -119 -134 -135 -149 -150 -202 -203 -212 -213 0
-23 -44 -45 -64 -65 -83 -84 -101 -102 -118 -119 -134 -135 -149 -150 -202 -203 -222 -223 0
-23 -44 -45 -64 -65 -83 -84 -101 -102 -118 -119 -134 -135 -149 -150 -213 -214 -222 -223 0
-20 -41 -42 -61 -62 -80 -81 -98 -99 -115 -116 -131 -132 -161 -162 -174 -175 -186 -187 0
-21 -41 -43 -61 -62 -80 -81 -98 -99 -115 -116 -131 -132 -161 -162 -174 -175 -186 -187 0
-22 -41 -44 -61 -62 -80 -81 -98 -99 -115 -116 -131 -132 -161 -162 -174 -175 -186 -187 0
-23 -41 -45 -61 -62 -80 -81 -98 -99 -115 -116 -131 -132 -161 -162 -174 -175 -186 -187 0
-21 -42 -43 -61 -63 -80 -81 -98 -99 -115 -116 -131 -132 -161 -162 -174 -175 -186 -187 0
-22 -42 -44 -61 -63 -80 -81 -98 -99 -115 -116 -131 -132 -161 -162 -174 -175 -186 -187 0
-23 -42 -45 -61 -63 -80 -81 -98 -99 -115 -116 -131 -132 -161 -162 -174 -175 -186 -187 0
-22 -43 -44 -61 -64 -80 -81 -98 -99 -115 -116 -131 -132 -161 -162 -174 -175 -186 -187 0
-23 -43 -45 -61 -64 -80 -81 -98 -99 -115 -116 -131 -132 -161 -162 -174 -175 -186 -187 0
-23 -44 -45 -61 -65 -80 -81 -98 -99 -115 -116 -131 -132 -161 -162 -174 -175 -186 -187 0
-21 -42 -43 -62 -63 -80 -82 -98 -99 -115 -116 -131 -132 -161 -162 -174 -175 -186 -187 0
-22 -42 -44 -62 -63 -80 -82 -98 -99 -115 -116 -131 -132 -161 -162 -174 -175 -186 -187 0
-23 -42 -45 -62 -63 -80 -82 -98 -99 -115 -116 -131 -132 -161 -162 -174 -175 -186 -187 0
-22 -43 -44 -62 -64 -80 -82 -98 -99 -115 -116 -131 -132 -161 -162 -174 -175 -186 -187 0
-23 -43 -45 -62 -64 -80 -82 -98 -99 -115 -116 -131 -132 -161 -162 -174 -175 -186 -187 0
-23 -44 -45 -62 -65 -80 -82 -98 -99 -115 -116 -131 -132 -161 -162 -174 -175 -186 -187 0
-22 -43 -44 -63 -64 -80 -83 -98 -99 -115 -116 -131 -132 -161 -162 -174 -175 -186 -187 0
-23 -43 -45 -63 -64 -80 -83 -98 -99 -115 -116 -131 -132 -161 -162 -174 -175 -186 -187 0
-23 -44 -45 -63 -65 -80 -83 -98 -99 -115 -116 -131 -132 -161 -162 -174 -175 -186 -187 0
-23 -44 -45 -64 -65 -80 -84 -98 -99 -115 -116 -131 -132 -161 -162 -174 -175 -186 -187 0
-21 -42 -43 -62 -63 -81 -82 -98 -100 -115 -116 -131 -132 -161 -162 -174 -175 -186 -187 0
-22 -42 -44 -62 -63 -81 -82 -98 -100 -115 -116 -131 -132 -161 -162 -174 -175 -186 -187 0
-23 -42 -45 -62 -63 -81 -82 -98 -100 -115 -116 -131 -132 -161 -162 -174 -175 -186 -187 0
-22 -43 -44 -62 -64 -81 -82 -98 -100 -115 -116 -131 -132 -161 -162 -174 -175 -186 -187 0
-23 -43 -45 -62 -64 -81 -82 -98 -100 -115 -116 -131 -132 -161 -162 -174 -175 -186 -187 0
-23 -44 -45 -62 -65 -81 -82 -98 -100 -115 -116 -131 -132 -161 -162 -174 -175 -186 -187 0
-22 -43 -44 -63 -64 -81 -83 -98 -100 -115 -116 -131 -132 -161 -162 -174 -175 -186 -187 0
-23 -43 -45 -63 -64 -81 -83 -98 -100 -115 -116 -131 -132 -161 -162 -174 -175 -186 -187 0
-23 -44 -45 -63 -65 -81 -83 -98 -100 -115 -116 -131 -132 -161 -162 -174 -175 -186 -187 0
-23 -44 -45 -64 -65 -81 -84 -98 -100 -115 -116 -131 -132 -161 -162 -174 -175 -186 -187 0
-22 -43 -44 -63 -64 -82 -83 -98 -101 -115 -116 -131 -132 -161 -162 -174 -175 -186 -187 0
-23 -43 -45 -63 -64 -82 -83 -98 -101 -115 -116 -131 -132 -161 -162 -174 -175 -186 -187 0
-23 -44 -45 -63 -65 -82 -83 -98 -101 -115 -116 -131 -132 -161 -162 -174 -175 -186 -187 0
-23 -44 -45 -64 -65 -82 -84 -98 -101 -115 -116 -131 -132 -161 -162 -174 -175 -186 -187 0
-23 -44 -45 -64 -65 -83 -84 -98 -102 -115 -116 -131 -132 -161 -162 -174 -175 -186 -187 0
-21 -42 -43 -62 -63 -81 -82 -99 -100 -115 -117 -131 -132 -161 -162 -174 -175 -186 -187 0
-22 -42 -44 -62 -63 -81 -82 -99 -100 -115 -117 -131 -132 -161 -162 -174 -175 -186 -187 0
-23 -42 -45 -62 -63 -81 -82 -99 -100 -115 -117 -131 -132 -161 -162 -174 -175 -186 -187 0
-22 -43 -44 -62 -64 -81 -82 -99 -100 -115 -117 -131 -132 -161 -162 -174 -175 -186 -187 0
-23 -43 -45 -62 -64 -81 -82 -99 -100 -115 -117 -131 -132 -161 -162 -174 -175 -186 -187 0
-23 -44 -45 -62 -65 -81 -82 -99 -100 -115 -117 -131 -132 -161 -162 -174 -175 -186 -187 0
-22 -43 -44 -63 -64 -81 -83 -99 -100 -115 -117 -131 -132 -161 -162 -174 -175 -186 -187 0
-23 -43 -45 -63 -64 -81 -83 -99 -100 -115 -117 -131 -132 -161 -162 -174 -175 -186 -187 0
-23 -44 -45 -63 -65 -81 -83 -99 -100 -115 -117 -131 -132 -161 -162 -174 -175 -186 -187 0
-23 -44 -45 -64 -65 -81 -84 -99 -100 -115 -117 -131 -132 -161 -162 -174 -175 -186 -187 0
-22 -43 -44 -63 -64 -82 -83 -99 -101 -115 -117 -131 -132 -161 -162 -174 -175 -186 -187 0
-23 -43 -45 -63 -64 -82 -83 -99 -101 -115 -117 -131 -132 -161 -162 -174 -175 -186 -187 0
-23 -44 -45 -63 -65 -82 -83 -99 -101 -115 -117 -131 -132 -161 -162 -174 -175 -186 -187 0
-23 -44 -45 -64 -65 -82 -84 -99 -101 -115 -117 -131 -132 -161 -162 -174 -175 -186 -187 0
-23 -44 -45 -64 -65 -83 -84 -99 -102 -115 -117 -131 -132 -161 -162 -174 -175 -186 -187 0
-22 -43 -44 -63 -64 -82 -83 -100 -101 -115 -118 -131 -132 -161 -162 -174 -175 -186 -187 0
-23 -43 -45 -63 -64 -82 -83 -100 -101 -115 -118 -131 -132 -161 -162 -174 -175 -186 -187 0
-23 -44 -45 -63 -65 -82 -83 -100 -101 -115 -118 -131 -132 -161 -162 -174 -175 -186 -187 0
-23 -44 -45 -64 -65 -82 -84 -100 -101 -115 -118 -131 -132 -161 -162 -174 -175 -186 -187 0
-23 -44 -45 -64 -65 -83 -84 -100 -102 -115 -118 -131 -132 -161 -162 -174 -175 -186 -187 0
-23 -44 -45 -64 -65 -83 -84 -101 -102 -115 -119 -131 -132 -161 -162 -174 -175 -186 -187 0
-21 -42 -43 -62 -63 -81 -82 -99 -100 -116 -117 -131 -133 -161 -162 -174 -175 -186 -187 0
-22 -42 -44 -62 -63 -81 -82 -99 -100 -116 -117 -131 -133 -161 -162 -174 -175 -186 -187 0
-23 -42 -45 -62 -63 -81 -82 -99 -100 -116 -117 -131 -133 -161 -162 -174 -175 -186 -187 0
-22 -43 -44 -62 -64 -81 -82 -99 -100 -116 -117 -131 -133 -161 -162 -174 -175 -186 -187 0
-23 -43 -45 -62 -64 -81 -82 -99 -100 -116 -117 -131 -133 -161 -162 -174 -175 -186 -187 0
-23 -44 -45 -62 -65 -81 -82 -99 -100 -116 -117 -131 -133 -161 -162 -174 -175 -186 -187 0
-22 -43 -44 -63 -64 -81 -83 -99 -100 -116 -117 -131 -133 -161 -162 -174 -175 -186 -187 0
-23 -43 -45 -63 -64 -81 -83 -99 -100 -116 -117 -131 -133 -161 -162 -174 -175 -186 -187 0
-23 -44 -45 -63 -65 -81 -83 -99 -100 -116 -117 -131 -133 -161 -162 -174 -175 -186 -187 0
-23 -44 -45 -64 -65 -81 -84 -99 -100 -116 -117 -131 -133 -161 -162 -174 -175 -186 -187 0
-22 -43 -44 -63 -64 -82 -83 -99 -101 -116 -117 -131 -133 -161 -162 -174 -175 -186 -187 0
-23 -43 -45 -63 -64 -82 -83 -99 -101 -116 -117 -131 -133 -161 -162 -174 -175 -186 -187 0
-23 -44 -45 -63 -65 -82 -83 -99 -101 -116 -117 -131 -133 -161 -162 -174 -175 -186 -187 0
-23 -44 -45 -64 -65 -82 -84 -99 -101 -116 -117 -131 -133 -161 -162 -174 -175 -186 -187 0
-23 -44 -45 -64 -65 -83 -84 -99 -102 -116 -117 -131 -133 -161 -162 -174 -175 -186 -187 0
-22 -43 -44 -63 -64 -82 -83 -100 -101 -116 -118 -131 -133 -161 -162 -174 -175 -186 -187 0
-23 -43 -45 -63 -64 -82 -83 -100 -101 -116 -118 -131 -133 -161 -162 -174 -175 -186 -187 0
-23 -44 -45 -63 -65 -82 -83 -100 -101 -116 -118 -131 -133 -161 -162 -174 -175 -186 -187 0
-23 -44 -45 -64 -65 -82 -84 -100 -101 -116 -118 -131 -133 -161 -162 -174 -175 -186 -187 0
-23 -44 -45 -64 -65 -83 -84 -100 -102 -116 -118 -131 -133 -161 -162 -174 -175 -186 -187 0
-23 -44 -45 -64 -65 -83 -84 -101 -102 -116 -119 -131 -133 -161 -162 -174 -175 -186 -187 0
-22 -43 -44 -63 -64 -82 -83 -100 -101 -117 -118 -131 -134 -161 -162 -174 -175 -186 -187 0
-23 -43 -45 -63 -64 -82 -83 -100 -101 -117 -118 -131 -134 -161 -162 -174 -175 -186 -187 0
-23 -44 -45 -63 -65 -82 -83 -100 -101 -117 -118 -131 -134 -161 -162 -174 -175 -186 -187 0
-23 -44 -45 -64 -65 -82 -84 -100 -101 -117 -118 -131 -134 -161 -162 -174 -175 -186 -187 0
-23 -44 -45 -64 -65 -83 -84 -100 -102 -117 -118 -131 -134 -161 -162 -174 -175 -186 -187 0
-23 -44 -45 -64 -65 -83 -84 -101 -102 -117 -119 -131 -134 -161 -162 -174 -175 -186 -187 0
-23 -44 -45 -64 -65 -83 -84 -101 -102 -118 -119 -131 -135 -161 -162 -174 -175 -186 -187 0
-21 -42 -43 -62 -63 -81 -82 -99 -100 -116 -117 -132 -133 -161 -163 -174 -175 -186 -187 0
-22 -42 -44 -62 -63 -81 -82 -99 -100 -116 -117 -132 -133 -161 -163 -174 -175 -186 -187 0
-23 -42 -45 -62 -63 -81 -82 -99 -100 -116 -117 -132 -133 -161 -163 -174 -175 -186 -187 0
-22 -43 -44 -62 -64 -81 -82 -99 -100 -116 -117 -132 -133 -161 -163 -174 -175 -186 -187 0
-23 -43 -45 -62 -64 -81 -82 -99 -100 -116 -117 -132 -133 -161 -163 -174 -175 -186 -187 0
-23 -44 -45 -62 -65 -81 -82 -99 -100 -116 -117 -132 -133 -161 -163 -174 -175 -186 -187 0
-22 -43 -44 -63 -64 -81 -83 -99 -100 -116 -117 -132 -133 -161 -163 -174 -175 -186 -187 0
-23 -43 -45 -63 -64 -81 -83 -99 -100 -116 -117 -132 -133 -161 -163 -174 -175 -186 -187 0
-23 -44 -45 -63 -65 -81 -83 -99 -100 -116 -117 -132 -133 -161 -163 -174 -175 -186 -187 0
-23 -44 -45 -64 -65 -81 -84 -99 -100 -116 -117 -132 -133 -161 -163 -174 -175 -186 -187 0
-22 -43 -44 -63 -64 -82 -83 -99 -101 -116 -117 -132 -133 -161 -163 -174 -175 -186 -187 0
-23 -43 -45 -63 -64 -82 -83 -99 -101 -116 -117 -132 -133 -161 -163 -174 -175 -186 -187 0
-23 -44 -45 -63 -65 -82 -83 -99 -101 -116 -117 -132 -133 -161 -163 -174 -175 -186 -187 0
-23 -44 -45 -64 -65 -82 -84 -99 -101 -116 -117 -132 -133 -161 -163 -174 -175 -186 -187 0
-23 -44 -45 -64 -65 -83 -84 -99 -102 -116 -117 -132 -133 -161 -163 -174 -175 -186 -187 0
-22 -43 -44 -63 -64 -82 -83 -100 -101 -116 -118 -132 -133 -161 -163 -174 -175 -186 -187 0
-23 -43 -45 -63 -64 -82 -83 -100 -101 -116 -118 -132 -133 -161 -163 -174 -175 -186 -187 0
-23 -44 -45 -63 -65 -82 -83 -100 -101 -116 -118 -132 -133 -161 -163 -174 -175 -186 -187 0
-23 -44 -45 -64 -65 -82 -84 -100 -101 -116 -118 -132 -133 -161 -163 -174 -175 -186 -187 0
-23 -44 -45 -64 -65 -83 -84 -100 -102 -116 -118 -132 -133 -161 -163 -174 -175 -186 -187 0
-23 -44 -45 -64 -65 -83 -84 -101 -102 -116 -119 -132 -133 -161 -163 -174 -175 -186 -187 0
-22 -43 -44 -63 -64 -82 -83 -100 -101 -117 -118 -132 -134 -161 -163 -174 -175 -186 -187 0
-23 -43 -45 -63 -64 -82 -83 -100 -101 -117 -118 -132 -134 -161 -163 -174 -175 -186 -187 0
-23 -44 -45 -63 -65 -82 -83 -100 -101 -117 -118 -132 -134 -161 -163 -174 -175 -186 -187 0
-23 -44 -45 -64 -65 -82 -84 -100 -101 -117 -118 -132 -134 -161 -163 -174 -175 -186 -187 0
-23 -44 -45 -64 -65 -83 -84 -100 -102 -117 -118 -132 -134 -161 -163 -174 -175 -186 -187 0
-23 -44 -45 -64 -65 -83 -84 -101 -102 -117 -119 -132 -134 -161 -163 -174 -175 -186 -187 0
-23 -44 -45 -64 -65 -83 -84 -101 -102 -118 -119 -132 -135 -161 -163 -174 -175 -186 -187 0
-22 -43 -44 -63 -64 -82 -83 -100 -101 -117 -118 -133 -134 -161 -164 -174 -175 -186 -187 0
-23 -43 -45 -63 -64 -82 -83 -100 -101 -117 -118 -133 -134 -161 -164 -174 -175 -186 -187 0
-23 -44 -45 -63 -65 -82 -83 -100 -101 -117 -118 -133 -134 -161 -164 -174 -175 -186 -187 0
-23 -44 -45 -64 -65 -82 -84 -100 -101 -117 -118 -133 -134 -161 -164 -174 -175 -186 -187 0
-23 -44 -45 -64 -65 -83 -84 -100 -102 -117 -118 -133 -134 -161 -164 -174 -175 -186 -187 0
-23 -44 -45 -64 -65 -83 -84 -101 -102 -117 -119 -133 -134 -161 -164 -174 -175 -186 -187 0
-23 -44 -45 -64 -65 -83 -84 -101 -102 -118 -119 -133 -135 -161 -164 -174 -175 -186 -187 0
-23 -44 -45 -64 -65 -83 -84 -101 -102 -118 -119 -134 -135 -161 -165 -174 -175 -186 -187 0
-21 -42 -43 -62 -63 -81 -82 -99 -100 -116 -117 -132 -133 -162 -163 -174 -176 -186 -187 0
-22 -42 -44 -62 -63 -81 -82 -99 -100 -116 -117 -132 -133 -162 -163 -174 -176 -186 -187 0
-23 -42 -45 -62 -63 -81 -82 -99 -100 -116 -117 -132 -133 -162 -163 -174 -176 -186 -187 0
-22 -43 -44 -62 -64 -81 -82 -99 -100 -116 -117 -132 -133 -162 -163 -174 -176 -186 -187 0
-23 -43 -45 -62 -64 -81 -82 -99 -100 -116 -117 -132 -133 -162 -163 -174 -176 -186 -187 0
-23 -44 -45 -62 -65 -81 -82 -99 -100 -116 -117 -132 -133 -162 -163 -174 -176 -186 -187 0
-22 -43 -44 -63 -64 -81 -83 -99 -100 -116 -117 -132 -133 -162 -163 -174 -176 -186 -187 0
-23 -43 -45 -63 -64 -81 -83 -99 -100 -116 -117 -132 -133 -162 -163 -174 -176 -186 -187 0
-23 -44 -45 -63 -65 -81 -83 -99 -100 -116 -117 -132 -133 -162 -163 -174 -176 -186 -187 0
-23 -44 -45 -64 -65 -81 -84 -99 -100 -116 -117 -132 -133 -162 -163 -174 -176 -186 -187 0
-22 -43 -44 -63 -64 -82 -83 -99 -101 -116 -117 -132 -133 -162 -163 -174 -176 -186 -187 0
-23 -43 -45 -63 -64 -82 -83 -99 -101 -116 -117 -132 -133 -162 -163 -174 -176 -186 -187 0
-23 -44 -45 -63 -65 -82 -83 -99 -101 -116 -117 -132 -133 -162 -163 -174 -176 -186 -187 0
-23 -44 -45 -64 -65 -82 -84 -99 -101 -116 -117 -132 -133 -162 -163 -174 -176 -186 -187 0
-23 -44 -45 -64 -65 -83 -84 -99 -102 -116 -117 -132 -133 -162 -163 -174 -176 -186 -187 0
-22 -43 -44 -63 -64 -82 -83 -100 -101 -116 -118 -132 -133 -162 -163 -174 -176 -186 -187 0
-23 -43 -45 -63 -64 -82 -83 -100 -101 -116 -118 -132 -133 -162 -163 -174 -176 -186 -187 0
-23 -44 -45 -63 -65 -82 -83 -100 -101 -116 -118 -132 -133 -162 -163 -174 -176 -186 -187 0
-23 -44 -45 -64 -65 -82 -84 -100 -101 -116 -118 -132 -133 -162 -163 -174 -176 -186 -187 0
-23 -44 -45 -64 -65 -83 -84 -100 -102 -116 -118 -132 -133 -162 -163 -174 -176 -186 -187 0
-23 -44 -45 -64 -65 -83 -84 -101 -102 -116 -119 -132 -133 -162 -163 -174 -176 -186 -187 0
-22 -43 -44 -63 -64 -82 -83 -100 -101 -117 -118 -132 -134 -162 -163 -174 -176 -186 -187 0
-23 -43 -45 -63 -64 -82 -83 -100 -101 -117 -118 -132 -134 -162 -163 -174 -176 -186 -187 0
-23 -44 -45 -63 -65 -82 -83 -100 -101 -117 -118 -132 -134 -162 -163 -174 -176 -186 -187 0
-23 -44 -45 -64 -65 -82 -84 -100 -101 -117 -118 -132 -134 -162 -163 -174 -176 -186 -187 0
-23 -44 -45 -64 -65 -83 -84 -100 -102 -117 -118 -132 -134 -162 -163 -174 -176 -186 -187 0
-23 -44 -45 -64 -65 -83 -84 -101 -102 -117 -119 -132 -134 -162 -163 -174 -176 -186 -187 0
-23 -44 -45 -64 -65 -83 -84 -101 -102 -118 -119 -132 -135 -162 -163 -174 -176 -186 -187 0
-22 -43 -44 -63 -64 -82 -83 -100 -101 -117 -118 -133 -134 -162 -164 -174 -176 -186 -187 0
-23 -43 -45 -63 -64 -82 -83 -100 -101 -117 -118 -133 -134 -162 -164 -174 -176 -186 -187 0
-23 -44 -45 -63 -65 -82 -83 -100 -101 -117 -118 -133 -134 -162 -164 -174 -176 -186 -187 0
-23 -44 -45 -64 -65 -82 -84 -100 -101 -117 -118 -133 -134 -162 -164 -174 -176 -186 -187 0
-23 -44 -45 -64 -65 -83 -84 -100 -102 -117 -118 -133 -134 -162 -164 -174 -176 -186 -187 0
-23 -44 -45 -64 -65 -83 -84 -101 -102 -117 -119 -133 -134 -162 -164 -174 -176 -186 -187 0
-23 -44 -45 -64 -65 -83 -84 -101 -102 -118 -119 -133 -135 -162 -164 -174 -176 -186 -187 0
-23 -44 -45 -64 -65 -83 -84 -101 -102 -118 -119 -134 -135 -162 -165 -174 -176 -186 -187 0
-22 -43 -44 -63 -64 -82 -83 -100 -101 -117 -118 -133 -134 -163 -164 -174 -177 -186 -187 0
-23 -43 -45 -63 -64 -82 -83 -100 -101 -117 -118 -133 -134 -163 -164 -174 -177 -186 -187 0
-23 -44 -45 -63 -65 -82 -83 -100 -101 -117 -118 -133 -134 -163 -164 -174 -177 -186 -187 0
-23 -44 -45 -64 -65 -82 -84 -100 -101 -117 -118 -133 -134 -163 -164 -174 -177 -186 -187 0
-23 -44 -45 -64 -65 -83 -84 -100 -102 -117 -118 -133 -134 -163 -164 -174 -177 -186 -187 0
-23 -44 -45 -64 -65 -83 -84 -101 -102 -117 -119 -133 -134 -163 -164 -174 -177 -186 -187 0
-23 -44 -45 -64 -65 -83 -84 -101 -102 -118 -119 -133 -135 -163 -164 -174 -177 -186 -187 0
-23 -44 -45 -64 -65 -83 -84 -101 -102 -118 -119 -134 -135 -163 -165 -174 -177 -186 -187 0
-23 -44 -45 -64 -65 -83 -84 -101 -102 -118 -119 -134 -135 -164 -165 -174 -178 -186 -187 0
-21 -42 -43 -62 -63 -81 -82 -99 -100 -116 -117 -132 -133 -162 -163 -175 -176 -186 -188 0
-22 -42 -44 -62 -63 -81 -82 -99 -100 -116 -117 -132 -133 -162 -163 -175 -176 -186 -188 0
-23 -42 -45 -62 -63 -81 -82 -99 -100 -116 -117 -132 -133 -162 -163 -175 -176 -186 -188 0
-22 -43 -44 -62 -64 -81 -82 -99 -100 -116 -117 -132 -133 -162 -163 -175 -176 -186 -188 0
-23 -43 -45 -62 -64 -81 -82 -99 -100 -116 -117 -132 -133 -162 -163 -175 -176 -186 -188 0
-23 -44 -45 -62 -65 -81 -82 -99 -100 -116 -117 -132 -133 -162 -163 -175 -176 -186 -188 0
-22 -43 -44 -63 -64 -81 -83 -99 -100 -116 -117 -132 -133 -162 -163 -175 -176 -186 -188 0
-23 -43 -45 -63 -64 -81 -83 -99 -100 -116 -117 -132 -133 -162 -163 -175 -176 -186 -188 0
-23 -44 -45 -63 -65 -81 -83 -99 -100 -116 -117 -132 -133 -162 -163 -175 -176 -186 -188 0
-23 -44 -45 -64 -65 -81 -84 -99 -100 -116 -117 -132 -133 -162 -163 -175 -176 -186 -188 0
-22 -43 -44 -63 -64 -82 -83 -99 -101 -116 -117 -132 -133 -162 -163 -175 -176 -186 -188 0
-23 -43 -45 -63 -64 -82 -83 -99 -101 -116 -117 -132 -133 -162 -163 -175 -176 -186 -188 0
-23 -44 -45 -63 -65 -82 -83 -99 -101 -116 -117 -132 -133 -162 -163 -175 -176 -186 -188 0
-23 -44 -45 -64 -65 -82 -84 -99 -101 -116 -117 -132 -133 -162 -163 -175 -176 -186 -188 0
-23 -44 -45 -64 -65 -83 -84 -99 -102 -116 -117 -132 -133 -162 -163 -175 -176 -186 -188 0
-22 -43 -44 -63 -64 -82 -83 -100 -101 -116 -118 -132 -133 -162 -163 -175 -176 -186 -188 0
-23 -43 -45 -63 -64 -82 -83 -100 -101 -116 -118 -132 -133 -162 -163 -175 -176 -186 -188 0
-23 -44 -45 -63 -65 -82 -83 -100 -101 -116 -118 -132 -133 -162 -163 -175 -176 -186 -188 0
-23 -44 -45 -64 -65 -82 -84 -100 -101 -116 -118 -132 -133 -162 -163 -175 -176 -186 -188 0
-23 -44 -45 -64 -65 -83 -84 -100 -102 -116 -118 -132 -133 -162 -163 -175 -176 -186 -188 0
-23 -44 -45 -64 -65 -83 -84 -101 -102 -116 -119 -132 -133 -162 -163 -175 -176 -186 -188 0
-22 -43 -44 -63 -64 -82 -83 -100 -101 -117 -118 -132 -134 -162 -163 -175 -176 -186 -188 0
-23 -43 -45 -63 -64 -82 -83 -100 -101 -117 -118 -132 -134 -162 -163 -175 -176 -186 -188 0
-23 -44 -45 -63 -65 -82 -83 -100 -101 -117 -118 -132 -134 -162 -163 -175 -176 -186 -188 0
-23 -44 -45 -64 -65 -82 -84 -100 -101 -117 -118 -132 -134 -162 -163 -175 -176 -186 -188 0
-23 -44 -45 -64 -65 -83 -84 -100 -102 -117 -118 -132 -134 -162 -163 -175 -176 -186 -188 0
-23 -44 -45 -64 -65 -83 -84 -101 -102 -117 -119 -132 -134 -162 -163 -175 -176 -186 -188 0
-23 -44 -45 -64 -65 -83 -84 -101 -102 -118 -119 -132 -135 -162 -163 -175 -176 -186 -188 0
-22 -43 -44 -63 -64 -82 -83 -100 -101 -117 -118 -133 -134 -162 -164 -175 -176 -186 -188 0
-23 -43 -45 -63 -64 -82 -83 -100 -101 -117 -118 -133 -134 -162 -164 -175 -176 -186 -188 0
-23 -44 -45 -63 -65 -82 -83 -100 -101 -117 -118 -133 -134 -162 -164 -175 -176 -186 -188 0
-23 -44 -45 -64 -65 -82 -84 -100 -101 -117 -118 -133 -134 -162 -164 -175 -176 -186 -188 0
-23 -44 -45 -64 -65 -83 -84 -100 -102 -117 -118 -133 -134 -162 -164 -175 -176 -186 -188 0
-23 -44 -45 -64 -65 -83 -84 -101 -102 -117 -119 -133 -134 -162 -164 -175 -176 -186 -188 0
-23 -44 -45 -64 -65 -83 -84 -101 -102 -118 -119 -133 -135 -162 -164 -175 -176 -186 -188 0
-23 -44 -45 -64 -65 -83 -84 -101 -102 -118 -119 -134 -135 -162 -165 -175 -176 -186 -188 0
-22 -43 -44 -63 -64 -82 -83 -100 -101 -117 -118 -133 -134 -163 -164 -175 -177 -186 -188 0
-23 -43 -45 -63 -64 -82 -83 -100 -101 -117 -118 -133 -134 -163 -164 -175 -177 -186 -188 0
-23 -44 -45 -63 -65 -82 -83 -100 -101 -117 -118 -133 -134 -163 -164 -175 -177 -186 -188 0
-23 -44 -45 -64 -65 -82 -84 -100 -101 -117 -118 -133 -134 -163 -164 -175 -177 -186 -188 0
-23 -44 -45 -64 -65 -83 -84 -100 -102 -117 -118 -133 -134 -163 -164 -175 -177 -186 -188 0
-23 -44 -45 -64 -65 -83 -84 -101 -102 -117 -119 -133 -134 -163 -164 -175 -177 -186 -188 0
-23 -44 -45 -64 -65 -83 -84 -101 -102 -118 -119 -133 -135 -163 -164 -175 -177 -186 -188 0
-23 -44 -45 -64 -65 -83 -84 -101 -102 -118 -119 -134 -135 -163 -165 -175 -177 -186 -188 0
-23 -44 -45 -64 -65 -83 -84 -101 -102 -118 -119 -134 -135 -164 -165 -175 -178 -186 -188 0
-22 -43 -44 -63 -64 -82 -83 -100 -101 -117 -118 -133 -134 -163 -164 -176 -177 -186 -189 0
-23 -43 -45 -63 -64 -82 -83 -100 -101 -117 -118 -133 -134 -163 -164 -176 -177 -186 -189 0
-23 -44 -45 -63 -65 -82 -83 -100 -101 -117 -118 -133 -134 -163 -164 -176 -177 -186 -189 0
-23 -44 -45 -64 -65 -82 -84 -100 -101 -117 -118 -133 -134 -163 -164 -176 -177 -186 -189 0
-23 -44 -45 -64 -65 -83 -84 -100 -102 -117 -118 -133 -134 -163 -164 -176 -177 -186 -189 0
-23 -44 -45 -64 -65 -83 -84 -101 -102 -117 -119 -133 -134 -163 -164 -176 -177 -186 -189 0
-23 -44 -45 -64 -65 -83 -84 -101 -102 -118 -119 -133 -135 -163 -164 -176 -177 -186 -189 0
-23 -44 -45 -64 -65 -83 -84 -101 -102 -118 -119 -134 -135 -163 -165 -176 -177 -186 -189 0
-23 -44 -45 -64 -65 -83 -84 -101 -102 -118 -119 -134 -135 -164 -165 -176 -178 -186 -189 0
-23 -44 -45 -64 -65 -83 -84 -101 -102 -118 -119 -134 -135 -164 -165 -177 -178 -186 -190 0
-21 -42 -43 -62 -63 -81 -82 -99 -100 -116 -117 -132 -133 -162 -163 -175 -176 -187 -188 0
-22 -42 -44 -62 -63 -81 -82 -99 -100 -116 -117 -132 -133 -162 -163 -175 -176 -187 -188 0
-23 -42 -45 -62 -63 -81 -82 -99 -100 -116 -117 -132 -133 -162 -163 -175 -176 -187 -188 0
-22 -43 -44 -62 -64 -81 -82 -99 -100 -116 -117 -132 -133 -162 -163 -175 -176 -187 -188 0
-23 -43 -45 -62 -64 -81 -82 -99 -100 -116 -117 -132 -133 -162 -163 -175 -176 -187 -188 0
-23 -44 -45 -62 -65 -81 -82 -99 -100 -116 -117 -132 -133 -162 -163 -175 -176 -187 -188 0
-22 -43 -44 -63 -64 -81 -83 -99 -100 -116 -117 -132 -133 -162 -163 -175 -176 -187 -188 0
-23 -43 -45 -63 -64 -81 -83 -99 -100 -116 -117 -132 -133 -162 -163 -175 -176 -187 -188 0
-23 -44 -45 -63 -65 -81 -83 -99 -100 -116 -117 -132 -133 -162 -163 -175 -176 -187 -188 0
-23 -44 -45 -64 -65 -81 -84 -99 -100 -116 -117 -132 -133 -162 -163 -175 -176 -187 -188 0
-22 -43 -44 -63 -64 -82 -83 -99 -101 -116 -117 -132 -133 -162 -163 -175 -176 -187 -188 0
-23 -43 -45 -63 -64 -82 -83 -99 -101 -116 -117 -132 -133 -162 -163 -175 -176 -187 -188 0
-23 -44 -45 -63 -65 -82 -83 -99 -101 -116 -117 -132 -133 -162 -163 -175 -176 -187 -188 0
-23 -44 -45 -64 -65 -82 -84 -99 -101 -116 -117 -132 -133 -162 -163 -175 -176 -187 -188 0
-23 -44 -45 -64 -65 -83 -84 -99 -102 -116 -117 -132 -133 -162 -163 -175 -176 -187 -188 0
-22 -43 -44 -63 -64 -82 -83 -100 -101 -116 -118 -132 -133 -162 -163 -175 -176 -187 -188 0
-23 -43 -45 -63 -64 -82 -83 -100 -101 -116 -118 -132 -133 -162 -163 -175 -176 -187 -188 0
-23 -44 -45 -63 -65 -82 -83 -100 -101 -116 -118 -132 -133 -162 -163 -175 -176 -187 -188 0
-23 -44 -45 -64 -65 -82 -84 -100 -101 -116 -118 -132 -133 -162 -163 -175 -176 -187 -188 0
-23 -44 -45 -64 -65 -83 -84 -100 -102 -116 -118 -132 -133 -162 -163 -175 -176 -187 -188 0
-23 -44 -45 -64 -65 -83 -84 -101 -102 -116 -119 -132 -133 -162 -163 -175 -176 -187 -188 0
-22 -43 -44 -63 -64 -82 -83 -100 -101 -117 -118 -132 -134 -162 -163 -175 -176 -187 -188 0
-23 -43 -45 -63 -64 -82 -83 -100 -101 -117 -118 -132 -134 -162 -163 -175 -176 -187 -188 0
-23 -44 -45 -63 -65 -82 -83 -100 -101 -117 -118 -132 -134 -162 -163 -175 -176 -187 -188 0
-23 -44 -45 -64 -65 -82 -84 -100 -101 -117 -118 -132 -134 -162 -163 -175 -176 -187 -188 0
-23 -44 -45 -64 -65 -83 -84 -100 -102 -117 -118 -132 -134 -162 -163 -175 -176 -187 -188 0
-23 -44 -45 -64 -65 -83 -84 -101 -102 -117 -119 -132 -134 -162 -163 -175 -176 -187 -188 0
-23 -44 -45 -64 -65 -83 -84 -101 -102 -118 -119 -132 -135 -162 -163 -175 -176 -187 -188 0
-22 -43 -44 -63 -64 -82 -83 -100 -101 -117 -118 -133 -134 -162 -164 -175 -176 -187 -188 0
-23 -43 -45 -63 -64 -82 -83 -100 -101 -117 -118 -133 -134 -162 -164 -175 -176 -187 -188 0
-23 -44 -45 -63 -65 -82 -83 -100 -101 -117 -118 -133 -134 -162 -164 -175 -176 -187 -188 0
-23 -44 -45 -64 -65 -82 -84 -100 -101 -117 -118 -133 -134 -162 -164 -175 -176 -187 -188 0
-23 -44 -45 -64 -65 -83 -84 -100 -102 -117 -118 -133 -134 -162 -164 -175 -176 -187 -188 0
-23 -44 -45 -64 -65 -83 -84 -101 -102 -117 -119 -133 -134 -162 -164 -175 -176 -187 -188 0
-23 -44 -45 -64 -65 -83 -84 -101 -102 -118 -119 -133 -135 -162 -164 -175 -176 -187 -188 0
-23 -44 -45 -64 -65 -83 -84 -101 -102 -118 -119 -134 -135 -162 -165 -175 -176 -187 -188 0
-22 -43 -44 -63 -64 -82 -83 -100 -101 -117 -118 -133 -134 -163 -164 -175 -177 -187 -188 0
-23 -43 -45 -63 -64 -82 -83 -100 -101 -117 -118 -133 -134 -163 -164 -175 -177 -187 -188 0
-23 -44 -45 -63 -65 -82 -83 -100 -101 -117 -118 -133 -134 -163 -164 -175 -177 -187 -188 0
-23 -44 -45 -64 -65 -82 -84 -100 -101 -117 -118 -133 -134 -163 -164 -175 -177 -187 -188 0
-23 -44 -45 -64 -65 -83 -84 -100 -102 -117 -118 -133 -134 -163 -164 -175 -177 -187 -188 0
-23 -44 -45 -64 -65 -83 -84 -101 -102 -117 -119 -133 -134 -163 -164 -175 -177 -187 -188 0
-23 -44 -45 -64 -65 -83 -84 -101 -102 -118 -119 -133 -135 -163 -164 -175 -177 -187 -188 0
-23 -44 -45 -64 -65 -83 -84 -101 -102 -118 -119 -134 -135 -163 -165 -175 -177 -187 -188 0
-23 -44 -45 -64 -65 -83 -84 -101 -102 -118 -119 -134 -135 -164 -165 -175 -178 -187 -188 0
-22 -43 -44 -63 -64 -82 -83 -100 -101 -117 -118 -133 -134 -163 -164 -176 -177 -187 -189 0
-23 -43 -45 -63 -64 -82 -83 -100 -101 -117 -118 -133 -134 -163 -164 -176 -177 -187 -189 0
-23 -44 -45 -63 -65 -82 -83 -100 -101 -117 -118 -133 -134 -163 -164 -176 -177 -187 -189 0
-23 -44 -45 -64 -65 -82 -84 -100 -101 -117 -118 -133 -134 -163 -164 -176 -177 -187 -189 0
-23 -44 -45 -64 -65 -83 -84 -100 -102 -117 -118 -133 -134 -163 -164 -176 -177 -187 -189 0
-23 -44 -45 -64 -65 -83 -84 -101 -102 -117 -119 -133 -134 -163 -164 -176 -177 -187 -189 0
-23 -44 -45 -64 -65 -83 -84 -101 -102 -118 -119 -133 -135 -163 -164 -176 -177 -187 -189 0
-23 -44 -45 -64 -65 -83 -84 -101 -102 -118 -119 -134 -135 -163 -165 -176 -177 -187 -189 0
-23 -44 -45 -64 -65 -83 -84 -101 -102 -118 -119 -134 -135 -164 -165 -176 -178 -187 -189 0
-23 -44 -45 -64 -65 -83 -84 -101 -102 -118 -119 -134 -135 -164 -165 -177 -178 -187 -190 0
-22 -43 -44 -63 -64 -82 -83 -100 -101 -117 -118 -133 -134 -163 -164 -176 -177 -188 -189 0
-23 -43 -45 -63 -64 -82 -83 -100 -101 -117 -118 -133 -134 -163 -164 -176 -177 -188 -189 0
-23 -44 -45 -63 -65 -82 -83 -100 -101 -117 -118 -133 -134 -163 -164 -176 -177 -188 -189 0
-23 -44 -45 -64 -65 -82 -84 -100 -101 -117 -118 -133 -134 -163 -164 -176 -177 -188 -189 0
-23 -44 -45 -64 -65 -83 -84 -100 -102 -117 -118 -133 -134 -163 -164 -176 -177 -188 -189 0
-23 -44 -45 -64 -65 -83 -84 -101 -102 -117 -119 -133 -134 -163 -164 -176 -177 -188 -189 0
-23 -44 -45 -64 -65 -83 -84 -101 -102 -118 -119 -133 -135 -163 -164 -176 -177 -188 -189 0
-23 -44 -45 -64 -65 -83 -84 -101 -102 -118 -119 -134 -135 -163 -165 -176 -177 -188 -189 0
-23 -44 -45 -64 -65 -83 -84 -101 -102 -118 -119 -134 -135 -164 -165 -176 -178 -188 -189 0
-23 -44 -45 -64 -65 -83 -84 -101 -102 -118 -119 -134 -135 -164 -165 -177 -178 -188 -190 0
-23 -44 -45 -64 -65 -83 -84 -101 -102 -118 -119 -134 -135 -164 -165 -177 -178 -189 -190 0
-21 -42 -43 -62 -63 -81 -82 -99 -100 -116 -117 -132 -133 -162 -163 -175 -176 -199 -200 0
-22 -42 -44 -62 -63 -81 -82 -99 -100 -116 -117 -132 -133 -162 -163 -175 -176 -199 -200 0
-23 -42 -45 -62 -63 -81 -82 -99 -100 -116 -117 -132 -133 -162 -163 -175 -176 -199 -200 0
-22 -43 -44 -62 -64 -81 -82 -99 -100 -116 -117 -132 -133 -162 -163 -175 -176 -199 -200 0
-23 -43 -45 -62 -64 -81 -82 -99 -100 -116 -117 -132 -133 -162 -163 -175 -176 -199 -200 0
-23 -44 -45 -62 -65 -81 -82 -99 -100 -116 -117 -132 -133 -162 -163 -175 -176 -199 -200 0
-22 -43 -44 -63 -64 -81 -83 -99 -100 -116 -117 -132 -133 -162 -163 -175 -176 -199 -200 0
-23 -43 -45 -63 -64 -81 -83 -99 -100 -116 -117 -132 -133 -162 -163 -175 -176 -199 -200 0
-23 -44 -45 -63 -65 -81 -83 -99 -100 -116 -117 -132 -133 -162 -163 -175 -176 -199 -200 0
-23 -44 -45 -64 -65 -81 -84 -99 -100 -116 -117 -132 -133 -162 -163 -175 -176 -199 -200 0
-22 -43 -44 -63 -64 -82 -83 -99 -101 -116 -117 -132 -133 -162 -163 -175 -176 -199 -200 0
-23 -43 -45 -63 -64 -82 -83 -99 -101 -116 -117 -132 -133 -162 -163 -175 -176 -199 -200 0
-23 -44 -45 -63 -65 -82 -83 -99 -101 -116 -117 -132 -133 -162 -163 -175 -176 -199 -200 0
-23 -44 -45 -64 -65 -82 -84 -99 -101 -116 -117 -132 -133 -162 -163 -175 -176 -199 -200 0
-23 -44 -45 -64 -65 -83 -84 -99 -102 -116 -117 -132 -133 -162 -163 -175 -176 -199 -200 0
-22 -43 -44 -63 -64 -82 -83 -100 -101 -116 -118 -132 -133 -162 -163 -175 -176 -199 -200 0
-23 -43 -45 -63 -64 -82 -83 -100 -101 -116 -118 -132 -133 -162 -163 -175 -176 -199 -200 0
-23 -44 -45 -63 -65 -82 -83 -100 -101 -116 -118 -132 -133 -162 -163 -175 -176 -199 -200 0
-23 -44 -45 -64 -65 -82 -84 -100 -101 -116 -118 -132 -133 -162 -163 -175 -176 -199 -200 0
-23 -44 -45 -64 -65 -83 -84 -100 -102 -116 -118 -132 -133 -162 -163 -175 -176 -199 -200 0
-23 -44 -45 -64 -65 -83 -84 -101 -102 -116 -119 -132 -133 -162 -163 -175 -176 -199 -200 0
-22 -43 -44 -63 -64 -82 -83 -100 -101 -117 -118 -132 -134 -162 -163 -175 -176 -199 -200 0
-23 -43 -45 -63 -64 -82 -83 -100 -101 -117 -118 -132 -134 -162 -163 -175 -176 -199 -200 0
-23 -44 -45 -63 -65 -82 -83 -100 -101 -117 -118 -132 -134 -162 -163 -175 -176 -199 -200 0
-23 -44 -45 -64 -65 -82 -84 -100 -101 -117 -118 -132 -134 -162 -163 -175 -176 -199 -200 0
-23 -44 -45 -64 -65 -83 -84 -100 -102 -117 -118 -132 -134 -162 -163 -175 -176 -199 -200 0
-23 -44 -45 -64 -65 -83 -84 -101 -102 -117 -119 -132 -134 -162 -163 -175 -176 -199 -200 0
-23 -44 -45 -64 -65 -83 -84 -101 -102 -118 -119 -132 -135 -162 -163 -175 -176 -199 -200 0
-22 -43 -44 -63 -64 -82 -83 -100 -101 -117 -118 -133 -134 -162 -164 -175 -176 -199 -200 0
-23 -43 -45 -63 -64 -82 -83 -100 -101 -117 -118 -133 -134 -162 -164 -175 -176 -199 -200 0
-23 -44 -45 -63 -65 -82 -83 -100 -101 -117 -118 -133 -134 -162 -164 -175 -176 -199 -200 0
-23 -44 -45 -64 -65 -82 -84 -100 -101 -117 -118 -133 -134 -162 -164 -175 -176 -199 -200 0
-23 -44 -45 -64 -65 -83 -84 -100 -102 -117 -118 -133 -134 -162 -164 -175 -176 -199 -200 0
-23 -44 -45 -64 -65 -83 -84 -101 -102 -117 -119 -133 -134 -162 -164 -175 -176 -199 -200 0
-23 -44 -45 -64 -65 -83 -84 -101 -102 -118 -119 -133 -135 -162 -164 -175 -176 -199 -200 0
-23 -44 -45 -64 -65 -83 -84 -101 -102 -118 -119 -134 -135 -162 -165 -175 -176 -199 -200 0
-22 -43 -44 -63 -64 -82 -83 -100 -101 -117 -118 -133 -134 -163 -164 -175 -177 -199 -200 0
-23 -43 -45 -63 -64 -82 -83 -100 -101 -117 -118 -133 -134 -163 -164 -175 -177 -199 -200 0
-23 -44 -45 -63 -65 -82 -83 -100 -101 -117 -118 -133 -134 -163 -164 -175 -177 -199 -200 0
-23 -44 -45 -64 -65 -82 -84 -100 -101 -117 -118 -133 -134 -163 -164 -175 -177 -199 -200 0
-23 -44 -45 -64 -65 -83 -84 -100 -102 -117 -118 -133 -134 -163 -164 -175 -177 -199 -200 0
-23 -44 -45 -64 -65 -83 -84 -101 -102 -117 -119 -133 -134 -163 -164 -175 -177 -199 -200 0
-23 -44 -45 -64 -65 -83 -84 -101 -102 -118 -119 -133 -135 -163 -164 -175 -177 -199 -200 0
-23 -44 -45 -64 -65 -83 -84 -101 -102 -118 -119 -134 -135 -163 -165 -175 -177 -199 -200 0
-23 -44 -45 -64 -65 -83 -84 -101 -102 -118 -119 -134 -135 -164 -165 -175 -178 -199 -200 0
-22 -43 -44 -63 -64 -82 -83 -100 -101 -117 -118 -133 -134 -163 -164 -176 -177 -199 -201 0
-23 -43 -45 -63 -64 -82 -83 -100 -101 -117 -118 -133 -134 -163 -164 -176 -177 -199 -201 0
-23 -44 -45 -63 -65 -82 -83 -100 -101 -117 -118 -133 -134 -163 -164 -176 -177 -199 -201 0
-23 -44 -45 -64 -65 -82 -84 -100 -101 -117 -118 -133 -134 -163 -164 -176 -177 -199 -201 0
-23 -44 -45 -64 -65 -83 -84 -100 -102 -117 -118 -133 -134 -163 -164 -176 -177 -199 -201 0
-23 -44 -45 -64 -65 -83 -84 -101 -102 -117 -119 -133 -134 -163 -164 -176 -177 -199 -201 0
-23 -44 -45 -64 -65 -83 -84 -101 -102 -118 -119 -133 -135 -163 -164 -176 -177 -199 -201 0
-23 -44 -45 -64 -65 -83 -84 -101 -102 -118 -119 -134 -135 -163 -165 -176 -177 -199 -201 0
-23 -44 -45 -64 -65 -83 -84 -101 -102 -118 -119 -134 -135 -164 -165 -176 -178 -199 -201 0
-23 -44 -45 -64 -65 -83 -84 -101 -102 -118 -119 -134 -135 -164 -165 -177 -178 -199 -202 0
-22 -43 -44 -63 -64 -82 -83 -100 -101 -117 -118 -133 -134 -163 -164 -176 -177 -200 -201 0
-23 -43 -45 -63 -64 -82 -83 -100 -101 -117 -118 -133 -134 -163 -164 -176 -177 -200 -201 0
-23 -44 -45 -63 -65 -82 -83 -100 -101 -117 -118 -133 -134 -163 -164 -176 -177 -200 -201 0
-23 -44 -45 -64 -65 -82 -84 -100 -101 -117 -118 -133 -134 -163 -164 -176 -177 -200 -201 0
-23 -44 -45 -64 -65 -83 -84 -100 -102 -117 -118 -133 -134 -163 -164 -176 -177 -200 -201 0
-23 -44 -45 -64 -65 -83 -84 -101 -102 -117 -119 -133 -134 -163 -164 -176 -177 -200 -201 0
-23 -44 -45 -64 -65 -83 -84 -101 -102 -118 -119 -133 -135 -163 -164 -176 -177 -200 -201 0
-23 -44 -45 -64 -65 -83 -84 -101 -102 -118 -119 -134 -135 -163 -165 -176 -177 -200 -201 0
-23 -44 -45 -64 -65 -83 -84 -101 -102 -118 -119 -134 -135 -164 -165 -176 -178 -200 -201 0
-23 -44 -45 -64 -65 -83 -84 -101 -102 -118 -119 -134 -135 -164 -165 -177 -178 -200 -202 0
-23 -44 -45 -64 -65 -83 -84 -101 -102 -118 -119 -134 -135 -164 -165 -177 -178 -201 -202 0
-22 -43 -44 -63 -64 -82 -83 -100 -101 -117 -118 -133 -134 -163 -164 -176 -177 -211 -212 0
-23 -43 -45 -63 -64 -82 -83 -100 -101 -117 -118 -133 -134 -163 -164 -176 -177 -211 -212 0
-23 -44 -45 -63 -65 -82 -83 -100 -101 -117 -118 -133 -134 -163 -164 -176 -177 -211 -212 0
-23 -44 -45 -64 -65 -82 -84 -100 -101 -117 -118 -133 -134 -163 -164 -176 -177 -211 -212 0
-23 -44 -45 -64 -65 -83 -84 -100 -102 -117 -118 -133 -134 -163 -164 -176 -177 -211 -212 0
-23 -44 -45 -64 -65 -83 -84 -101 -102 -117 -119 -133 -134 -163 -164 -176 -177 -211 -212 0
-23 -44 -45 -64 -65 -83 -84 -101 -102 -118 -119 -133 -135 -163 -164 -176 -177 -211 -212 0
-23 -44 -45 -64 -65 -83 -84 -101 -102 -118 -119 -134 -135 -163 -165 -176 -177 -211 -212 0
-23 -44 -45 -64 -65 -83 -84 -101 -102 -118 -119 -134 -135 -164 -165 -176 -178 -211 -212 0
-23 -44 -45 -64 -65 -83 -84 -101 -102 -118 -119 -134 -135 -164 -165 -177 -178 -211 -213 0
-23 -44 -45 -64 -65 -83 -84 -101 -102 -118 -119 -134 -135 -164 -165 -177 -178 -212 -213 0
-23 -44 -45 -64 -65 -83 -84 -101 -102 -118 -119 -134 -135 -164 -165 -177 -178 -222 -223 0
-21 -42 -43 -62 -63 -81 -82 -99 -100 -116 -117 -132 -133 -162 -163 -188 -189 -199 -200 0
-22 -42 -44 -62 -63 -81 -82 -99 -100 -116 -117 -132 -133 -162 -163 -188 -189 -199 -200 0
-23 -42 -45 -62 -63 -81 -82 -99 -100 -116 -117 -132 -133 -162 -163 -188 -189 -199 -200 0
-22 -43 -44 -62 -64 -81 -82 -99 -100 -116 -117 -132 -133 -162 -163 -188 -189 -199 -200 0
-23 -43 -45 -62 -64 -81 -82 -99 -100 -116 -117 -132 -133 -162 -163 -188 -189 -199 -200 0
-23 -44 -45 -62 -65 -81 -82 -99 -100 -116 -117 -132 -133 -162 -163 -188 -189 -199 -200 0
-22 -43 -44 -63 -64 -81 -83 -99 -100 -116 -117 -132 -133 -162 -163 -188 -189 -199 -200 0
-23 -43 -45 -63 -64 -81 -83 -99 -100 -116 -117 -132 -133 -162 -163 -188 -189 -199 -200 0
-23 -44 -45 -63 -65 -81 -83 -99 -100 -116 -117 -132 -133 -162 -163 -188 -189 -199 -200 0
-23 -44 -45 -64 -65 -81 -84 -99 -100 -116 -117 -132 -133 -162 -163 -188 -189 -199 -200 0
-22 -43 -44 -63 -64 -82 -83 -99 -101 -116 -117 -132 -133 -162 -163 -188 -189 -199 -200 0
-23 -43 -45 -63 -64 -82 -83 -99 -101 -116 -117 -132 -133 -162 -163 -188 -189 -199 -200 0
-23 -44 -45 -63 -65 -82 -83 -99 -101 -116 -117 -132 -133 -162 -163 -188 -189 -199 -200 0
-23 -44 -45 -64 -65 -82 -84 -99 -101 -116 -117 -132 -133 -162 -163 -188 -189 -199 -200 0
-23 -44 -45 -64 -65 -83 -84 -99 -102 -116 -117 -132 -133 -162 -163 -188 -189 -199 -200 0
-22 -43 -44 -63 -64 -82 -83 -100 -101 -116 -118 -132 -133 -162 -163 -188 -189 -199 -200 0
-23 -43 -45 -63 -64 -82 -83 -100 -101 -116 -118 -132 -133 -162 -163 -188 -189 -199 -200 0
-23 -44 -45 -63 -65 -82 -83 -100 -101 -116 -118 -132 -133 -162 -163 -188 -189 -199 -200 0
-23 -44 -45 -64 -65 -82 -84 -100 -101 -116 -118 -132 -133 -162 -163 -188 -189 -199 -200 0
-23 -44 -45 -64 -65 -83 -84 -100 -102 -116 -118 -132 -133 -162 -163 -188 -189 -199 -200 0
-23 -44 -45 -64 -65 -83 -84 -101 -102 -116 -119 -132 -133 -162 -163 -188 -189 -199 -200 0
-22 -43 -44 -63 -64 -82 -83 -100 -101 -117 -118 -132 -134 -162 -163 -188 -189 -199 -200 0
-23 -43 -45 -63 -64 -82 -83 -100 -101 -117 -118 -132 -134 -162 -163 -188 -189 -199 -200 0
-23 -44 -45 -63 -65 -82 -83 -100 -101 -117 -118 -132 -134 -162 -163 -188 -189 -199 -200 0
-23 -44 -45 -64 -65 -82 -84 -100 -101 -117 -118 -132 -134 -162 -163 -188 -189 -199 -200 0
-23 -44 -45 -64 -65 -83 -84 -100 -102 -117 -118 -132 -134 -162 -163 -188 -189 -199 -200 0
-23 -44 -45 -64 -65 -83 -84 -101 -102 -117 -119 -132 -134 -162 -163 -188 -189 -199 -200 0
-23 -44 -45 -64 -65 -83 -84 -101 -102 -118 -119 -132 -135 -162 -163 -188 -189 -199 -200 0
-22 -43 -44 -63 -64 -82 -83 -100 -101 -117 -118 -133 -134 -162 -164 -188 -189 -199 -200 0
-23 -43 -45 -63 -64 -82 -83 -100 -101 -117 -118 -133 -134 -162 -164 -188 -189 -199 -200 0
-23 -44 -45 -63 -65 -82 -83 -100 -101 -117 -118 -133 -134 -162 -164 -188 -189 -199 -200 0
-23 -44 -45 -64 -65 -82 -84 -100 -101 -117 -118 -133 -134 -162 -164 -188 -189 -199 -200 0
-23 -44 -45 -64 -65 -83 -84 -100 -102 -117 -118 -133 -134 -162 -164 -188 -189 -199 -200 0
-23 -44 -45 -64 -65 -83 -84 -101 -102 -117 -119 -133 -134 -162 -164 -188 -189 -199 -200 0
-23 -44 -45 -64 -65 -83 -84 -101 -102 -118 -119 -133 -135 -162 -164 -188 -189 -199 -200 0
-23 -44 -45 -64 -65 -83 -84 -101 -102 -118 -119 -134 -135 -162 -165 -188 -189 -199 -200 0
-22 -43 -44 -63 -64 -82 -83 -100 -101 -117 -118 -133 -134 -163 -164 -188 -190 -199 -200 0
-23 -43 -45 -63 -64 -82 -83 -100 -101 -117 -118 -133 -134 -163 -164 -188 -190 -199 -200 0
-23 -44 -45 -63 -65 -82 -83 -100 -101 -117 -118 -133 -134 -163 -164 -188 -190 -199 -200 0
-23 -44 -45 -64 -65 -82 -84 -100 -101 -117 -118 -133 -134 -163 -164 -188 -190 -199 -200 0
-23 -44 -45 -64 -65 -83 -84 -100 -102 -117 -118 -133 -134 -163 -164 -188 -190 -199 -200 0
-23 -44 -45 -64 -65 -83 -84 -101 -102 -117 -119 -133 -134 -163 -164 -188 -190 -199 -200 0
-23 -44 -45 -64 -65 -83 -84 -101 -102 -118 -119 -133 -135 -163 -164 -188 -190 -199 -200 0
-23 -44 -45 -64 -65 -83 -84 -101 -102 -118 -119 -134 -135 -163 -165 -188 -190 -199 -200 0
-23 -44 -45 -64 -65 -83 -84 -101 -102 -118 -119 -134 -135 -164 -165 -188 -191 -199 -200 0
-22 -43 -44 -63 -64 -82 -83 -100 -101 -117 -118 -133 -134 -163 -164 -189 -190 -199 -201 0
-23 -43 -45 -63 -64 -82 -83 -100 -101 -117 -118 -133 -134 -163 -164 -189 -190 -199 -201 0
-23 -44 -45 -63 -65 -82 -83 -100 -101 -117 -118 -133 -134 -163 -164 -189 -190 -199 -201 0
-23 -44 -45 -64 -65 -82 -84 -100 -101 -117 -118 -133 -134 -163 -164 -189 -190 -199 -201 0
-23 -44 -45 -64 -65 -83 -84 -100 -102 -117 -118 -133 -134 -163 -164 -189 -190 -199 -201 0
-23 -44 -45 -64 -65 -83 -84 -101 -102 -117 -119 -133 -134 -163 -164 -189 -190 -199 -201 0
-23 -44 -45 -64 -65 -83 -84 -101 -102 -118 -119 -133 -135 -163 -164 -189 -190 -199 -201 0
-23 -44 -45 -64 -65 -83 -84 -101 -102 -118 -119 -134 -135 -163 -165 -189 -190 -199 -201 0
-23 -44 -45 -64 -65 -83 -84 -101 -102 -118 -119 -134 -135 -164 -165 -189 -191 -199 -201 0
-23 -44 -45 -64 -65 -83 -84 -101 -102 -118 -119 -134 -135 -164 -165 -190 -191 -199 -202 0
-22 -43 -44 -63 -64 -82 -83 -100 -101 -117 -118 -133 -134 -163 -164 -189 -190 -200 -201 0
-23 -43 -45 -63 -64 -82 -83 -100 -101 -117 -118 -133 -134 -163 -164 -189 -190 -200 -201 0
-23 -44 -45 -63 -65 -82 -83 -100 -101 -117 -118 -133 -134 -163 -164 -189 -190 -200 -201 0
-23 -44 -45 -64 -65 -82 -84 -100 -101 -117 -118 -133 -134 -163 -164 -189 -190 -200 -201 0
-23 -44 -45 -64 -65 -83 -84 -100 -102 -117 -118 -133 -134 -163 -164 -189 -190 -200 -201 0
-23 -44 -45 -64 -65 -83 -84 -101 -102 -117 -119 -133 -134 -163 -164 -189 -190 -200 -201 0
-23 -44 -45 -64 -65 -83 -84 -101 -102 -118 -119 -133 -135 -163 -164 -189 -190 -200 -201 0
-23 -44 -45 -64 -65 -83 -84 -101 -102 -118 -119 -134 -135 -163 -165 -189 -190 -200 -201 0
-23 -44 -45 -64 -65 -83 -84 -101 -102 -118 -119 -134 -135 -164 -165 -189 -191 -200 -201 0
-23 -44 -45 -64 -65 -83 -84 -101 -102 -118 -119 -134 -135 -164 -165 -190 -191 -200 -202 0
-23 -44 -45 -64 -65 -83 -84 -101 -102 -118 -119 -134 -135 -164 -165 -190 -191 -201 -202 0
-22 -43 -44 -63 -64 -82 -83 -100 -101 -117 -118 -133 -134 -163 -164 -189 -190 -211 -212 0
-23 -43 -45 -63 -64 -82 -83 -100 -101 -117 -118 -133 -134 -163 -164 -189 -190 -211 -212 0
-23 -44 -45 -63 -65 -82 -83 -100 -101 -117 -118 -133 -134 -163 -164 -189 -190 -211 -212 0
-23 -44 -45 -64 -65 -82 -84 -100 -101 -117 -118 -133 -134 -163 -164 -189 -190 -211 -212 0
-23 -44 -45 -64 -65 -83 -84 -100 -102 -117 -118 -133 -134 -163 -164 -189 -190 -211 -212 0
-23 -44 -45 -64 -65 -83 -84 -101 -102 -117 -119 -133 -134 -163 -164 -189 -190 -211 -212 0
-23 -44 -45 -64 -65 -83 -84 -101 -102 -118 -119 -133 -135 -163 -164 -189 -190 -211 -212 0
-23 -44 -45 -64 -65 -83 -84 -101 -102 -118 -119 -134 -135 -163 -165 -189 -190 -211 -212 0
-23 -44 -45 -64 -65 -83 -84 -101 -102 -118 -119 -134 -135 -164 -165 -189 -191 -211 -212 0
-23 -44 -45 -64 -65 -83 -84 -101 -102 -118 -119 -134 -135 -164 -165 -190 -191 -211 -213 0
-23 -44 -45 -64 -65 -83 -84 -101 -102 -118 -119 -134 -135 -164 -165 -190 -191 -212 -213 0
-23 -44 -45 -64 -65 -83 -84 -101 -102 -118 -119 -134 -135 -164 -165 -190 -191 -222 -223 0
-22 -43 -44 -63 -64 -82 -83 -100 -101 -117 -118 -133 -134 -163 -164 -201 -202 -211 -212 0
-23 -43 -45 -63 -64 -82 -83 -100 -101 -117 -118 -133 -134 -163 -164 -201 -202 -211 -212 0
-23 -44 -45 -63 -65 -82 -83 -100 -101 -117 -118 -133 -134 -163 -164 -201 -202 -211 -212 0
-23 -44 -45 -64 -65 -82 -84 -100 -101 -117 -118 -133 -134 -163 -164 -201 -202 -211 -212 0
-23 -44 -45 -64 -65 -83 -84 -100 -102 -117 -118 -133 -134 -163 -164 -201 -202 -211 -212 0
-23 -44 -45 -64 -65 -83 -84 -101 -102 -117 -119 -133 -134 -163 -164 -201 -202 -211 -212 0
-23 -44 -45 -64 -65 -83 -84 -101 -102 -118 -119 -133 -135 -163 -164 -201 -202 -211 -212 0
-23 -44 -45 -64 -65 -83 -84 -101 -102 -118 -119 -134 -135 -163 -165 -201 -202 -211 -212 0
-23 -44 -45 -64 -65 -83 -84 -101 -102 -118 -119 -134 -135 -164 -165 -201 -203 -211 -212 0
-23 -44 -45 -64 -65 -83 -84 -101 -102 -118 -119 -134 -135 -164 -165 -202 -203 -211 -213 0
-23 -44 -45 -64 -65 -83 -84 -101 -102 -118 -119 -134 -135 -164 -165 -202 -203 -212 -213 0
-23 -44 -45 -64 -65 -83 -84 -101 -102 -118 -119 -134 -135 -164 -165 -202 -203 -222 -223 0
-23 -44 -45 -64 -65 -83 -84 -101 -102 -118 -119 -134 -135 -164 -165 -213 -214 -222 -223 0
-21 -42 -43 -62 -63 -81 -82 -99 -100 -116 -117 -132 -133 -176 -177 -188 -189 -199 -200 0
-22 -42 -44 -62 -63 -81 -82 -99 -100 -116 -117 -132 -133 -176 -177 -188 -189 -199 -200 0
-23 -42 -45 -62 -63 -81 -82 -99 -100 -116 -117 -132 -133 -176 -177 -188 -189 -199 -200 0
-22 -43 -44 -62 -64 -81 -82 -99 -100 -116 -117 -132 -133 -176 -177 -188 -189 -199 -200 0
-23 -43 -45 -62 -64 -81 -82 -99 -100 -116 -117 -132 -133 -176 -177 -188 -189 -199 -200 0
-23 -44 -45 -62 -65 -81 -82 -99 -100 -116 -117 -132 -133 -176 -177 -188 -189 -199 -200 0
-22 -43 -44 -63 -64 -81 -83 -99 -100 -116 -117 -132 -133 -176 -177 -188 -189 -199 -200 0
-23 -43 -45 -63 -64 -81 -83 -99 -100 -116 -117 -132 -133 -176 -177 -188 -189 -199 -200 0
-23 -44 -45 -63 -65 -81 -83 -99 -100 -116 -117 -132 -133 -176 -177 -188 -189 -199 -200 0
-23 -44 -45 -64 -65 -81 -84 -99 -100 -116 -117 -132 -133 -176 -177 -188 -189 -199 -200 0
-22 -43 -44 -63 -64 -82 -83 -99 -101 -116 -117 -132 -133 -176 -177 -188 -189 -199 -200 0
-23 -43 -45 -63 -64 -82 -83 -99 -101 -116 -117 -132 -133 -176 -177 -188 -189 -199 -200 0
-23 -44 -45 -63 -65 -82 -83 -99 -101 -116 -117 -132 -133 -176 -177 -188 -189 -199 -200 0
-23 -44 -45 -64 -65 -82 -84 -99 -101 -116 -117 -132 -133 -176 -177 -188 -189 -199 -200 0
-23 -44 -45 -64 -65 -83 -84 -99 -102 -116 -117 -132 -133 -176 -177 -188 -189 -199 -200 0
-22 -43 -44 -63 -64 -82 -83 -100 -101 -116 -118 -132 -133 -176 -177 -188 -189 -199 -200 0
-23 -43 -45 -63 -64 -82 -83 -100 -101 -116 -118 -132 -133 -176 -177 -188 -189 -199 -200 0
-23 -44 -45 -63 -65 -82 -83 -100 -101 -116 -118 -132 -133 -176 -177 -188 -189 -199 -200 0
-23 -44 -45 -64 -65 -82 -84 -100 -101 -116 -118 -132 -133 -176 -177 -188 -189 -199 -200 0
-23 -44 -45 -64 -65 -83 -84 -100 -102 -116 -118 -132 -133 -176 -177 -188 -189 -199 -200 0
-23 -44 -45 -64 -65 -83 -84 -101 -102 -116 -119 -132 -133 -176 -177 -188 -189 -199 -200 0
-22 -43 -44 -63 -64 -82 -83 -100 -101 -117 -118 -132 -134 -176 -177 -188 -189 -199 -200 0
-23 -43 -45 -63 -64 -82 -83 -100 -101 -117 -118 -132 -134 -176 -177 -188 -189 -199 -200 0
-23 -44 -45 -63 -65 -82 -83 -100 -101 -117 -118 -132 -134 -176 -177 -188 -189 -199 -200 0
-23 -44 -45 -64 -65 -82 -84 -100 -101 -117 -118 -132 -134 -176 -177 -188 -189 -199 -200 0
-23 -44 -45 -64 -65 -83 -84 -100 -102 -117 -118 -132 -134 -176 -177 -188 -189 -199 -200 0
-23 -44 -45 -64 -65 -83 -84 -101 -102 -117 -119 -132 -134 -176 -177 -188 -189 -199 -200 0
-23 -44 -45 -64 -65 -83 -84 -101 -102 -118 -119 -132 -135 -176 -177 -188 -189 -199 -200 0
-22 -43 -44 -63 -64 -82 -83 -100 -101 -117 -118 -133 -134 -176 -178 -188 -189 -199 -200 0
-23 -43 -45 -63 -64 -82 -83 -100 -101 -117 -118 -133 -134 -176 -178 -188 -189 -199 -200 0
-23 -44 -45 -63 -65 -82 -83 -100 -101 -117 -118 -133 -134 -176 -178 -188 -189 -199 -200 0
-23 -44 -45 -64 -65 -82 -84 -100 -101 -117 -118 -133 -134 -176 -178 -188 -189 -199 -200 0
-23 -44 -45 -64 -65 -83 -84 -100 -102 -117 -118 -133 -134 -176 -178 -188 -189 -199 -200 0
-23 -44 -45 -64 -65 -83 -84 -101 -102 -117 -119 -133 -134 -176 -178 -188 -189 -199 -200 0
-23 -44 -45 -64 -65 -83 -84 -101 -102 -118 -119 -133 -135 -176 -178 -188 -189 -199 -200 0
-23 -44 -45 -64 -65 -83 -84 -101 -102 -118 -119 -134 -135 -176 -179 -188 -189 -199 -200 0
-22 -43 -44 -63 -64 -82 -83 -100 -101 -117 -118 -133 -134 -177 -178 -188 -190 -199 -200 0
-23 -43 -45 -63 -64 -82 -83 -100 -101 -117 -118 -133 -134 -177 -178 -188 -190 -199 -200 0
-23 -44 -45 -63 -65 -82 -83 -100 -101 -117 -118 -133 -134 -177 -178 -188 -190 -199 -200 0
-23 -44 -45 -64 -65 -82 -84 -100 -101 -117 -118 -133 -134 -177 -178 -188 -190 -199 -200 0
-23 -44 -45 -64 -65 -83 -84 -100 -102 -117 -118 -133 -134 -177 -178 -188 -190 -199 -200 0
-23 -44 -45 -64 -65 -83 -84 -101 -102 -117 -119 -133 -134 -177 -178 -188 -190 -199 -200 0
-23 -44 -45 -64 -65 -83 -84 -101 -102 -118 -119 -133 -135 -177 -178 -188 -190 -199 -200 0
-23 -44 -45 -64 -65 -83 -84 -101 -102 -118 -119 -134 -135 -177 -179 -188 -190 -199 -200 0
-23 -44 -45 -64 -65 -83 -84 -101 -102 -118 -119 -134 -135 -178 -179 -188 -191 -199 -200 0
-22 -43 -44 -63 -64 -82 -83 -100 -101 -117 -118 -133 -134 -177 -178 -189 -190 -199 -201 0
-23 -43 -45 -63 -64 -82 -83 -100 -101 -117 -118 -133 -134 -177 -178 -189 -190 -199 -201 0
-23 -44 -45 -63 -65 -82 -83 -100 -101 -117 -118 -133 -134 -177 -178 -189 -190 -199 -201 0
-23 -44 -45 -64 -65 -82 -84 -100 -101 -117 -118 -133 -134 -177 -178 -189 -190 -199 -201 0
-23 -44 -45 -64 -65 -83 -84 -100 -102 -117 -118 -133 -134 -177 -178 -189 -190 -199 -201 0
-23 -44 -45 -64 -65 -83 -84 -101 -102 -117 -119 -133 -134 -177 -178 -189 -190 -199 -201 0
-23 -44 -45 -64 -65 -83 -84 -101 -102 -118 -119 -133 -135 -177 -178 -189 -190 -199 -201 0
-23 -44 -45 -64 -65 -83 -84 -101 -102 -118 -119 -134 -135 -177 -179 -189 -190 -199 -201 0
-23 -44 -45 -64 -65 -83 -84 -101 -102 -118 -119 -134 -135 -178 -179 -189 -191 -199 -201 0
-23 -44 -45 -64 -65 -83 -84 -101 -102 -118 -119 -134 -135 -178 -179 -190 -191 -199 -202 0
-22 -43 -44 -63 -64 -82 -83 -100 -101 -117 -118 -133 -134 -177 -178 -189 -190 -200 -201 0
-23 -43 -45 -63 -64 -82 -83 -100 -101 -117 -118 -133 -134 -177 -178 -189 -190 -200 -201 0
-23 -44 -45 -63 -65 -82 -83 -100 -101 -117 -118 -133 -134 -177 -178 -189 -190 -200 -201 0
-23 -44 -45 -64 -65 -82 -84 -100 -101 -117 -118 -133 -134 -177 -178 -189 -190 -200 -201 0
-23 -44 -45 -64 -65 -83 -84 -100 -102 -117 -118 -133 -134 -177 -178 -189 -190 -200 -201 0
-23 -44 -45 -64 -65 -83 -84 -101 -102 -117 -119 -133 -134 -177 -178 -189 -190 -200 -201 0
-23 -44 -45 -64 -65 -83 -84 -101 -102 -118 -119 -133 -135 -177 -178 -189 -190 -200 -201 0
-23 -44 -45 -64 -65 -83 -84 -101 -102 -118 -119 -134 -135 -177 -179 -189 -190 -200 -201 0
-23 -44 -45 -64 -65 -83 -84 -101 -102 -118 -119 -134 -135 -178 -179 -189 -191 -200 -201 0
-23 -44 -45 -64 -65 -83 -84 -101 -102 -118 -119 -134 -135 -178 -179 -190 -191 -200 -202 0
-23 -44 -45 -64 -65 -83 -84 -101 -102 -118 -119 -134 -135 -178 -179 -190 -191 -201 -202 0
-22 -43 -44 -63 -64 -82 -83 -100 -101 -117 -118 -133 -134 -177 -178 -189 -190 -211 -212 0
-23 -43 -45 -63 -64 -82 -83 -100 -101 -117 -118 -133 -134 -177 -178 -189 -190 -211 -212 0
-23 -44 -45 -63 -65 -82 -83 -100 -101 -117 -118 -133 -134 -177 -178 -189 -190 -211 -212 0
-23 -44 -45 -64 -65 -82 -84 -100 -101 -117 -118 -133 -134 -177 -178 -189 -190 -211 -212 0
-23 -44 -45 -64 -65 -83 -84 -100 -102 -117 -118 -133 -134 -177 -178 -189 -190 -211 -212 0
-23 -44 -45 -64 -65 -83 -84 -101 -102 -117 -119 -133 -134 -177 -178 -189 -190 -211 -212 0
-23 -44 -45 -64 -65 -83 -84 -101 -102 -118 -119 -133 -135 -177 -178 -189 -190 -211 -212 0
-23 -44 -45 -64 -65 -83 -84 -101 -102 -118 -119 -134 -135 -177 -179 -189 -190 -211 -212 0
-23 -44 -45 -64 -65 -83 -84 -101 -102 -118 -119 -134 -135 -178 -179 -189 -191 -211 -212 0
-23 -44 -45 -64 -65 -83 -84 -101 -102 -118 -119 -134 -135 -178 -179 -190 -191 -211 -213 0
-23 -44 -45 -64 -65 -83 -84 -101 -102 -118 -119 -134 -135 -178 -179 -190 -191 -212 -213 0
-23 -44 -45 -64 -65 -83 -84 -101 -102 -118 -119 -134 -135 -178 -179 -190 -191 -222 -223 0
-22 -43 -44 -63 -64 -82 -83 -100 -101 -117 -118 -133 -134 -177 -178 -201 -202 -211 -212 0
-23 -43 -45 -63 -64 -82 -83 -100 -101 -117 -118 -133 -134 -177 -178 -201 -202 -211 -212 0
-23 -44 -45 -63 -65 -82 -83 -100 -101 -117 -118 -133 -134 -177 -178 -201 -202 -211 -212 0
-23 -44 -45 -64 -65 -82 -84 -100 -101 -117 -118 -133 -134 -177 -178 -201 -202 -211 -212 0
-23 -44 -45 -64 -65 -83 -84 -100 -102 -117 -118 -133 -134 -177 -178 -201 -202 -211 -212 0
-23 -44 -45 -64 -65 -83 -84 -101 -102 -117 -119 -133 -134 -177 -178 -201 -202 -211 -212 0
-23 -44 -45 -64 -65 -83 -84 -101 -102 -118 -119 -133 -135 -177 -178 -201 -202 -211 -212 0
-23 -44 -45 -64 -65 -83 -84 -101 -102 -118 -119 -134 -135 -177 -179 -201 -202 -211 -212 0
-23 -44 -45 -64 -65 -83 -84 -101 -102 -118 -119 -134 -135 -178 -179 -201 -203 -211 -212 0
-23 -44 -45 -64 -65 -83 -84 -101 -102 -118 -119 -134 -135 -178 -179 -202 -203 -211 -213 0
-23 -44 -45 -64 -65 -83 -84 -101 -102 -118 -119 -134 -135 -178 -179 -202 -203 -212 -213 0
-23 -44 -45 -64 -65 -83 -84 -101 -102 -118 -119 -134 -135 -178 -179 -202 -203 -222 -223 0
-23 -44 -45 -64 -65 -83 -84 -101 -102 -118 -119 -134 -135 -178 -179 -213 -214 -222 -223 0
-22 -43 -44 -63 -64 -82 -83 -100 -101 -117 -118 -133 -134 -190 -191 -201 -202 -211 -212 0
-23 -43 -45 -63 -64 -82 -83 -100 -101 -117 -118 -133 -134 -190 -191 -201 -202 -211 -212 0
-23 -44 -45 -63 -65 -82 -83 -100 -101 -117 -118 -133 -134 -190 -191 -201 -202 -211 -212 0
-23 -44 -45 -64 -65 -82 -84 -100 -101 -117 -118 -133 -134 -190 -191 -201 -202 -211 -212 0
-23 -44 -45 -64 -65 -83 -84 -100 -102 -117 -118 -133 -134 -190 -191 -201 -202 -211 -212 0
-23 -44 -45 -64 -65 -83 -84 -101 -102 -117 -119 -133 -134 -190 -191 -201 -202 -211 -212 0
-23 -44 -45 -64 -65 -83 -84 -101 -102 -118 -119 -133 -135 -190 -191 -201 -202 -211 -212 0
-23 -44 -45 -64 -65 -83 -84 -101 -102 -118 -119 -134 -135 -190 -192 -201 -202 -211 -212 0
-23 -44 -45 -64 -65 -83 -84 -101 -102 -118 -119 -134 -135 -191 -192 -201 -203 -211 -212 0
-23 -44 -45 -64 -65 -83 -84 -101 -102 -118 -119 -134 -135 -191 -192 -202 -203 -211 -213 0
-23 -44 -45 -64 -65 -83 -84 -101 -102 -118 -119 -134 -135 -191 -192 -202 -203 -212 -213 0
-23 -44 -45 -64 -65 -83 -84 -101 -102 -118 -119 -134 -135 -191 -192 -202 -203 -222 -223 0
-23 -44 -45 -64 -65 -83 -84 -101 -102 -118 -119 -134 -135 -191 -192 -213 -214 -222 -223 0
-23 -44 -45 -64 -65 -83 -84 -101 -102 -118 -119 -134 -135 -203 -204 -213 -214 -222 -223 0
-20 -41 -42 -61 -62 -80 -81 -98 -99 -115 -116 -147 -148 -161 -162 -174 -175 -186 -187 0
-21 -41 -43 -61 -62 -80 -81 -98 -99 -115 -116 -147 -148 -161 -162 -174 -175 -186 -187 0
-22 -41 -44 -61 -62 -80 -81 -98 -99 -115 -116 -147 -148 -161 -162 -174 -175 -186 -187 0
-23 -41 -45 -61 -62 -80 -81 -98 -99 -115 -116 -147 -148 -161 -162 -174 -175 -186 -187 0
-21 -42 -43 -61 -63 -80 -81 -98 -99 -115 -116 -147 -148 -161 -162 -174 -175 -186 -187 0
-22 -42 -44 -61 -63 -80 -81 -98 -99 -115 -116 -147 -148 -161 -162 -174 -175 -186 -187 0
-23 -42 -45 -61 -63 -80 -81 -98 -99 -115 -116 -147 -148 -161 -162 -174 -175 -186 -187 0
-22 -43 -44 -61 -64 -80 -81 -98 -99 -115 -116 -147 -148 -161 -162 -174 -175 -186 -187 0
-23 -43 -45 -61 -64 -80 -81 -98 -99 -115 -116 -147 -148 -161 -162 -174 -175 -186 -187 0
-23 -44 -45 -61 -65 -80 -81 -98 -99 -115 -116 -147 -148 -161 -162 -174 -175 -186 -187 0
-21 -42 -43 -62 -63 -80 -82 -98 -99 -115 -116 -147 -148 -161 -162 -174 -175 -186 -187 0
-22 -42 -44 -62 -63 -80 -82 -98 -99 -115 -116 -147 -148 -161 -162 -174 -175 -186 -187 0
-23 -42 -45 -62 -63 -80 -82 -98 -99 -115 -116 -147 -148 -161 -162 -174 -175 -186 -187 0
-22 -43 -44 -62 -64 -80 -82 -98 -99 -115 -116 -147 -148 -161 -162 -174 -175 -186 -187 0
-23 -43 -45 -62 -64 -80 -82 -98 -99 -115 -116 -147 -148 -161 -162 -174 -175 -186 -187 0
-23 -44 -45 -62 -65 -80 -82 -98 -99 -115 -116 -147 -148 -161 -162 -174 -175 -186 -187 0
-22 -43 -44 -63 -64 -80 -83 -98 -99 -115 -116 -147 -148 -161 -162 -174 -175 -186 -187 0
-23 -43 -45 -63 -64 -80 -83 -98 -99 -115 -116 -147 -148 -161 -162 -174 -175 -186 -187 0
-23 -44 -45 -63 -65 -80 -83 -98 -99 -115 -116 -147 -148 -161 -162 -174 -175 -186 -187 0
-23 -44 -45 -64 -65 -80 -84 -98 -99 -115 -116 -147 -148 -161 -162 -174 -175 -186 -187 0
-21 -42 -43 -62 -63 -81 -82 -98 -100 -115 -116 -147 -148 -161 -162 -174 -175 -186 -187 0
-22 -42 -44 -62 -63 -81 -82 -98 -100 -115 -116 -147 -148 -161 -162 -174 -175 -186 -187 0
-23 -42 -45 -62 -63 -81 -82 -98 -100 -115 -116 -147 -148 -161 -162 -174 -175 -186 -187 0
-22 -43 -44 -62 -64 -81 -82 -98 -100 -115 -116 -147 -148 -161 -162 -174 -175 -186 -187 0
-23 -43 -45 -62 -64 -81 -82 -98 -100 -115 -116 -147 -148 -161 -162 -174 -175 -186 -187 0
-23 -44 -45 -62 -65 -81 -82 -98 -100 -115 -116 -147 -148 -161 -162 -174 -175 -186 -187 0
-22 -43 -44 -63 -64 -81 -83 -98 -100 -115 -116 -147 -148 -161 -162 -174 -175 -186 -187 0
-23 -43 -45 -63 -64 -81 -83 -98 -100 -115 -116 -147 -148 -161 -162 -174 -175 -186 -187 0
-23 -44 -45 -63 -65 -81 -83 -98 -100 -115 -116 -147 -148 -161 -162 -174 -175 -186 -187 0
-23 -44 -45 -64 -65 -81 -84 -98 -100 -115 -116 -147 -148 -161 -162 -174 -175 -186 -187 0
-22 -43 -44 -63 -64 -82 -83 -98 -101 -115 -116 -147 -148 -161 -162 -174 -175 -186 -187 0
-23 -43 -45 -63 -64 -82 -83 -98 -101 -115 -116 -147 -148 -161 -162 -174 -175 -186 -187 0
-23 -44 -45 -63 -65 -82 -83 -98 -101 -115 -116 -147 -148 -161 -162 -174 -175 -186 -187 0
-23 -44 -45 -64 -65 -82 -84 -98 -101 -115 -116 -147 -148 -161 -162 -174 -175 -186 -187 0
-23 -44 -45 -64 -65 -83 -84 -98 -102 -115 -116 -147 -148 -161 -162 -174 -175 -186 -187 0
-21 -42 -43 -62 -63 -81 -82 -99 -100 -115 -117 -147 -148 -161 -162 -174 -175 -186 -187 0
-22 -42 -44 -62 -63 -81 -82 -99 -100 -115 -117 -147 -148 -161 -162 -174 -175 -186 -187 0
-23 -42 -45 -62 -63 -81 -82 -99 -100 -115 -117 -147 -148 -161 -162 -174 -175 -186 -187 0
-22 -43 -44 -62 -64 -81 -82 -99 -100 -115 -117 -147 -148 -161 -162 -174 -175 -186 -187 0
-23 -43 -45 -62 -64 -81 -82 -99 -100 -115 -117 -147 -148 -161 -162 -174 -175 -186 -187 0
-23 -44 -45 -62 -65 -81 -82 -99 -100 -115 -117 -147 -148 -161 -162 -174 -175 -186 -187 0
-22 -43 -44 -63 -64 -81 -83 -99 -100 -115 -117 -147 -148 -161 -162 -174 -175 -186 -187 0
-23 -43 -45 -63 -64 -81 -83 -99 -100 -115 -117 -147 -148 -161 -162 -174 -175 -186 -187 0
-23 -44 -45 -63 -65 -81 -83 -99 -100 -115 -117 -147 -148 -161 -162 -174 -175 -186 -187 0
-23 -44 -45 -64 -65 -81 -84 -99 -100 -115 -117 -147 -148 -161 -162 -174 -175 -186 -187 0
-22 -43 -44 -63 -64 -82 -83 -99 -101 -115 -117 -147 -148 -161 -162 -174 -175 -186 -187 0
-23 -43 -45 -63 -64 -82 -83 -99 -101 -115 -117 -147 -148 -161 -162 -174 -175 -186 -187 0
-23 -44 -45 -63 -65 -82 -83 -99 -101 -115 -117 -147 -148 -161 -162 -174 -175 -186 -187 0
-23 -44 -45 -64 -65 -82 -84 -99 -101 -115 -117 -147 -148 -161 -162 -174 -175 -186 -187 0
-23 -44 -45 -64 -65 -83 -84 -99 -102 -115 -117 -147 -148 -161 -162 -174 -175 -186 -187 0
-22 -43 -44 -63 -64 -82 -83 -100 -101 -115 -118 -147 -148 -161 -162 -174 -175 -186 -187 0
-23 -43 -45 -63 -64 -82 -83 -100 -101 -115 -118 -147 -148 -161 -162 -174 -175 -186 -187 0
-23 -44 -45 -63 -65 -82 -83 -100 -101 -115 -118 -147 -148 -161 -162 -174 -175 -186 -187 0
-23 -44 -45 -64 -65 -82 -84 -100 -101 -115 -118 -147 -148 -161 -162 -174 -175 -186 -187 0
-23 -44 -45 -64 -65 -83 -84 -100 -102 -115 -118 -147 -148 -161 -162 -174 -175 -186 -187 0
-23 -44 -45 -64 -65 -83 -84 -101 -102 -115 -119 -147 -148 -161 -162 -174 -175 -186 -187 0
-21 -42 -43 -62 -63 -81 -82 -99 -100 -116 -117 -147 -149 -161 -162 -174 -175 -186 -187 0
-22 -42 -44 -62 -63 -81 -82 -99 -100 -116 -117 -147 -149 -161 -162 -174 -175 -186 -187 0
-23 -42 -45 -62 -63 -81 -82 -99 -100 -116 -117 -147 -149 -161 -162 -174 -175 -186 -187 0
-22 -43 -44 -62 -64 -81 -82 -99 -100 -116 -117 -147 -149 -161 -162 -174 -175 -186 -187 0
-23 -43 -45 -62 -64 -81 -82 -99 -100 -116 -117 -147 -149 -161 -162 -174 -175 -186 -187 0
-23 -44 -45 -62 -65 -81 -82 -99 -100 -116 -117 -147 -149 -161 -162 -174 -175 -186 -187 0
-22 -43 -44 -63 -64 -81 -83 -99 -100 -116 -117 -147 -149 -161 -162 -174 -175 -186 -187 0
-23 -43 -45 -63 -64 -81 -83 -99 -100 -116 -117 -147 -149 -161 -162 -174 -175 -186 -187 0
-23 -44 -45 -63 -65 -81 -83 -99 -100 -116 -117 -147 -149 -161 -162 -174 -175 -186 -187 0
-23 -44 -45 -64 -65 -81 -84 -99 -100 -116 -117 -147 -149 -161 -162 -174 -175 -186 -187 0
-22 -43 -44 -63 -64 -82 -83 -99 -101 -116 -117 -147 -149 -161 -162 -174 -175 -186 -187 0
-23 -43 -45 -63 -64 -82 -83 -99 -101 -116 -117 -147 -149 -161 -162 -174 -175 -186 -187 0
-23 -44 -45 -63 -65 -82 -83 -99 -101 -116 -117 -147 -149 -161 -162 -174 -175 -186 -187 0
-23 -44 -45 -64 -65 -82 -84 -99 -101 -116 -117 -147 -149 -161 -162 -174 -175 -186 -187 0
-23 -44 -45 -64 -65 -83 -84 -99 -102 -116 -117 -147 -149 -161 -162 -174 -175 -186 -187 0
-22 -43 -44 -63 -64 -82 -83 -100 -101 -116 -118 -147 -149 -161 -162 -174 -175 -186 -187 0
-23 -43 -45 -63 -64 -82 -83 -100 -101 -116 -118 -147 -149 -161 -162 -174 -175 -186 -187 0
-23 -44 -45 -63 -65 -82 -83 -100 -101 -116 -118 -147 -149 -161 -162 -174 -175 -186 -187 0
-23 -44 -45 -64 -65 -82 -84 -100 -101 -116 -118 -147 -149 -161 -162 -174 -175 -186 -187 0
-23 -44 -45 -64 -65 -83 -84 -100 -102 -116 -118 -147 -149 -161 -162 -174 -175 -186 -187 0
-23 -44 -45 -64 -65 -83 -84 -101 -102 -116 -119 -147 -149 -161 -162 -174 -175 -186 -187 0
-22 -43 -44 -63 -64 -82 -83 -100 -101 -117 -118 -147 -150 -161 -162 -174 -175 -186 -187 0
-23 -43 -45 -63 -64 -82 -83 -100 -101 -117 -118 -147 -150 -161 -162 -174 -175 -186 -187 0
-23 -44 -45 -63 -65 -82 -83 -100 -101 -117 -118 -147 -150 -161 -162 -174 -175 -186 -187 0
-23 -44 -45 -64 -65 -82 -84 -100 -101 -117 -118 -147 -150 -161 -162 -174 -175 -186 -187 0
-23 -44 -45 -64 -65 -83 -84 -100 -102 -117 -118 -147 -150 -161 -162 -174 -175 -186 -187 0
-23 -44 -45 -64 -65 -83 -84 -101 -102 -117 -119 -147 -150 -161 -162 -174 -175 -186 -187 0
-23 -44 -45 -64 -65 -83 -84 -101 -102 -118 -119 -147 -151 -161 -162 -174 -175 -186 -187 0
-21 -42 -43 -62 -63 -81 -82 -99 -100 -116 -117 -148 -149 -161 -163 -174 -175 -186 -187 0
-22 -42 -44 -62 -63 -81 -82 -99 -100 -116 -117 -148 -149 -161 -163 -174 -175 -186 -187 0
-23 -42 -45 -62 -63 -81 -82 -99 -100 -116 -117 -148 -149 -161 -163 -174 -175 -186 -187 0
-22 -43 -44 -62 -64 -81 -82 -99 -100 -116 -117 -148 -149 -161 -163 -174 -175 -186 -187 0
-23 -43 -45 -62 -64 -81 -82 -99 -100 -116 -117 -148 -149 -161 -163 -174 -175 -186 -187 0
-23 -44 -45 -62 -65 -81 -82 -99 -100 -116 -117 -148 -149 -161 -163 -174 -175 -186 -187 0
-22 -43 -44 -63 -64 -81 -83 -99 -100 -116 -117 -148 -149 -161 -163 -174 -175 -186 -187 0
-23 -43 -45 -63 -64 -81 -83 -99 -100 -116 -117 -148 -149 -161 -163 -174 -175 -186 -187 0
-23 -44 -45 -63 -65 -81 -83 -99 -100 -116 -117 -148 -149 -161 -163 -174 -175 -186 -187 0
-23 -44 -45 -64 -65 -81 -84 -99 -100 -116 -117 -148 -149 -161 -163 -174 -175 -186 -187 0
-22 -43 -44 -63 -64 -82 -83 -99 -101 -116 -117 -148 -149 -161 -163 -174 -175 -186 -187 0
-23 -43 -45 -63 -64 -82 -83 -99 -101 -116 -117 -148 -149 -161 -163 -174 -175 -186 -187 0
-23 -44 -45 -63 -65 -82 -83 -99 -101 -116 -117 -148 -149 -161 -163 -174 -175 -186 -187 0
-23 -44 -45 -64 -65 -82 -84 -99 -101 -116 -117 -148 -149 -161 -163 -174 -175 -186 -187 0
-23 -44 -45 -64 -65 -83 -84 -99 -102 -116 -117 -148 -149 -161 -163 -174 -175 -186 -187 0
-22 -43 -44 -63 -64 -82 -83 -100 -101 -116 -118 -148 -149 -161 -163 -174 -175 -186 -187 0
-23 -43 -45 -63 -64 -82 -83 -100 -101 -116 -118 -148 -149 -161 -163 -174 -175 -186 -187 0
-23 -44 -45 -63 -65 -82 -83 -100 -101 -116 -118 -148 -149 -161 -163 -174 -175 -186 -187 0
-23 -44 -45 -64 -65 -82 -84 -100 -101 -116 -118 -148 -149 -161 -163 -174 -175 -186 -187 0
-23 -44 -45 -64 -65 -83 -84 -100 -102 -116 -118 -148 -149 -161 -163 -174 -175 -186 -187 0
-23 -44 -45 -64 -65 -83 -84 -101 -102 -116 -119 -148 -149 -161 -163 -174 -175 -186 -187 0
-22 -43 -44 -63 -64 -82 -83 -100 -101 -117 -118 -148 -150 -161 -163 -174 -175 -186 -187 0
-23 -43 -45 -63 -64 -82 -83 -100 -101 -117 -118 -148 -150 -161 -163 -174 -175 -186 -187 0
-23 -44 -45 -63 -65 -82 -83 -100 -101 -117 -118 -148 -150 -161 -163 -174 -175 -186 -187 0
-23 -44 -45 -64 -65 -82 -84 -100 -101 -117 -118 -148 -150 -161 -163 -174 -175 -186 -187 0
-23 -44 -45 -64 -65 -83 -84 -100 -102 -117 -118 -148 -150 -161 -163 -174 -175 -186 -187 0
-23 -44 -45 -64 -65 -83 -84 -101 -102 -117 -119 -148 -150 -161 -163 -174 -175 -186 -187 0
-23 -44 -45 -64 -65 -83 -84 -101 -102 -118 -119 -148 -151 -161 -163 -174 -175 -186 -187 0
-22 -43 -44 -63 -64 -82 -83 -100 -101 -117 -118 -149 -150 -161 -164 -174 -175 -186 -187 0
-23 -43 -45 -63 -64 -82 -83 -100 -101 -117 -118 -149 -150 -161 -164 -174 -175 -186 -187 0
-23 -44 -45 -63 -65 -82 -83 -100 -101 -117 -118 -149 -150 -161 -164 -174 -175 -186 -187 0
-23 -44 -45 -64 -65 -82 -84 -100 -101 -117 -118 -149 -150 -161 -164 -174 -175 -186 -187 0
-23 -44 -45 -64 -65 -83 -84 -100 -102 -117 -118 -149 -150 -161 -164 -174 -175 -186 -187 0
-23 -44 -45 -64 -65 -83 -84 -101 -102 -117 -119 -149 -150 -161 -164 -174 -175 -186 -187 0
-23 -44 -45 -64 -65 -83 -84 -101 -102 -118 -119 -149 -151 -161 -164 -174 -175 -186 -187 0
-23 -44 -45 -64 -65 -83 -84 -101 -102 -118 -119 -150 -151 -161 -165 -174 -175 -186 -187 0
-21 -42 -43 -62 -63 -81 -82 -99 -100 -116 -117 -148 -149 -162 -163 -174 -176 -186 -187 0
-22 -42 -44 -62 -63 -81 -82 -99 -100 -116 -117 -148 -149 -162 -163 -174 -176 -186 -187 0
-23 -42 -45 -62 -63 -81 -82 -99 -100 -116 -117 -148 -149 -162 -163 -174 -176 -186 -187 0
-22 -43 -44 -62 -64 -81 -82 -99 -100 -116 -117 -148 -149 -162 -163 -174 -176 -186 -187 0
-23 -43 -45 -62 -64 -81 -82 -99 -100 -116 -117 -148 -149 -162 -163 -174 -176 -186 -187 0
-23 -44 -45 -62 -65 -81 -82 -99 -100 -116 -117 -148 -149 -162 -163 -174 -176 -186 -187 0
-22 -43 -44 -63 -64 -81 -83 -99 -100 -116 -117 -148 -149 -162 -163 -174 -176 -186 -187 0
-23 -43 -45 -63 -64 -81 -83 -99 -100 -116 -117 -148 -149 -162 -163 -174 -176 -186 -187 0
-23 -44 -45 -63 -65 -81 -83 -99 -100 -116 -117 -148 -149 -162 -163 -174 -176 -186 -187 0
-23 -44 -45 -64 -65 -81 -84 -99 -100 -116 -117 -148 -149 -162 -163 -174 -176 -186 -187 0
-22 -43 -44 -63 -64 -82 -83 -99 -101 -116 -117 -148 -149 -162 -163 -174 -176 -186 -187 0
-23 -43 -45 -63 -64 -82 -83 -99 -101 -116 -117 -148 -149 -162 -163 -174 -176 -186 -187 0
-23 -44 -45 -63 -65 -82 -83 -99 -101 -116 -117 -148 -149 -162 -163 -174 -176 -186 -187 0
-23 -44 -45 -64 -65 -82 -84 -99 -101 -116 -117 -148 -149 -162 -163 -174 -176 -186 -187 0
-23 -44 -45 -64 -65 -83 -84 -99 -102 -116 -117 -148 -149 -162 -163 -174 -176 -186 -187 0
-22 -43 -44 -63 -64 -82 -83 -100 -101 -116 -118 -148 -149 -162 -163 -174 -176 -186 -187 0
-23 -43 -45 -63 -64 -82 -83 -100 -101 -116 -118 -148 -149 -162 -163 -174 -176 -186 -187 0
-23 -44 -45 -63 -65 -82 -83 -100 -101 -116 -118 -148 -149 -162 -163 -174 -176 -186 -187 0
-23 -44 -45 -64 -65 -82 -84 -100 -101 -116 -118 -148 -149 -162 -163 -174 -176 -186 -187 0
-23 -44 -45 -64 -65 -83 -84 -100 -102 -116 -118 -148 -149 -162 -163 -174 -176 -186 -187 0
-23 -44 -45 -64 -65 -83 -84 -101 -102 -116 -119 -148 -149 -162 -163 -174 -176 -186 -187 0
-22 -43 -44 -63 -64 -82 -83 -100 -101 -117 -118 -148 -150 -162 -163 -174 -176 -186 -187 0
-23 -43 -45 -63 -64 -82 -83 -100 -101 -117 -118 -148 -150 -162 -163 -174 -176 -186 -187 0
-23 -44 -45 -63 -65 -82 -83 -100 -101 -117 -118 -148 -150 -162 -163 -174 -176 -186 -187 0
-23 -44 -45 -64 -65 -82 -84 -100 -101 -117 -118 -148 -150 -162 -163 -174 -176 -186 -187 0
-23 -44 -45 -64 -65 -83 -84 -100 -102 -117 -118 -148 -150 -162 -163 -174 -176 -186 -187 0
-23 -44 -45 -64 -65 -83 -84 -101 -102 -117 -119 -148 -150 -162 -163 -174 -176 -186 -187 0
-23 -44 -45 -64 -65 -83 -84 -101 -102 -118 -119 -148 -151 -162 -163 -174 -176 -186 -187 0
-22 -43 -44 -63 -64 -82 -83 -100 -101 -117 -118 -149 -150 -162 -164 -174 -176 -186 -187 0
-23 -43 -45 -63 -64 -82 -83 -100 -101 -117 -118 -149 -150 -162 -164 -174 -176 -186 -187 0
-23 -44 -45 -63 -65 -82 -83 -100 -101 -117 -118 -149 -150 -162 -164 -174 -176 -186 -187 0
-23 -44 -45 -64 -65 -82 -84 -100 -101 -117 -118 -149 -150 -162 -164 -174 -176 -186 -187 0
-23 -44 -45 -64 -65 -83 -84 -100 -102 -117 -118 -149 -150 -162 -164 -174 -176 -186 -187 0
-23 -44 -45 -64 -65 -83 -84 -101 -102 -117 -119 -149 -150 -162 -164 -174 -176 -186 -187 0
-23 -44 -45 -64 -65 -83 -84 -101 -102 -118 -119 -149 -151 -162 -164 -174 -176 -186 -187 0
-23 -44 -45 -64 -65 -83 -84 -101 -102 -118 -119 -150 -151 -162 -165 -174 -176 -186 -187 0
-22 -43 -44 -63 -64 -82 -83 -100 -101 -117 -118 -149 -150 -163 -164 -174 -177 -186 -187 0
-23 -43 -45 -63 -64 -82 -83 -100 -101 -117 -118 -149 -150 -163 -164 -174 -177 -186 -187 0
-23 -44 -45 -63 -65 -82 -83 -100 -101 -117 -118 -149 -150 -163 -164 -174 -177 -186 -187 0
-23 -44 -45 -64 -65 -82 -84 -100 -101 -117 -118 -149 -150 -163 -164 -174 -177 -186 -187 0
-23 -44 -45 -64 -65 -83 -84 -100 -102 -117 -118 -149 -150 -163 -164 -174 -177 -186 -187 0
-23 -44 -45 -64 -65 -83 -84 -101 -102 -117 -119 -149 -150 -163 -164 -174 -177 -186 -187 0
-23 -44 -45 -64 -65 -83 -84 -101 -102 -118 -119 -149 -151 -163 -164 -174 -177 -186 -187 0
-23 -44 -45 -64 -65 -83 -84 -101 -102 -118 -119 -150 -151 -163 -165 -174 -177 -186 -187 0
-23 -44 -45 -64 -65 -83 -84 -101 -102 -118 -119 -150 -151 -164 -165 -174 -178 -186 -187 0
-21 -42 -43 -62 -63 -81 -82 -99 -100 -116 -117 -148 -149 -162 -163 -175 -176 -186 -188 0
-22 -42 -44 -62 -63 -81 -82 -99 -100 -116 -117 -148 -149 -162 -163 -175 -176 -186 -188 0
-23 -42 -45 -62 -63 -81 -82 -99 -100 -116 -117 -148 -149 -162 -163 -175 -176 -186 -188 0
-22 -43 -44 -62 -64 -81 -82 -99 -100 -116 -117 -148 -149 -162 -163 -175 -176 -186 -188 0
-23 -43 -45 -62 -64 -81 -82 -99 -100 -116 -117 -148 -149 -162 -163 -175 -176 -186 -188 0
-23 -44 -45 -62 -65 -81 -82 -99 -100 -116 -117 -148 -149 -162 -163 -175 -176 -186 -188 0
-22 -43 -44 -63 -64 -81 -83 -99 -100 -116 -117 -148 -149 -162 -163 -175 -176 -186 -188 0
-23 -43 -45 -63 -64 -81 -83 -99 -100 -116 -117 -148 -149 -162 -163 -175 -176 -186 -188 0
-23 -44 -45 -63 -65 -81 -83 -99 -100 -116 -117 -148 -149 -162 -163 -175 -176 -186 -188 0
-23 -44 -45 -64 -65 -81 -84 -99 -100 -116 -117 -148 -149 -162 -163 -175 -176 -186 -188 0
-22 -43 -44 -63 -64 -82 -83 -99 -101 -116 -117 -148 -149 -162 -163 -175 -176 -186 -188 0
-23 -43 -45 -63 -64 -82 -83 -99 -101 -116 -117 -148 -149 -162 -163 -175 -176 -186 -188 0
-23 -44 -45 -63 -65 -82 -83 -99 -101 -116 -117 -148 -149 -162 -163 -175 -176 -186 -188 0
-23 -44 -45 -64 -65 -82 -84 -99 -101 -116 -117 -148 -149 -162 -163 -175 -176 -186 -188 0
-23 -44 -45 -64 -65 -83 -84 -99 -102 -116 -117 -148 -149 -162 -163 -175 -176 -186 -188 0
-22 -43 -44 -63 -64 -82 -83 -100 -101 -116 -118 -148 -149 -162 -163 -175 -176 -186 -188 0
-23 -43 -45 -63 -64 -82 -83 -100 -101 -116 -118 -148 -149 -162 -163 -175 -176 -186 -188 0
-23 -44 -45 -63 -65 -82 -83 -100 -101 -116 -118 -148 -149 -162 -163 -175 -176 -186 -188 0
-23 -44 -45 -64 -65 -82 -84 -100 -101 -116 -118 -148 -149 -162 -163 -175 -176 -186 -188 0
-23 -44 -45 -64 -65 -83 -84 -100 -102 -116 -118 -148 -149 -162 -163 -175 -176 -186 -188 0
-23 -44 -45 -64 -65 -83 -84 -101 -102 -116 -119 -148 -149 -162 -163 -175 -176 -186 -188 0
-22 -43 -44 -63 -64 -82 -83 -100 -101 -117 -118 -148 -150 -162 -163 -175 -176 -186 -188 0
-23 -43 -45 -63 -64 -82 -83 -100 -101 -117 -118 -148 -150 -162 -163 -175 -176 -186 -188 0
-23 -44 -45 -63 -65 -82 -83 -100 -101 -117 -118 -148 -150 -162 -163 -175 -176 -186 -188 0
-23 -44 -45 -64 -65 -82 -84 -100 -101 -117 -118 -148 -150 -162 -163 -175 -176 -186 -188 0
-23 -44 -45 -64 -65 -83 -84 -100 -102 -117 -118 -148 -150 -162 -163 -175 -176 -186 -188 0
-23 -44 -45 -64 -65 -83 -84 -101 -102 -117 -119 -148 -150 -162 -163 -175 -176 -186 -188 0
-23 -44 -45 -64 -65 -83 -84 -101 -102 -118 -119 -148 -151 -162 -163 -175 -176 -186 -188 0
-22 -43 -44 -63 -64 -82 -83 -100 -101 -117 -118 -149 -150 -162 -164 -175 -176 -186 -188 0
-23 -43 -45 -63 -64 -82 -83 -100 -101 -117 -118 -149 -150 -162 -164 -175 -176 -186 -188 0
-23 -44 -45 -63 -65 -82 -83 -100 -101 -117 -118 -149 -150 -162 -164 -175 -176 -186 -188 0
-23 -44 -45 -64 -65 -82 -84 -100 -101 -117 -118 -149 -150 -162 -164 -175 -176 -186 -188 0
-23 -44 -45 -64 -65 -83 -84 -100 -102 -117 -118 -149 -150 -162 -164 -175 -176 -186 -188 0
-23 -44 -45 -64 -65 -83 -84 -101 -102 -117 -119 -149 -150 -162 -164 -175 -176 -186 -188 0
-23 -44 -45 -64 -65 -83 -84 -101 -102 -118 -119 -149 -151 -162 -164 -175 -176 -186 -188 0
-23 -44 -45 -64 -65 -83 -84 -101 -102 -118 -119 -150 -151 -162 -165 -175 -176 -186 -188 0
-22 -43 -44 -63 -64 -82 -83 -100 -101 -117 -118 -149 -150 -163 -164 -175 -177 -186 -188 0
-23 -43 -45 -63 -64 -82 -83 -100 -101 -117 -118 -149 -150 -163 -164 -175 -177 -186 -188 0
-23 -44 -45 -63 -65 -82 -83 -100 -101 -117 -118 -149 -150 -163 -164 -175 -177 -186 -188 0
-23 -44 -45 -64 -65 -82 -84 -100 -101 -117 -118 -149 -150 -163 -164 -175 -177 -186 -188 0
-23 -44 -45 -64 -65 -83 -84 -100 -102 -117 -118 -149 -150 -163 -164 -175 -177 -186 -188 0
-23 -44 -45 -64 -65 -83 -84 -101 -102 -117 -119 -149 -150 -163 -164 -175 -177 -186 -188 0
-23 -44 -45 -64 -65 -83 -84 -101 -102 -118 -119 -149 -151 -163 -164 -175 -177 -186 -188 0
-23 -44 -45 -64 -65 -83 -84 -101 -102 -118 -119 -150 -151 -163 -165 -175 -177 -186 -188 0
-23 -44 -45 -64 -65 -83 -84 -101 -102 -118 -119 -150 -151 -164 -165 -175 -178 -186 -188 0
-22 -43 -44 -63 -64 -82 -83 -100 -101 -117 -118 -149 -150 -163 -164 -176 -177 -186 -189 0
-23 -43 -45 -63 -64 -82 -83 -100 -101 -117 -118 -149 -150 -163 -164 -176 -177 -186 -189 0
-23 -44 -45 -63 -65 -82 -83 -100 -101 -117 -118 -149 -150 -163 -164 -176 -177 -186 -189 0
-23 -44 -45 -64 -65 -82 -84 -100 -101 -117 -118 -149 -150 -163 -164 -176 -177 -186 -189 0
-23 -44 -45 -64 -65 -83 -84 -100 -102 -117 -118 -149 -150 -163 -164 -176 -177 -186 -189 0
-23 -44 -45 -64 -65 -83 -84 -101 -102 -117 -119 -149 -150 -163 -164 -176 -177 -186 -189 0
-23 -44 -45 -64 -65 -83 -84 -101 -102 -118 -119 -149 -151 -163 -164 -176 -177 -186 -189 0
-23 -44 -45 -64 -65 -83 -84 -101 -102 -118 -119 -150 -151 -163 -165 -176 -177 -186 -189 0
-23 -44 -45 -64 -65 -83 -84 -101 -102 -118 -119 -150 -151 -164 -165 -176 -178 -186 -189 0
-23 -44 -45 -64 -65 -83 -84 -101 -102 -118 -119 -150 -151 -164 -165 -177 -178 -186 -190 0
-21 -42 -43 -62 -63 -81 -82 -99 -100 -116 -117 -148 -149 -162 -163 -175 -176 -187 -188 0
-22 -42 -44 -62 -63 -81 -82 -99 -100 -116 -117 -148 -149 -162 -163 -175 -176 -187 -188 0
-23 -42 -45 -62 -63 -81 -82 -99 -100 -116 -117 -148 -149 -162 -163 -175 -176 -187 -188 0
-22 -43 -44 -62 -64 -81 -82 -99 -100 -116 -117 -148 -149 -162 -163 -175 -176 -187 -188 0
-23 -43 -45 -62 -64 -81 -82 -99 -100 -116 -117 -148 -149 -162 -163 -175 -176 -187 -188 0
-23 -44 -45 -62 -65 -81 -82 -99 -100 -116 -117 -148 -149 -162 -163 -175 -176 -187 -188 0
-22 -43 -44 -63 -64 -81 -83 -99 -100 -116 -117 -148 -149 -162 -163 -175 -176 -187 -188 0
-23 -43 -45 -63 -64 -81 -83 -99 -100 -116 -117 -148 -149 -162 -163 -175 -176 -187 -188 0
-23 -44 -45 -63 -65 -81 -83 -99 -100 -116 -117 -148 -149 -162 -163 -175 -176 -187 -188 0
-23 -44 -45 -64 -65 -81 -84 -99 -100 -116 -117 -148 -149 -162 -163 -175 -176 -187 -188 0
-22 -43 -44 -63 -64 -82 -83 -99 -101 -116 -117 -148 -149 -162 -163 -175 -176 -187 -188 0
-23 -43 -45 -63 -64 -82 -83 -99 -101 -116 -117 -148 -149 -162 -163 -175 -176 -187 -188 0
-23 -44 -45 -63 -65 -82 -83 -99 -101 -116 -117 -148 -149 -162 -163 -175 -176 -187 -188 0
-23 -44 -45 -64 -65 -82 -84 -99 -101 -116 -117 -148 -149 -162 -163 -175 -176 -187 -188 0
-23 -44 -45 -64 -65 -83 -84 -99 -102 -116 -117 -148 -149 -162 -163 -175 -176 -187 -188 0
-22 -43 -44 -63 -64 -82 -83 -100 -101 -116 -118 -148 -149 -162 -163 -175 -176 -187 -188 0
-23 -43 -45 -63 -64 -82 -83 -100 -101 -116 -118 -148 -149 -162 -163 -175 -176 -187 -188 0
-23 -44 -45 -63 -65 -82 -83 -100 -101 -116 -118 -148 -149 -162 -163 -175 -176 -187 -188 0
-23 -44 -45 -64 -65 -82 -84 -100 -101 -116 -118 -148 -149 -162 -163 -175 -176 -187 -188 0
-23 -44 -45 -64 -65 -83 -84 -100 -102 -116 -118 -148 -149 -162 -163 -175 -176 -187 -188 0
-23 -44 -45 -64 -65 -83 -84 -101 -102 -116 -119 -148 -149 -162 -163 -175 -176 -187 -188 0
-22 -43 -44 -63 -64 -82 -83 -100 -101 -117 -118 -148 -150 -162 -163 -175 -176 -187 -188 0
-23 -43 -45 -63 -64 -82 -83 -100 -101 -117 -118 -148 -150 -162 -163 -175 -176 -187 -188 0
-23 -44 -45 -63 -65 -82 -83 -100 -101 -117 -118 -148 -150 -162 -163 -175 -176 -187 -188 0
-23 -44 -45 -64 -65 -82 -84 -100 -101 -117 -118 -148 -150 -162 -163 -175 -176 -187 -188 0
-23 -44 -45 -64 -65 -83 -84 -100 -102 -117 -118 -148 -150 -162 -163 -175 -176 -187 -188 0
-23 -44 -45 -64 -65 -83 -84 -101 -102 -117 -119 -148 -150 -162 -163 -175 -176 -187 -188 0
-23 -44 -45 -64 -65 -83 -84 -101 -102 -118 -119 -148 -151 -162 -163 -175 -176 -187 -188 0
-22 -43 -44 -63 -64 -82 -83 -100 -101 -117 -118 -149 -150 -162 -164 -175 -176 -187 -188 0
-23 -43 -45 -63 -64 -82 -83 -100 -101 -117 -118 -149 -150 -162 -164 -175 -176 -187 -188 0
-23 -44 -45 -63 -65 -82 -83 -100 -101 -117 -118 -149 -150 -162 -164 -175 -176 -187 -188 0
-23 -44 -45 -64 -65 -82 -84 -100 -101 -117 -118 -149 -150 -162 -164 -175 -176 -187 -188 0
-23 -44 -45 -64 -65 -83 -84 -100 -102 -117 -118 -149 -150 -162 -164 -175 -176 -187 -188 0
-23 -44 -45 -64 -65 -83 -84 -101 -102 -117 -119 -149 -150 -162 -164 -175 -176 -187 -188 0
-23 -44 -45 -64 -65 -83 -84 -101 -102 -118 -119 -149 -151 -162 -164 -175 -176 -187 -188 0
-23 -44 -45 -64 -65 -83 -84 -101 -102 -118 -119 -150 -151 -162 -165 -175 -176 -187 -188 0
-22 -43 -44 -63 -64 -82 -83 -100 -101 -117 -118 -149 -150 -163 -164 -175 -177 -187 -188 0
-23 -43 -45 -63 -64 -82 -83 -100 -101 -117 -118 -149 -150 -163 -164 -175 -177 -187 -188 0
-23 -44 -45 -63 -65 -82 -83 -100 -101 -117 -118 -149 -150 -163 -164 -175 -177 -187 -188 0
-23 -44 -45 -64 -65 -82 -84 -100 -101 -117 -118 -149 -150 -163 -164 -175 -177 -187 -188 0
-23 -44 -45 -64 -65 -83 -84 -100 -102 -117 -118 -149 -150 -163 -164 -175 -177 -187 -188 0
-23 -44 -45 -64 -65 -83 -84 -101 -102 -117 -119 -149 -150 -163 -164 -175 -177 -187 -188 0
-23 -44 -45 -64 -65 -83 -84 -101 -102 -118 -119 -149 -151 -163 -164 -175 -177 -187 -188 0
-23 -44 -45 -64 -65 -83 -84 -101 -102 -118 -119 -150 -151 -163 -165 -175 -177 -187 -188 0
-23 -44 -45 -64 -65 -83 -84 -101 -102 -118 -119 -150 -151 -164 -165 -175 -178 -187 -188 0
-22 -43 -44 -63 -64 -82 -83 -100 -101 -117 -118 -149 -150 -163 -164 -176 -177 -187 -189 0
-23 -43 -45 -63 -64 -82 -83 -100 -101 -117 -118 -149 -150 -163 -164 -176 -177 -187 -189 0
-23 -44 -45 -63 -65 -82 -83 -100 -101 -117 -118 -149 -150 -163 -164 -176 -177 -187 -189 0
-23 -44 -45 -64 -65 -82 -84 -100 -101 -117 -118 -149 -150 -163 -164 -176 -177 -187 -189 0
-23 -44 -45 -64 -65 -83 -84 -100 -102 -117 -118 -149 -150 -163 -164 -176 -177 -187 -189 0
-23 -44 -45 -64 -65 -83 -84 -101 -102 -117 -119 -149 -150 -163 -164 -176 -177 -187 -189 0
-23 -44 -45 -64 -65 -83 -84 -101 -102 -118 -119 -149 -151 -163 -164 -176 -177 -187 -189 0
-23 -44 -45 -64 -65 -83 -84 -101 -102 -118 -119 -150 -151 -163 -165 -176 -177 -187 -189 0
-23 -44 -45 -64 -65 -83 -84 -101 -102 -118 -119 -150 -151 -164 -165 -176 -178 -187 -189 0
-23 -44 -45 -64 -65 -83 -84 -101 -102 -118 -119 -150 -151 -164 -165 -177 -178 -187 -190 0
-22 -43 -44 -63 -64 -82 -83 -100 -101 -117 -118 -149 -150 -163 -164 -176 -177 -188 -189 0
-23 -43 -45 -63 -64 -82 -83 -100 -101 -117 -118 -149 -150 -163 -164 -176 -177 -188 -189 0
-23 -44 -45 -63 -65 -82 -83 -100 -101 -117 -118 -149 -150 -163 -164 -176 -177 -188 -189 0
-23 -44 -45 -64 -65 -82 -84 -100 -101 -117 -118 -149 -150 -163 -164 -176 -177 -188 -189 0
-23 -44 -45 -64 -65 -83 -84 -100 -102 -117 -118 -149 -150 -163 -164 -176 -177 -188 -189 0
-23 -44 -45 -64 -65 -83 -84 -101 -102 -117 -119 -149 -150 -163 -164 -176 -177 -188 -189 0
-23 -44 -45 -64 -65 -83 -84 -101 -102 -118 -119 -149 -151 -163 -164 -176 -177 -188 -189 0
-23 -44 -45 -64 -65 -83 -84 -101 -102 -118 -119 -150 -151 -163 -165 -176 -177 -188 -189 0
-23 -44 -45 -64 -65 -83 -84 -101 -102 -118 -119 -150 -151 -164 -165 -176 -178 -188 -189 0
-23 -44 -45 -64 -65 -83 -84 -101 -102 -118 -119 -150 -151 -164 -165 -177 -178 -188 -190 0
-23 -44 -45 -64 -65 -83 -84 -101 -102 -118 -119 -150 -151 -164 -165 -177 -178 -189 -190 0
-21 -42 -43 -62 -63 -81 -82 -99 -100 -116 -117 -148 -149 -162 -163 -175 -176 -199 -200 0
-22 -42 -44 -62 -63 -81 -82 -99 -100 -116 -117 -148 -149 -162 -163 -175 -176 -199 -200 0
-23 -42 -45 -62 -63 -81 -82 -99 -100 -116 -117 -148 -149 -162 -163 -175 -176 -199 -200 0
-22 -43 -44 -62 -64 -81 -82 -99 -100 -116 -117 -148 -149 -162 -163 -175 -176 -199 -200 0
-23 -43 -45 -62 -64 -81 -82 -99 -100 -116 -117 -148 -149 -162 -163 -175 -176 -199 -200 0
-23 -44 -45 -62 -65 -81 -82 -99 -100 -116 -117 -148 -149 -162 -163 -175 -176 -199 -200 0
-22 -43 -44 -63 -64 -81 -83 -99 -100 -116 -117 -148 -149 -162 -163 -175 -176 -199 -200 0
-23 -43 -45 -63 -64 -81 -83 -99 -100 -116 -117 -148 -149 -162 -163 -175 -176 -199 -200 0
-23 -44 -45 -63 -65 -81 -83 -99 -100 -116 -117 -148 -149 -162 -163 -175 -176 -199 -200 0
-23 -44 -45 -64 -65 -81 -84 -99 -100 -116 -117 -148 -149 -162 -163 -175 -176 -199 -200 0
-22 -43 -44 -63 -64 -82 -83 -99 -101 -116 -117 -148 -149 -162 -163 -175 -176 -199 -200 0
-23 -43 -45 -63 -64 -82 -83 -99 -101 -116 -117 -148 -149 -162 -163 -175 -176 -199 -200 0
-23 -44 -45 -63 -65 -82 -83 -99 -101 -116 -117 -148 -149 -162 -163 -175 -176 -199 -200 0
-23 -44 -45 -64 -65 -82 -84 -99 -101 -116 -117 -148 -149 -162 -163 -175 -176 -199 -200 0
-23 -44 -45 -64 -65 -83 -84 -99 -102 -116 -117 -148 -149 -162 -163 -175 -176 -199 -200 0
-22 -43 -44 -63 -64 -82 -83 -100 -101 -116 -118 -148 -149 -162 -163 -175 -176 -199 -200 0
-23 -43 -45 -63 -64 -82 -83 -100 -101 -116 -118 -148 -149 -162 -163 -175 -176 -199 -200 0
-23 -44 -45 -63 -65 -82 -83 -100 -101 -116 -118 -148 -149 -162 -163 -175 -176 -199 -200 0
-23 -44 -45 -64 -65 -82 -84 -100 -101 -116 -118 -148 -149 -162 -163 -175 -176 -199 -200 0
-23 -44 -45 -64 -65 -83 -84 -100 -102 -116 -118 -148 -149 -162 -163 -175 -176 -199 -200 0
-23 -44 -45 -64 -65 -83 -84 -101 -102 -116 -119 -148 -149 -162 -163 -175 -176 -199 -200 0
-22 -43 -44 -63 -64 -82 -83 -100 -101 -117 -118 -148 -150 -162 -163 -175 -176 -199 -200 0
-23 -43 -45 -63 -64 -82 -83 -100 -101 -117 -118 -148 -150 -162 -163 -175 -176 -199 -200 0
-23 -44 -45 -63 -65 -82 -83 -100 -101 -117 -118 -148 -150 -162 -163 -175 -176 -199 -200 0
-23 -44 -45 -64 -65 -82 -84 -100 -101 -117 -118 -148 -150 -162 -163 -175 -176 -199 -200 0
-23 -44 -45 -64 -65 -83 -84 -100 -102 -117 -118 -148 -150 -162 -163 -175 -176 -199 -200 0
-23 -44 -45 -64 -65 -83 -84 -101 -102 -117 -119 -148 -150 -162 -163 -175 -176 -199 -200 0
-23 -44 -45 -64 -65 -83 -84 -101 -102 -118 -119 -148 -151 -162 -163 -175 -176 -199 -200 0
-22 -43 -44 -63 -64 -82 -83 -100 -101 -117 -118 -149 -150 -162 -164 -175 -176 -199 -200 0
-23 -43 -45 -63 -64 -82 -83 -100 -101 -117 -118 -149 -150 -162 -164 -175 -176 -199 -200 0
-23 -44 -45 -63 -65 -82 -83 -100 -101 -117 -118 -149 -150 -162 -164 -175 -176 -199 -200 0
-23 -44 -45 -64 -65 -82 -84 -100 -101 -117 -118 -149 -150 -162 -164 -175 -176 -199 -200 0
-23 -44 -45 -64 -65 -83 -84 -100 -102 -117 -118 -149 -150 -162 -164 -175 -176 -199 -200 0
-23 -44 -45 -64 -65 -83 -84 -101 -102 -117 -119 -149 -150 -162 -164 -175 -176 -199 -200 0
-23 -44 -45 -64 -65 -83 -84 -101 -102 -118 -119 -149 -151 -162 -164 -175 -176 -199 -200 0
-23 -44 -45 -64 -65 -83 -84 -101 -102 -118 -119 -150 -151 -162 -165 -175 -176 -199 -200 0
-22 -43 -44 -63 -64 -82 -83 -100 -101 -117 -118 -149 -150 -163 -164 -175 -177 -199 -200 0
-23 -43 -45 -63 -64 -82 -83 -100 -101 -117 -118 -149 -150 -163 -164 -175 -177 -199 -200 0
-23 -44 -45 -63 -65 -82 -83 -100 -101 -117 -118 -149 -150 -163 -164 -175 -177 -199 -200 0
-23 -44 -45 -64 -65 -82 -84 -100 -101 -117 -118 -149 -150 -163 -164 -175 -177 -199 -200 0
-23 -44 -45 -64 -65 -83 -84 -100 -102 -117 -118 -149 -150 -163 -164 -175 -177 -199 -200 0
-23 -44 -45 -64 -65 -83 -84 -101 -102 -117 -119 -149 -150 -163 -164 -175 -177 -199 -200 0
-23 -44 -45 -64 -65 -83 -84 -101 -102 -118 -119 -149 -151 -163 -164 -175 -177 -199 -200 0
-23 -44 -45 -64 -65 -83 -84 -101 -102 -118 -119 -150 -151 -163 -165 -175 -177 -199 -200 0
-23 -44 -45 -64 -65 -83 -84 -101 -102 -118 -119 -150 -151 -164 -165 -175 -178 -199 -200 0
-22 -43 -44 -63 -64 -82 -83 -100 -101 -117 -118 -149 -150 -163 -164 -176 -177 -199 -201 0
-23 -43 -45 -63 -64 -82 -83 -100 -101 -117 -118 -149 -150 -163 -164 -176 -177 -199 -201 0
-23 -44 -45 -63 -65 -82 -83 -100 -101 -117 -118 -149 -150 -163 -164 -176 -177 -199 -201 0
-23 -44 -45 -64 -65 -82 -84 -100 -101 -117 -118 -149 -150 -163 -164 -176 -177 -199 -201 0
-23 -44 -45 -64 -65 -83 -84 -100 -102 -117 -118 -149 -150 -163 -164 -176 -177 -199 -201 0
-23 -44 -45 -64 -65 -83 -84 -101 -102 -117 -119 -149 -150 -163 -164 -176 -177 -199 -201 0
-23 -44 -45 -64 -65 -83 -84 -101 -102 -118 -119 -149 -151 -163 -164 -176 -177 -199 -201 0
-23 -44 -45 -64 -65 -83 -84 -101 -102 -118 -119 -150 -151 -163 -165 -176 -177 -199 -201 0
-23 -44 -45 -64 -65 -83 -84 -101 -102 -118 -119 -150 -151 -164 -165 -176 -178 -199 -201 0
-23 -44 -45 -64 -65 -83 -84 -101 -102 -118 -119 -150 -151 -164 -165 -177 -178 -199 -202 0
-22 -43 -44 -63 -64 -82 -83 -100 -101 -117 -118 -149 -150 -163 -164 -176 -177 -200 -201 0
-23 -43 -45 -63 -64 -82 -83 -100 -101 -117 -118 -149 -150 -163 -164 -176 -177 -200 -201 0
-23 -44 -45 -63 -65 -82 -83 -100 -101 -117 -118 -149 -150 -163 -164 -176 -177 -200 -201 0
-23 -44 -45 -64 -65 -82 -84 -100 -101 -117 -118 -149 -150 -163 -164 -176 -177 -200 -201 0
-23 -44 -45 -64 -65 -83 -84 -100 -102 -117 -118 -149 -150 -163 -164 -176 -177 -200 -201 0
-23 -44 -45 -64 -65 -83 -84 -101 -102 -117 -119 -149 -150 -163 -164 -176 -177 -200 -201 0
-23 -44 -45 -64 -65 -83 -84 -101 -102 -118 -119 -149 -151 -163 -164 -176 -177 -200 -201 0
-23 -44 -45 -64 -65 -83 -84 -101 -102 -118 -119 -150 -151 -163 -165 -176 -177 -200 -201 0
-23 -44 -45 -64 -65 -83 -84 -101 -102 -118 -119 -150 -151 -164 -165 -176 -178 -200 -201 0
-23 -44 -45 -64 -65 -83 -84 -101 -102 -118 -119 -150 -151 -164 -165 -177 -178 -200 -202 0
-23 -44 -45 -64 -65 -83 -84 -101 -102 -118 -119 -150 -151 -164 -165 -177 -178 -201 -202 0
-22 -43 -44 -63 -64 -82 -83 -100 -101 -117 -118 -149 -150 -163 -164 -176 -177 -211 -212 0
-23 -43 -45 -63 -64 -82 -83 -100 -101 -117 -118 -149 -150 -163 -164 -176 -177 -211 -212 0
-23 -44 -45 -63 -65 -82 -83 -100 -101 -117 -118 -149 -150 -163 -164 -176 -177 -211 -212 0
-23 -44 -45 -64 -65 -82 -84 -100 -101 -117 -118 -149 -150 -163 -164 -176 -177 -211 -212 0
-23 -44 -45 -64 -65 -83 -84 -100 -102 -117 -118 -149 -150 -163 -164 -176 -177 -211 -212 0
-23 -44 -45 -64 -65 -83 -84 -101 -102 -117 -119 -149 -150 -163 -164 -176 -177 -211 -212 0
-23 -44 -45 -64 -65 -83 -84 -101 -102 -118 -119 -149 -151 -163 -164 -176 -177 -211 -212 0
-23 -44 -45 -64 -65 -83 -84 -101 -102 -118 -119 -150 -151 -163 -165 -176 -177 -211 -212 0
-23 -44 -45 -64 -65 -83 -84 -101 -102 -118 -119 -150 -151 -164 -165 -176 -178 -211 -212 0
-23 -44 -45 -64 -65 -83 -84 -101 -102 -118 -119 -150 -151 -164 -165 -177 -178 -211 -213 0
-23 -44 -45 -64 -65 -83 -84 -101 -102 -118 -119 -150 -151 -164 -165 -177 -178 -212 -213 0
-23 -44 -45 -64 -65 -83 -84 -101 -102 -118 -119 -150 -151 -164 -165 -177 -178 -222 -223 0
-21 -42 -43 -62 -63 -81 -82 -99 -100 -116 -117 -148 -149 -162 -163 -188 -189 -199 -200 0
-22 -42 -44 -62 -63 -81 -82 -99 -100 -116 -117 -148 -149 -162 -163 -188 -189 -199 -200 0
-23 -42 -45 -62 -63 -81 -82 -99 -100 -116 -117 -148 -149 -162 -163 -188 -189 -199 -200 0
-22 -43 -44 -62 -64 -81 -82 -99 -100 -116 -117 -148 -149 -162 -163 -188 -189 -199 -200 0
-23 -43 -45 -62 -64 -81 -82 -99 -100 -116 -117 -148 -149 -162 -163 -188 -189 -199 -200 0
-23 -44 -45 -62 -65 -81 -82 -99 -100 -116 -117 -148 -149 -162 -163 -188 -189 -199 -200 0
-22 -43 -44 -63 -64 -81 -83 -99 -100 -116 -117 -148 -149 -162 -163 -188 -189 -199 -200 0
-23 -43 -45 -63 -64 -81 -83 -99 -100 -116 -117 -148 -149 -162 -163 -188 -189 -199 -200 0
-23 -44 -45 -63 -65 -81 -83 -99 -100 -116 -117 -148 -149 -162 -163 -188 -189 -199 -200 0
-23 -44 -45 -64 -65 -81 -84 -99 -100 -116 -117 -148 -149 -162 -163 -188 -189 -199 -200 0
-22 -43 -44 -63 -64 -82 -83 -99 -101 -116 -117 -148 -149 -162 -163 -188 -189 -199 -200 0
-23 -43 -45 -63 -64 -82 -83 -99 -101 -116 -117 -148 -149 -162 -163 -188 -189 -199 -200 0
-23 -44 -45 -63 -65 -82 -83 -99 -101 -116 -117 -148 -149 -162 -163 -188 -189 -199 -200 0
-23 -44 -45 -64 -65 -82 -84 -99 -101 -116 -117 -148 -149 -162 -163 -188 -189 -199 -200 0
-23 -44 -45 -64 -65 -83 -84 -99 -102 -116 -117 -148 -149 -162 -163 -188 -189 -199 -200 0
-22 -43 -44 -63 -64 -82 -83 -100 -101 -116 -118 -148 -149 -162 -163 -188 -189 -199 -200 0
-23 -43 -45 -63 -64 -82 -83 -100 -101 -116 -118 -148 -149 -162 -163 -188 -189 -199 -200 0
-23 -44 -45 -63 -65 -82 -83 -100 -101 -116 -118 -148 -149 -162 -163 -188 -189 -199 -200 0
-23 -44 -45 -64 -65 -82 -84 -100 -101 -116 -118 -148 -149 -162 -163 -188 -189 -199 -200 0
-23 -44 -45 -64 -65 -83 -84 -100 -102 -116 -118 -148 -149 -162 -163 -188 -189 -199 -200 0
-23 -44 -45 -64 -65 -83 -84 -101 -102 -116 -119 -148 -149 -162 -163 -188 -189 -199 -200 0
-22 -43 -44 -63 -64 -82 -83 -100 -101 -117 -118 -148 -150 -162 -163 -188 -189 -199 -200 0
-23 -43 -45 -63 -64 -82 -83 -100 -101 -117 -118 -148 -150 -162 -163 -188 -189 -199 -200 0
-23 -44 -45 -63 -65 -82 -83 -100 -101 -117 -118 -148 -150 -162 -163 -188 -189 -199 -200 0
-23 -44 -45 -64 -65 -82 -84 -100 -101 -117 -118 -148 -150 -162 -163 -188 -189 -199 -200 0
-23 -44 -45 -64 -65 -83 -84 -100 -102 -117 -118 -148 -150 -162 -163 -188 -189 -199 -200 0
-23 -44 -45 -64 -65 -83 -84 -101 -102 -117 -119 -148 -150 -162 -163 -188 -189 -199 -200 0
-23 -44 -45 -64 -65 -83 -84 -101 -102 -118 -119 -148 -151 -162 -163 -188 -189 -199 -200 0
-22 -43 -44 -63 -64 -82 -83 -100 -101 -117 -118 -149 -150 -162 -164 -188 -189 -199 -200 0
-23 -43 -45 -63 -64 -82 -83 -100 -101 -117 -118 -149 -150 -162 -164 -188 -189 -199 -200 0
-23 -44 -45 -63 -65 -82 -83 -100 -101 -117 -118 -149 -150 -162 -164 -188 -189 -199 -200 0
-23 -44 -45 -64 -65 -82 -84 -100 -101 -117 -118 -149 -150 -162 -164 -188 -189 -199 -200 0
-23 -44 -45 -64 -65 -83 -84 -100 -102 -117 -118 -149 -150 -162 -164 -188 -189 -199 -200 0
-23 -44 -45 -64 -65 -83 -84 -101 -102 -117 -119 -149 -150 -162 -164 -188 -189 -199 -200 0
-23 -44 -45 -64 -65 -83 -84 -101 -102 -118 -119 -149 -151 -162 -164 -188 -189 -199 -200 0
-23 -44 -45 -64 -65 -83 -84 -101 -102 -118 -119 -150 -151 -162 -165 -188 -189 -199 -200 0
-22 -43 -44 -63 -64 -82 -83 -100 -101 -117 -118 -149 -150 -163 -164 -188 -190 -199 -200 0
-23 -43 -45 -63 -64 -82 -83 -100 -101 -117 -118 -149 -150 -163 -164 -188 -190 -199 -200 0
-23 -44 -45 -63 -65 -82 -83 -100 -101 -117 -118 -149 -150 -163 -164 -188 -190 -199 -200 0
-23 -44 -45 -64 -65 -82 -84 -100 -101 -117 -118 -149 -150 -163 -164 -188 -190 -199 -200 0
-23 -44 -45 -64 -65 -83 -84 -100 -102 -117 -118 -149 -150 -163 -164 -188 -190 -199 -200 0
-23 -44 -45 -64 -65 -83 -84 -101 -102 -117 -119 -149 -150 -163 -164 -188 -190 -199 -200 0
-23 -44 -45 -64 -65 -83 -84 -101 -102 -118 -119 -149 -151 -163 -164 -188 -190 -199 -200 0
-23 -44 -45 -64 -65 -83 -84 -101 -102 -118 -119 -150 -151 -163 -165 -188 -190 -199 -200 0
-23 -44 -45 -64 -65 -83 -84 -101 -102 -118 -119 -150 -151 -164 -165 -188 -191 -199 -200 0
-22 -43 -44 -63 -64 -82 -83 -100 -101 -117 -118 -149 -150 -163 -164 -189 -190 -199 -201 0
-23 -43 -45 -63 -64 -82 -83 -100 -101 -117 -118 -149 -150 -163 -164 -189 -190 -199 -201 0
-23 -44 -45 -63 -65 -82 -83 -100 -101 -117 -118 -149 -150 -163 -164 -189 -190 -199 -201 0
-23 -44 -45 -64 -65 -82 -84 -100 -101 -117 -118 -149 -150 -163 -164 -189 -190 -199 -201 0
-23 -44 -45 -64 -65 -83 -84 -100 -102 -117 -118 -149 -150 -163 -164 -189 -190 -199 -201 0
-23 -44 -45 -64 -65 -83 -84 -101 -102 -117 -119 -149 -150 -163 -164 -189 -190 -199 -201 0
-23 -44 -45 -64 -65 -83 -84 -101 -102 -118 -119 -149 -151 -163 -164 -189 -190 -199 -201 0
-23 -44 -45 -64 -65 -83 -84 -101 -102 -118 -119 -150 -151 -163 -165 -189 -190 -199 -201 0
-23 -44 -45 -64 -65 -83 -84 -101 -102 -118 -119 -150 -151 -164 -165 -189 -191 -199 -201 0
-23 -44 -45 -64 -65 -83 -84 -101 -102 -118 -119 -150 -151 -164 -165 -190 -191 -199 -202 0
-22 -43 -44 -63 -64 -82 -83 -100 -101 -117 -118 -149 -150 -163 -164 -189 -190 -200 -201 0
-23 -43 -45 -63 -64 -82 -83 -100 -101 -117 -118 -149 -150 -163 -164 -189 -190 -200 -201 0
-23 -44 -45 -63 -65 -82 -83 -100 -101 -117 -118 -149 -150 -163 -164 -189 -190 -200 -201 0
-23 -44 -45 -64 -65 -82 -84 -100 -101 -117 -118 -149 -150 -163 -164 -189 -190 -200 -201 0
-23 -44 -45 -64 -65 -83 -84 -100 -102 -117 -118 -149 -150 -163 -164 -189 -190 -200 -201 0
-23 -44 -45 -64 -65 -83 -84 -101 -102 -117 -119 -149 -150 -163 -164 -189 -190 -200 -201 0
-23 -44 -45 -64 -65 -83 -84 -101 -102 -118 -119 -149 -151 -163 -164 -189 -190 -200 -201 0
-23 -44 -45 -64 -65 -83 -84 -101 -102 -118 -119 -150 -151 -163 -165 -189 -190 -200 -201 0
-23 -44 -45 -64 -65 -83 -84 -101 -102 -118 -119 -150 -151 -164 -165 -189 -191 -200 -201 0
-23 -44 -45 -64 -65 -83 -84 -101 -102 -118 -119 -150 -151 -164 -165 -190 -191 -200 -202 0
-23 -44 -45 -64 -65 -83 -84 -101 -102 -118 -119 -150 -151 -164 -165 -190 -191 -201 -202 0
-22 -43 -44 -63 -64 -82 -83 -100 -101 -117 -118 -149 -150 -163 -164 -189 -190 -211 -212 0
-23 -43 -45 -63 -64 -82 -83 -100 -101 -117 -118 -149 -150 -163 -164 -189 -190 -211 -212 0
-23 -44 -45 -63 -65 -82 -83 -100 -101 -117 -118 -149 -150 -163 -164 -189 -190 -211 -212 0
-23 -44 -45 -64 -65 -82 -84 -100 -101 -117 -118 -149 -150 -163 -164 -189 -190 -211 -212 0
-23 -44 -45 -64 -65 -83 -84 -100 -102 -117 -118 -149 -150 -163 -164 -189 -190 -211 -212 0
-23 -44 -45 -64 -65 -83 -84 -101 -102 -117 -119 -149 -150 -163 -164 -189 -190 -211 -212 0
-23 -44 -45 -64 -65 -83 -84 -101 -102 -118 -119 -149 -151 -163 -164 -189 -190 -211 -212 0
-23 -44 -45 -64 -65 -83 -84 -101 -102 -118 -119 -150 -151 -163 -165 -189 -190 -211 -212 0
-23 -44 -45 -64 -65 -83 -84 -101 -102 -118 -119 -150 -151 -164 -165 -189 -191 -211 -212 0
-23 -44 -45 -64 -65 -83 -84 -101 -102 -118 -119 -150 -151 -164 -165 -190 -191 -211 -213 0
-23 -44 -45 -64 -65 -83 -84 -101 -102 -118 -119 -150 -151 -164 -165 -190 -191 -212 -213 0
-23 -44 -45 -64 -65 -83 -84 -101 -102 -118 -119 -150 -151 -164 -165 -190 -191 -222 -223 0
-22 -43 -44 -63 -64 -82 -83 -100 -101 -117 -118 -149 -150 -163 -164 -201 -202 -211 -212 0
-23 -43 -45 -63 -64 -82 -83 -100 -101 -117 -118 -149 -150 -163 -164 -201 -202 -211 -212 0
-23 -44 -45 -63 -65 -82 -83 -100 -101 -117 -118 -149 -150 -163 -164 -201 -202 -211 -212 0
-23 -44 -45 -64 -65 -82 -84 -100 -101 -117 -118 -149 -150 -163 -164 -201 -202 -211 -212 0
-23 -44 -45 -64 -65 -83 -84 -100 -102 -117 -118 -149 -150 -163 -164 -201 -202 -211 -212 0
-23 -44 -45 -64 -65 -83 -84 -101 -102 -117 -119 -149 -150 -163 -164 -201 -202 -211 -212 0
-23 -44 -45 -64 -65 -83 -84 -101 -102 -118 -119 -149 -151 -163 -164 -201 -202 -211 -212 0
-23 -44 -45 -64 -65 -83 -84 -101 -102 -118 -119 -150 -151 -163 -165 -201 -202 -211 -212 0
-23 -44 -45 -64 -65 -83 -84 -101 -102 -118 -119 -150 -151 -164 -165 -201 -203 -211 -212 0
-23 -44 -45 -64 -65 -83 -84 -101 -102 -118 -119 -150 -151 -164 -165 -202 -203 -211 -213 0
-23 -44 -45 -64 -65 -83 -84 -101 -102 -118 -119 -150 -151 -164 -165 -202 -203 -212 -213 0
-23 -44 -45 -64 -65 -83 -84 -101 -102 -118 -119 -150 -151 -164 -165 -202 -203 -222 -223 0
-23 -44 -45 -64 -65 -83 -84 -101 -102 -118 -119 -150 -151 -164 -165 -213 -214 -222 -223 0
-21 -42 -43 -62 -63 -81 -82 -99 -100 -116 -117 -148 -149 -176 -177 -188 -189 -199 -200 0
-22 -42 -44 -62 -63 -81 -82 -99 -100 -116 -117 -148 -149 -176 -177 -188 -189 -199 -200 0
-23 -42 -45 -62 -63 -81 -82 -99 -100 -116 -117 -148 -149 -176 -177 -188 -189 -199 -200 0
-22 -43 -44 -62 -64 -81 -82 -99 -100 -116 -117 -148 -149 -176 -177 -188 -189 -199 -200 0
-23 -43 -45 -62 -64 -81 -82 -99 -100 -116 -117 -148 -149 -176 -177 -188 -189 -199 -200 0
-23 -44 -45 -62 -65 -81 -82 -99 -100 -116 -117 -148 -149 -176 -177 -188 -189 -199 -200 0
-22 -43 -44 -63 -64 -81 -83 -99 -100 -116 -117 -148 -149 -176 -177 -188 -189 -199 -200 0
-23 -43 -45 -63 -64 -81 -83 -99 -100 -116 -117 -148 -149 -176 -177 -188 -189 -199 -200 0
-23 -44 -45 -63 -65 -81 -83 -99 -100 -116 -117 -148 -149 -176 -177 -188 -189 -199 -200 0
-23 -44 -45 -64 -65 -81 -84 -99 -100 -116 -117 -148 -149 -176 -177 -188 -189 -199 -200 0
-22 -43 -44 -63 -64 -82 -83 -99 -101 -116 -117 -148 -149 -176 -177 -188 -189 -199 -200 0
-23 -43 -45 -63 -64 -82 -83 -99 -101 -116 -117 -148 -149 -176 -177 -188 -189 -199 -200 0
-23 -44 -45 -63 -65 -82 -83 -99 -101 -116 -117 -148 -149 -176 -177 -188 -189 -199 -200 0
-23 -44 -45 -64 -65 -82 -84 -99 -101 -116 -117 -148 -149 -176 -177 -188 -189 -199 -200 0
-23 -44 -45 -64 -65 -83 -84 -99 -102 -116 -117 -148 -149 -176 -177 -188 -189 -199 -200 0
-22 -43 -44 -63 -64 -82 -83 -100 -101 -116 -118 -148 -149 -176 -177 -188 -189 -199 -200 0
-23 -43 -45 -63 -64 -82 -83 -100 -101 -116 -118 -148 -149 -176 -177 -188 -189 -199 -200 0
-23 -44 -45 -63 -65 -82 -83 -100 -101 -116 -118 -148 -149 -176 -177 -188 -189 -199 -200 0
-23 -44 -45 -64 -65 -82 -84 -100 -101 -116 -118 -148 -149 -176 -177 -188 -189 -199 -200 0
-23 -44 -45 -64 -65 -83 -84 -100 -102 -116 -118 -148 -149 -176 -177 -188 -189 -199 -200 0
-23 -44 -45 -64 -65 -83 -84 -101 -102 -116 -119 -148 -149 -176 -177 -188 -189 -199 -200 0
-22 -43 -44 -63 -64 -82 -83 -100 -101 -117 -118 -148 -150 -176 -177 -188 -189 -199 -200 0
-23 -43 -45 -63 -64 -82 -83 -100 -101 -117 -118 -148 -150 -176 -177 -188 -189 -199 -200 0
-23 -44 -45 -63 -65 -82 -83 -100 -101 -117 -118 -148 -150 -176 -177 -188 -189 -199 -200 0
-23 -44 -45 -64 -65 -82 -84 -100 -101 -117 -118 -148 -150 -176 -177 -188 -189 -199 -200 0
-23 -44 -45 -64 -65 -83 -84 -100 -102 -117 -118 -148 -150 -176 -177 -188 -189 -199 -200 0
-23 -44 -45 -64 -65 -83 -84 -101 -102 -117 -119 -148 -150 -176 -177 -188 -189 -199 -200 0
-23 -44 -45 -64 -65 -83 -84 -101 -102 -118 -119 -148 -151 -176 -177 -188 -189 -199 -200 0
-22 -43 -44 -63 -64 -82 -83 -100 -101 -117 -118 -149 -150 -176 -178 -188 -189 -199 -200 0
-23 -43 -45 -63 -64 -82 -83 -100 -101 -117 -118 -149 -150 -176 -178 -188 -189 -199 -200 0
-23 -44 -45 -63 -65 -82 -83 -100 -101 -117 -118 -149 -150 -176 -178 -188 -189 -199 -200 0
-23 -44 -45 -64 -65 -82 -84 -100 -101 -117 -118 -149 -150 -176 -178 -188 -189 -199 -200 0
-23 -44 -45 -64 -65 -83 -84 -100 -102 -117 -118 -149 -150 -176 -178 -188 -189 -199 -200 0
-23 -44 -45 -64 -65 -83 -84 -101 -102 -117 -119 -149 -150 -176 -178 -188 -189 -199 -200 0
-23 -44 -45 -64 -65 -83 -84 -101 -102 -118 -119 -149 -151 -176 -178 -188 -189 -199 -200 0
-23 -44 -45 -64 -65 -83 -84 -101 -102 -118 -119 -150 -151 -176 -179 -188 -189 -199 -200 0
-22 -43 -44 -63 -64 -82 -83 -100 -101 -117 -118 -149 -150 -177 -178 -188 -190 -199 -200 0
-23 -43 -45 -63 -64 -82 -83 -100 -101 -117 -118 -149 -150 -177 -178 -188 -190 -199 -200 0
-23 -44 -45 -63 -65 -82 -83 -100 -101 -117 -118 -149 -150 -177 -178 -188 -190 -199 -200 0
-23 -44 -45 -64 -65 -82 -84 -100 -101 -117 -118 -149 -150 -177 -178 -188 -190 -199 -200 0
-23 -44 -45 -64 -65 -83 -84 -100 -102 -117 -118 -149 -150 -177 -178 -188 -190 -199 -200 0
-23 -44 -45 -64 -65 -83 -84 -101 -102 -117 -119 -149 -150 -177 -178 -188 -190 -199 -200 0
-23 -44 -45 -64 -65 -83 -84 -101 -102 -118 -119 -149 -151 -177 -178 -188 -190 -199 -200 0
-23 -44 -45 -64 -65 -83 -84 -101 -102 -118 -119 -150 -151 -177 -179 -188 -190 -199 -200 0
-23 -44 -45 -64 -65 -83 -84 -101 -102 -118 -119 -150 -151 -178 -179 -188 -191 -199 -200 0
-22 -43 -44 -63 -64 -82 -83 -100 -101 -117 -118 -149 -150 -177 -178 -189 -190 -199 -201 0
-23 -43 -45 -63 -64 -82 -83 -100 -101 -117 -118 -149 -150 -177 -178 -189 -190 -199 -201 0
-23 -44 -45 -63 -65 -82 -83 -100 -101 -117 -118 -149 -150 -177 -178 -189 -190 -199 -201 0
-23 -44 -45 -64 -65 -82 -84 -100 -101 -117 -118 -149 -150 -177 -178 -189 -190 -199 -201 0
-23 -44 -45 -64 -65 -83 -84 -100 -102 -117 -118 -149 -150 -177 -178 -189 -190 -199 -201 0
-23 -44 -45 -64 -65 -83 -84 -101 -102 -117 -119 -149 -150 -177 -178 -189 -190 -199 -201 0
-23 -44 -45 -64 -65 -83 -84 -101 -102 -118 -119 -149 -151 -177 -178 -189 -190 -199 -201 0
-23 -44 -45 -64 -65 -83 -84 -101 -102 -118 -119 -150 -151 -177 -179 -189 -190 -199 -201 0
-23 -44 -45 -64 -65 -83 -84 -101 -102 -118 -119 -150 -151 -178 -179 -189 -191 -199 -201 0
-23 -44 -45 -64 -65 -83 -84 -101 -102 -118 -119 -150 -151 -178 -179 -190 -191 -199 -202 0
-22 -43 -44 -63 -64 -82 -83 -100 -101 -117 -118 -149 -150 -177 -178 -189 -190 -200 -201 0
-23 -43 -45 -63 -64 -82 -83 -100 -101 -117 -118 -149 -150 -177 -178 -189 -190 -200 -201 0
-23 -44 -45 -63 -65 -82 -83 -100 -101 -117 -118 -149 -150 -177 -178 -189 -190 -200 -201 0
-23 -44 -45 -64 -65 -82 -84 -100 -101 -117 -118 -149 -150 -177 -178 -189 -190 -200 -201 0
-23 -44 -45 -64 -65 -83 -84 -100 -102 -117 -118 -149 -150 -177 -178 -189 -190 -200 -201 0
-23 -44 -45 -64 -65 -83 -84 -101 -102 -117 -119 -149 -150 -177 -178 -189 -190 -200 -201 0
-23 -44 -45 -64 -65 -83 -84 -101 -102 -118 -119 -149 -151 -177 -178 -189 -190 -200 -201 0
-23 -44 -45 -64 -65 -83 -84 -101 -102 -118 -119 -150 -151 -177 -179 -189 -190 -200 -201 0
-23 -44 -45 -64 -65 -83 -84 -101 -102 -118 -119 -150 -151 -178 -179 -189 -191 -200 -201 0
-23 -44 -45 -64 -65 -83 -84 -101 -102 -118 -119 -150 -151 -178 -179 -190 -191 -200 -202 0
-23 -44 -45 -64 -65 -83 -84 -101 -102 -118 -119 -150 -151 -178 -179 -190 -191 -201 -202 0
-22 -43 -44 -63 -64 -82 -83 -100 -101 -117 -118 -149 -150 -177 -178 -189 -190 -211 -212 0
-23 -43 -45 -63 -64 -82 -83 -100 -101 -117 -118 -149 -150 -177 -178 -189 -190 -211 -212 0
-23 -44 -45 -63 -65 -82 -83 -100 -101 -117 -118 -149 -150 -177 -178 -189 -190 -211 -212 0
-23 -44 -45 -64 -65 -82 -84 -100 -101 -117 -118 -149 -150 -177 -178 -189 -190 -211 -212 0
-23 -44 -45 -64 -65 -83 -84 -100 -102 -117 -118 -149 -150 -177 -178 -189 -190 -211 -212 0
-23 -44 -45 -64 -65 -83 -84 -101 -102 -117 -119 -149 -150 -177 -178 -189 -190 -211 -212 0
-23 -44 -45 -64 -65 -83 -84 -101 -102 -118 -119 -149 -151 -177 -178 -189 -190 -211 -212 0
-23 -44 -45 -64 -65 -83 -84 -101 -102 -118 -119 -150 -151 -177 -179 -189 -190 -211 -212 0
-23 -44 -45 -64 -65 -83 -84 -101 -102 -118 -119 -150 -151 -178 -179 -189 -191 -211 -212 0
-23 -44 -45 -64 -65 -83 -84 -101 -102 -118 -119 -150 -151 -178 -179 -190 -191 -211 -213 0
-23 -44 -45 -64 -65 -83 -84 -101 -102 -118 -119 -150 -151 -178 -179 -190 -191 -212 -213 0
-23 -44 -45 -64 -65 -83 -84 -101 -102 -118 -119 -150 -151 -178 -179 -190 -191 -222 -223 0
-22 -43 -44 -63 -64 -82 -83 -100 -101 -117 -118 -149 -150 -177 -178 -201 -202 -211 -212 0
-23 -43 -45 -63 -64 -82 -83 -100 -101 -117 -118 -149 -150 -177 -178 -201 -202 -211 -212 0
-23 -44 -45 -63 -65 -82 -83 -100 -101 -117 -118 -149 -150 -177 -178 -201 -202 -211 -212 0
-23 -44 -45 -64 -65 -82 -84 -100 -101 -117 -118 -149 -150 -177 -178 -201 -202 -211 -212 0
-23 -44 -45 -64 -65 -83 -84 -100 -102 -117 -118 -149 -150 -177 -178 -201 -202 -211 -212 0
-23 -44 -45 -64 -65 -83 -84 -101 -102 -117 -119 -149 -150 -177 -178 -201 -202 -211 -212 0
-23 -44 -45 -64 -65 -83 -84 -101 -102 -118 -119 -149 -151 -177 -178 -201 -202 -211 -212 0
-23 -44 -45 -64 -65 -83 -84 -101 -102 -118 -119 -150 -151 -177 -179 -201 -202 -211 -212 0
-23 -44 -45 -64 -65 -83 -84 -101 -102 -118 -119 -150 -151 -178 -179 -201 -203 -211 -212 0
-23 -44 -45 -64 -65 -83 -84 -101 -102 -118 -119 -150 -151 -178 -179 -202 -203 -211 -213 0
-23 -44 -45 -64 -65 -83 -84 -101 -102 -118 -119 -150 -151 -178 -179 -202 -203 -212 -213 0
-23 -44 -45 -64 -65 -83 -84 -101 -102 -118 -119 -150 -151 -178 -179 -202 -203 -222 -223 0
-23 -44 -45 -64 -65 -83 -84 -101 -102 -118 -119 -150 -151 -178 -179 -213 -214 -222 -223 0
-22 -43 -44 -63 -64 -82 -83 -100 -101 -117 -118 -149 -150 -190 -191 -201 -202 -211 -212 0
-23 -43 -45 -63 -64 -82 -83 -100 -101 -117 -118 -149 -150 -190 -191 -201 -202 -211 -212 0
-23 -44 -45 -63 -65 -82 -83 -100 -101 -117 -118 -149 -150 -190 -191 -201 -202 -211 -212 0
-23 -44 -45 -64 -65 -82 -84 -100 -101 -117 -118 -149 -150 -190 -191 -201 -202 -211 -212 0
-23 -44 -45 -64 -65 -83 -84 -100 -102 -117 -118 -149 -150 -190 -191 -201 -202 -211 -212 0
-23 -44 -45 -64 -65 -83 -84 -101 -102 -117 -119 -149 -150 -190 -191 -201 -202 -211 -212 0
-23 -44 -45 -64 -65 -83 -84 -101 -102 -118 -119 -149 -151 -190 -191 -201 -202 -211 -212 0
-23 -44 -45 -64 -65 -83 -84 -101 -102 -118 -119 -150 -151 -190 -192 -201 -202 -211 -212 0
-23 -44 -45 -64 -65 -83 -84 -101 -102 -118 -119 -150 -151 -191 -192 -201 -203 -211 -212 0
-23 -44 -45 -64 -65 -83 -84 -101 -102 -118 -119 -150 -151 -191 -192 -202 -203 -211 -213 0
-23 -44 -45 -64 -65 -83 -84 -101 -102 -118 -119 -150 -151 -191 -192 -202 -203 -212 -213 0
-23 -44 -45 -64 -65 -83 -84 -101 -102 -118 -119 -150 -151 -191 -192 -202 -203 -222 -223 0
-23 -44 -45 -64 -65 -83 -84 -101 -102 -118 -119 -150 -151 -191 -192 -213 -214 -222 -223 0
-23 -44 -45 -64 -65 -83 -84 -101 -102 -118 -119 -150 -151 -203 -204 -213 -214 -222 -223 0
-21 -42 -43 -62 -63 -81 -82 -99 -100 -116 -117 -163 -164 -176 -177 -188 -189 -199 -200 0
-22 -42 -44 -62 -63 -81 -82 -99 -100 -116 -117 -163 -164 -176 -177 -188 -189 -199 -200 0
-23 -42 -45 -62 -63 -81 -82 -99 -100 -116 -117 -163 -164 -176 -177 -188 -189 -199 -200 0
-22 -43 -44 -62 -64 -81 -82 -99 -100 -116 -117 -163 -164 -176 -177 -188 -189 -199 -200 0
-23 -43 -45 -62 -64 -81 -82 -99 -100 -116 -117 -163 -164 -176 -177 -188 -189 -199 -200 0
-23 -44 -45 -62 -65 -81 -82 -99 -100 -116 -117 -163 -164 -176 -177 -188 -189 -199 -200 0
-22 -43 -44 -63 -64 -81 -83 -99 -100 -116 -117 -163 -164 -176 -177 -188 -189 -199 -200 0
-23 -43 -45 -63 -64 -81 -83 -99 -100 -116 -117 -163 -164 -176 -177 -188 -189 -199 -200 0
-23 -44 -45 -63 -65 -81 -83 -99 -100 -116 -117 -163 -164 -176 -177 -188 -189 -199 -200 0
-23 -44 -45 -64 -65 -81 -84 -99 -100 -116 -117 -163 -164 -176 -177 -188 -189 -199 -200 0
-22 -43 -44 -63 -64 -82 -83 -99 -101 -116 -117 -163 -164 -176 -177 -188 -189 -199 -200 0
-23 -43 -45 -63 -64 -82 -83 -99 -101 -116 -117 -163 -164 -176 -177 -188 -189 -199 -200 0
-23 -44 -45 -63 -65 -82 -83 -99 -101 -116 -117 -163 -164 -176 -177 -188 -189 -199 -200 0
-23 -44 -45 -64 -65 -82 -84 -99 -101 -116 -117 -163 -164 -176 -177 -188 -189 -199 -200 0
-23 -44 -45 -64 -65 -83 -84 -99 -102 -116 -117 -163 -164 -176 -177 -188 -189 -199 -200 0
-22 -43 -44 -63 -64 -82 -83 -100 -101 -116 -118 -163 -164 -176 -177 -188 -189 -199 -200 0
-23 -43 -45 -63 -64 -82 -83 -100 -101 -116 -118 -163 -164 -176 -177 -188 -189 -199 -200 0
-23 -44 -45 -63 -65 -82 -83 -100 -101 -116 -118 -163 -164 -176 -177 -188 -189 -199 -200 0
-23 -44 -45 -64 -65 -82 -84 -100 -101 -116 -118 -163 -164 -176 -177 -188 -189 -199 -200 0
-23 -44 -45 -64 -65 -83 -84 -100 -102 -116 -118 -163 -164 -176 -177 -188 -189 -199 -200 0
-23 -44 -45 -64 -65 -83 -84 -101 -102 -116 -119 -163 -164 -176 -177 -188 -189 -199 -200 0
-22 -43 -44 -63 -64 -82 -83 -100 -101 -117 -118 -163 -165 -176 -177 -188 -189 -199 -200 0
-23 -43 -45 -63 -64 -82 -83 -100 -101 -117 -118 -163 -165 -176 -177 -188 -189 -199 -200 0
-23 -44 -45 -63 -65 -82 -83 -100 -101 -117 -118 -163 -165 -176 -177 -188 -189 -199 -200 0
-23 -44 -45 -64 -65 -82 -84 -100 -101 -117 -118 -163 -165 -176 -177 -188 -189 -199 -200 0
-23 -44 -45 -64 -65 -83 -84 -100 -102 -117 -118 -163 -165 -176 -177 -188 -189 -199 -200 0
-23 -44 -45 -64 -65 -83 -84 -101 -102 -117 -119 -163 -165 -176 -177 -188 -189 -199 -200 0
-23 -44 -45 -64 -65 -83 -84 -101 -102 -118 -119 -163 -166 -176 -177 -188 -189 -199 -200 0
-22 -43 -44 -63 -64 -82 -83 -100 -101 -117 -118 -164 -165 -176 -178 -188 -189 -199 -200 0
-23 -43 -45 -63 -64 -82 -83 -100 -101 -117 -118 -164 -165 -176 -178 -188 -189 -199 -200 0
-23 -44 -45 -63 -65 -82 -83 -100 -101 -117 -118 -164 -165 -176 -178 -188 -189 -199 -200 0
-23 -44 -45 -64 -65 -82 -84 -100 -101 -117 -118 -164 -165 -176 -178 -188 -189 -199 -200 0
-23 -44 -45 -64 -65 -83 -84 -100 -102 -117 -118 -164 -165 -176 -178 -188 -189 -199 -200 0
-23 -44 -45 -64 -65 -83 -84 -101 -102 -117 -119 -164 -165 -176 -178 -188 -189 -199 -200 0
-23 -44 -45 -64 -65 -83 -84 -101 -102 -118 -119 -164 -166 -176 -178 -188 -189 -199 -200 0
-23 -44 -45 -64 -65 -83 -84 -101 -102 -118 -119 -165 -166 -176 -179 -188 -189 -199 -200 0
-22 -43 -44 -63 -64 -82 -83 -100 -101 -117 -118 -164 -165 -177 -178 -188 -190 -199 -200 0
-23 -43 -45 -63 -64 -82 -83 -100 -101 -117 -118 -164 -165 -177 -178 -188 -190 -199 -200 0
-23 -44 -45 -63 -65 -82 -83 -100 -101 -117 -118 -164 -165 -177 -178 -188 -190 -199 -200 0
-23 -44 -45 -64 -65 -82 -84 -100 -101 -117 -118 -164 -165 -177 -178 -188 -190 -199 -200 0
-23 -44 -45 -64 -65 -83 -84 -100 -102 -117 -118 -164 -165 -177 -178 -188 -190 -199 -200 0
-23 -44 -45 -64 -65 -83 -84 -101 -102 -117 -119 -164 -165 -177 -178 -188 -190 -199 -200 0
-23 -44 -45 -64 -65 -83 -84 -101 -102 -118 -119 -164 -166 -177 -178 -188 -190 -199 -200 0
-23 -44 -45 -64 -65 -83 -84 -101 -102 -118 -119 -165 -166 -177 -179 -188 -190 -199 -200 0
-23 -44 -45 -64 -65 -83 -84 -101 -102 -118 -119 -165 -166 -178 -179 -188 -191 -199 -200 0
-22 -43 -44 -63 -64 -82 -83 -100 -101 -117 -118 -164 -165 -177 -178 -189 -190 -199 -201 0
-23 -43 -45 -63 -64 -82 -83 -100 -101 -117 -118 -164 -165 -177 -178 -189 -190 -199 -201 0
-23 -44 -45 -63 -65 -82 -83 -100 -101 -117 -118 -164 -165 -177 -178 -189 -190 -199 -201 0
-23 -44 -45 -64 -65 -82 -84 -100 -101 -117 -118 -164 -165 -177 -178 -189 -190 -199 -201 0
-23 -44 -45 -64 -65 -83 -84 -100 -102 -117 -118 -164 -165 -177 -178 -189 -190 -199 -201 0
-23 -44 -45 -64 -65 -83 -84 -101 -102 -117 -119 -164 -165 -177 -178 -189 -190 -199 -201 0
-23 -44 -45 -64 -65 -83 -84 -101 -102 -118 -119 -164 -166 -177 -178 -189 -190 -199 -201 0
-23 -44 -45 -64 -65 -83 -84 -101 -102 -118 -119 -165 -166 -177 -179 -189 -190 -199 -201 0
-23 -44 -45 -64 -65 -83 -84 -101 -102 -118 -119 -165 -166 -178 -179 -189 -191 -199 -201 0
-23 -44 -45 -64 -65 -83 -84 -101 -102 -118 -119 -165 -166 -178 -179 -190 -191 -199 -202 0
-22 -43 -44 -63 -64 -82 -83 -100 -101 -117 -118 -164 -165 -177 -178 -189 -190 -200 -201 0
-23 -43 -45 -63 -64 -82 -83 -100 -101 -117 -118 -164 -165 -177 -178 -189 -190 -200 -201 0
-23 -44 -45 -63 -65 -82 -83 -100 -101 -117 -118 -164 -165 -177 -178 -189 -190 -200 -201 0
-23 -44 -45 -64 -65 -82 -84 -100 -101 -117 -118 -164 -165 -177 -178 -189 -190 -200 -201 0
-23 -44 -45 -64 -65 -83 -84 -100 -102 -117 -118 -164 -165 -177 -178 -189 -190 -200 -201 0
-23 -44 -45 -64 -65 -83 -84 -101 -102 -117 -119 -164 -165 -177 -178 -189 -190 -200 -201 0
-23 -44 -45 -64 -65 -83 -84 -101 -102 -118 -119 -164 -166 -177 -178 -189 -190 -200 -201 0
-23 -44 -45 -64 -65 -83 -84 -101 -102 -118 -119 -165 -166 -177 -179 -189 -190 -200 -201 0
-23 -44 -45 -64 -65 -83 -84 -101 -102 -118 -119 -165 -166 -178 -179 -189 -191 -200 -201 0
-23 -44 -45 -64 -65 -83 -84 -101 -102 -118 -119 -165 -166 -178 -179 -190 -191 -200 -202 0
-23 -44 -45 -64 -65 -83 -84 -101 -102 -118 -119 -165 -166 -178 -179 -190 -191 -201 -202 0
-22 -43 -44 -63 -64 -82 -83 -100 -101 -117 -118 -164 -165 -177 -178 -189 -190 -211 -212 0
-23 -43 -45 -63 -64 -82 -83 -100 -101 -117 -118 -164 -165 -177 -178 -189 -190 -211 -212 0
-23 -44 -45 -63 -65 -82 -83 -100 -101 -117 -118 -164 -165 -177 -178 -189 -190 -211 -212 0
-23 -44 -45 -64 -65 -82 -84 -100 -101 -117 -118 -164 -165 -177 -178 -189 -190 -211 -212 0
-23 -44 -45 -64 -65 -83 -84 -100 -102 -117 -118 -164 -165 -177 -178 -189 -190 -211 -212 0
-23 -44 -45 -64 -65 -83 -84 -101 -102 -117 -119 -164 -165 -177 -178 -189 -190 -211 -212 0
-23 -44 -45 -64 -65 -83 -84 -101 -102 -118 -119 -164 -166 -177 -178 -189 -190 -211 -212 0
-23 -44 -45 -64 -65 -83 -84 -101 -102 -118 -119 -165 -166 -177 -179 -189 -190 -211 -212 0
-23 -44 -45 -64 -65 -83 -84 -101 -102 -118 -119 -165 -166 -178 -179 -189 -191 -211 -212 0
-23 -44 -45 -64 -65 -83 -84 -101 -102 -118 -119 -165 -166 -178 -179 -190 -191 -211 -213 0
-23 -44 -45 -64 -65 -83 -84 -101 -102 -118 -119 -165 -166 -178 -179 -190 -191 -212 -213 0
-23 -44 -45 -64 -65 -83 -84 -101 -102 -118 -119 -165 -166 -178 -179 -190 -191 -222 -223 0
-22 -43 -44 -63 -64 -82 -83 -100 -101 -117 -118 -164 -165 -177 -178 -201 -202 -211 -212 0
-23 -43 -45 -63 -64 -82 -83 -100 -101 -117 -118 -164 -165 -177 -178 -201 -202 -211 -212 0
-23 -44 -45 -63 -65 -82 -83 -100 -101 -117 -118 -164 -165 -177 -178 -201 -202 -211 -212 0
-23 -44 -45 -64 -65 -82 -84 -100 -101 -117 -118 -164 -165 -177 -178 -201 -202 -211 -212 0
-23 -44 -45 -64 -65 -83 -84 -100 -102 -117 -118 -164 -165 -177 -178 -201 -202 -211 -212 0
-23 -44 -45 -64 -65 -83 -84 -101 -102 -117 -119 -164 -165 -177 -178 -201 -202 -211 -212 0
-23 -44 -45 -64 -65 -83 -84 -101 -102 -118 -119 -164 -166 -177 -178 -201 -202 -211 -212 0
-23 -44 -45 -64 -65 -83 -84 -101 -102 -118 -119 -165 -166 -177 -179 -201 -202 -211 -212 0
-23 -44 -45 -64 -65 -83 -84 -101 -102 -118 -119 -165 -166 -178 -179 -201 -203 -211 -212 0
-23 -44 -45 -64 -65 -83 -84 -101 -102 -118 -119 -165 -166 -178 -179 -202 -203 -211 -213 0
-23 -44 -45 -64 -65 -83 -84 -101 -102 -118 -119 -165 -166 -178 -179 -202 -203 -212 -213 0
-23 -44 -45 -64 -65 -83 -84 -101 -102 -118 -119 -165 -166 -178 -179 -202 -203 -222 -223 0
-23 -44 -45 -64 -65 -83 -84 -101 -102 -118 -119 -165 -166 -178 -179 -213 -214 -222 -223 0
-22 -43 -44 -63 -64 -82 -83 -100 -101 -117 -118 -164 -165 -190 -191 -201 -202 -211 -212 0
-23 -43 -45 -63 -64 -82 -83 -100 -101 -117 -118 -164 -165 -190 -191 -201 -202 -211 -212 0
-23 -44 -45 -63 -65 -82 -83 -100 -101 -117 -118 -164 -165 -190 -191 -201 -202 -211 -212 0
-23 -44 -45 -64 -65 -82 -84 -100 -101 -117 -118 -164 -165 -190 -191 -201 -202 -211 -212 0
-23 -44 -45 -64 -65 -83 -84 -100 -102 -117 -118 -164 -165 -190 -191 -201 -202 -211 -212 0
-23 -44 -45 -64 -65 -83 -84 -101 -102 -117 -119 -164 -165 -190 -191 -201 -202 -211 -212 0
-23 -44 -45 -64 -65 -83 -84 -101 -102 -118 -119 -164 -166 -190 -191 -201 -202 -211 -212 0
-23 -44 -45 -64 -65 -83 -84 -101 -102 -118 -119 -165 -166 -190 -192 -201 -202 -211 -212 0
-23 -44 -45 -64 -65 -83 -84 -101 -102 -118 -119 -165 -166 -191 -192 -201 -203 -211 -212 0
-23 -44 -45 -64 -65 -83 -84 -101 -102 -118 -119 -165 -166 -191 -192 -202 -203 -211 -213 0
-23 -44 -45 -64 -65 -83 -84 -101 -102 -118 -119 -165 -166 -191 -192 -202 -203 -212 -213 0
-23 -44 -45 -64 -65 -83 -84 -101 -102 -118 -119 -165 -166 -191 -192 -202 -203 -222 -223 0
-23 -44 -45 -64 -65 -83 -84 -101 -102 -118 -119 -165 -166 -191 -192 -213 -214 -222 -223 0
-23 -44 -45 -64 -65 -83 -84 -101 -102 -118 -119 -165 -166 -203 -204 -213 -214 -222 -223 0
-22 -43 -44 -63 -64 -82 -83 -100 -101 -117 -118 -178 -179 -190 -191 -201 -202 -211 -212 0
-23 -43 -45 -63 -64 -82 -83 -100 -101 -117 -118 -178 -179 -190 -191 -201 -202 -211 -212 0
-23 -44 -45 -63 -65 -82 -83 -100 -101 -117 -118 -178 -179 -190 -191 -201 -202 -211 -212 0
-23 -44 -45 -64 -65 -82 -84 -100 -101 -117 -118 -178 -179 -190 -191 -201 -202 -211 -212 0
-23 -44 -45 -64 -65 -83 -84 -100 -102 -117 -118 -178 -179 -190 -191 -201 -202 -211 -212 0
-23 -44 -45 -64 -65 -83 -84 -101 -102 -117 -119 -178 -179 -190 -191 -201 -202 -211 -212 0
-23 -44 -45 -64 -65 -83 -84 -101 -102 -118 -119 -178 -180 -190 -191 -201 -202 -211 -212 0
-23 -44 -45 -64 -65 -83 -84 -101 -102 -118 -119 -179 -180 -190 -192 -201 -202 -211 -212 0
-23 -44 -45 -64 -65 -83 -84 -101 -102 -118 -119 -179 -180 -191 -192 -201 -203 -211 -212 0
-23 -44 -45 -64 -65 -83 -84 -101 -102 -118 -119 -179 -180 -191 -192 -202 -203 -211 -213 0
-23 -44 -45 -64 -65 -83 -84 -101 -102 -118 -119 -179 -180 -191 -192 -202 -203 -212 -213 0
-23 -44 -45 -64 -65 -83 -84 -101 -102 -118 -119 -179 -180 -191 -192 -202 -203 -222 -223 0
-23 -44 -45 -64 -65 -83 -84 -101 -102 -118 -119 -179 -180 -191 -192 -213 -214 -222 -223 0
-23 -44 -45 -64 -65 -83 -84 -101 -102 -118 -119 -179 -180 -203 -204 -213 -214 -222 -223 0
-23 -44 -45 -64 -65 -83 -84 -101 -102 -118 -119 -192 -193 -203 -204 -213 -214 -222 -223 0
-20 -41 -42 -61 -62 -80 -81 -98 -99 -132 -133 -147 -148 -161 -162 -174 -175 -186 -187 0
-21 -41 -43 -61 -62 -80 -81 -98 -99 -132 -133 -147 -148 -161 -162 -174 -175 -186 -187 0
-22 -41 -44 -61 -62 -80 -81 -98 -99 -132 -133 -147 -148 -161 -162 -174 -175 -186 -187 0
-23 -41 -45 -61 -62 -80 -81 -98 -99 -132 -133 -147 -148 -161 -162 -174 -175 -186 -187 0
-21 -42 -43 -61 -63 -80 -81 -98 -99 -132 -133 -147 -148 -161 -162 -174 -175 -186 -187 0
-22 -42 -44 -61 -63 -80 -81 -98 -99 -132 -133 -147 -148 -161 -162 -174 -175 -186 -187 0
-23 -42 -45 -61 -63 -80 -81 -98 -99 -132 -133 -147 -148 -161 -162 -174 -175 -186 -187 0
-22 -43 -44 -61 -64 -80 -81 -98 -99 -132 -133 -147 -148 -161 -162 -174 -175 -186 -187 0
-23 -43 -45 -61 -64 -80 -81 -98 -99 -132 -133 -147 -148 -161 -162 -174 -175 -186 -187 0
-23 -44 -45 -61 -65 -80 -81 -98 -99 -132 -133 -147 -148 -161 -162 -174 -175 -186 -187 0
-21 -42 -43 -62 -63 -80 -82 -98 -99 -132 -133 -147 -148 -161 -162 -174 -175 -186 -187 0
-22 -42 -44 -62 -63 -80 -82 -98 -99 -132 -133 -147 -148 -161 -162 -174 -175 -186 -187 0
-23 -42 -45 -62 -63 -80 -82 -98 -99 -132 -133 -147 -148 -161 -162 -174 -175 -186 -187 0
-22 -43 -44 -62 -64 -80 -82 -98 -99 -132 -133 -147 -148 -161 -162 -174 -175 -186 -187 0
-23 -43 -45 -62 -64 -80 -82 -98 -99 -132 -133 -147 -148 -161 -162 -174 -175 -186 -187 0
-23 -44 -45 -62 -65 -80 -82 -98 -99 -132 -133 -147 -148 -161 -162 -174 -175 -186 -187 0
-22 -43 -44 -63 -64 -80 -83 -98 -99 -132 -133 -147 -148 -161 -162 -174 -175 -186 -187 0
-23 -43 -45 -63 -64 -80 -83 -98 -99 -132 -133 -147 -148 -161 -162 -174 -175 -186 -187 0
-23 -44 -45 -63 -65 -80 -83 -98 -99 -132 -133 -147 -148 -161 -162 -174 -175 -186 -187 0
-23 -44 -45 -64 -65 -80 -84 -98 -99 -132 -133 -147 -148 -161 -162 -174 -175 -186 -187 0
-21 -42 -43 -62 -63 -81 -82 -98 -100 -132 -133 -147 -148 -161 -162 -174 -175 -186 -187 0
-22 -42 -44 -62 -63 -81 -82 -98 -100 -132 -133 -147 -148 -161 -162 -174 -175 -186 -187 0
-23 -42 -45 -62 -63 -81 -82 -98 -100 -132 -133 -147 -148 -161 -162 -174 -175 -186 -187 0
-22 -43 -44 -62 -64 -81 -82 -98 -100 -132 -133 -147 -148 -161 -162 -174 -175 -186 -187 0
-23 -43 -45 -62 -64 -81 -82 -98 -100 -132 -133 -147 -148 -161 -162 -174 -175 -186 -187 0
-23 -44 -45 -62 -65 -81 -82 -98 -100 -132 -133 -147 -148 -161 -162 -174 -175 -186 -187 0
-22 -43 -44 -63 -64 -81 -83 -98 -100 -132 -133 -147 -148 -161 -162 -174 -175 -186 -187 0
-23 -43 -45 -63 -64 -81 -83 -98 -100 -132 -133 -147 -148 -161 -162 -174 -175 -186 -187 0
-23 -44 -45 -63 -65 -81 -83 -98 -100 -132 -133 -147 -148 -161 -162 -174 -175 -186 -187 0
-23 -44 -45 -64 -65 -81 -84 -98 -100 -132 -133 -147 -148 -161 -162 -174 -175 -186 -187 0
-22 -43 -44 -63 -64 -82 -83 -98 -101 -132 -133 -147 -148 -161 -162 -174 -175 -186 -187 0
-23 -43 -45 -63 -64 -82 -83 -98 -101 -132 -133 -147 -148 -161 -162 -174 -175 -186 -187 0
-23 -44 -45 -63 -65 -82 -83 -98 -101 -132 -133 -147 -148 -161 -162 -174 -175 -186 -187 0
-23 -44 -45 -64 -65 -82 -84 -98 -101 -132 -133 -147 -148 -161 -162 -174 -175 -186 -187 0
-23 -44 -45 -64 -65 -83 -84 -98 -102 -132 -133 -147 -148 -161 -162 -174 -175 -186 -187 0
-21 -42 -43 -62 -63 -81 -82 -99 -100 -132 -134 -147 -148 -161 -162 -174 -175 -186 -187 0
-22 -42 -44 -62 -63 -81 -82 -99 -100 -132 -134 -147 -148 -161 -162 -174 -175 -186 -187 0
-23 -42 -45 -62 -63 -81 -82 -99 -100 -132 -134 -147 -148 -161 -162 -174 -175 -186 -187 0
-22 -43 -44 -62 -64 -81 -82 -99 -100 -132 -134 -147 -148 -161 -162 -174 -175 -186 -187 0
-23 -43 -45 -62 -64 -81 -82 -99 -100 -132 -134 -147 -148 -161 -162 -174 -175 -186 -187 0
-23 -44 -45 -62 -65 -81 -82 -99 -100 -132 -134 -147 -148 -161 -162 -174 -175 -186 -187 0
-22 -43 -44 -63 -64 -81 -83 -99 -100 -132 -134 -147 -148 -161 -162 -174 -175 -186 -187 0
-23 -43 -45 -63 -64 -81 -83 -99 -100 -132 -134 -147 -148 -161 -162 -174 -175 -186 -187 0
-23 -44 -45 -63 -65 -81 -83 -99 -100 -132 -134 -147 -148 -161 -162 -174 -175 -186 -187 0
-23 -44 -45 -64 -65 -81 -84 -99 -100 -132 -134 -147 -148 -161 -162 -174 -175 -186 -187 0
-22 -43 -44 -63 -64 -82 -83 -99 -101 -132 -134 -147 -148 -161 -162 -174 -175 -186 -187 0
-23 -43 -45 -63 -64 -82 -83 -99 -101 -132 -134 -147 -148 -161 -162 -174 -175 -186 -187 0
-23 -44 -45 -63 -65 -82 -83 -99 -101 -132 -134 -147 -148 -161 -162 -174 -175 -186 -187 0
-23 -44 -45 -64 -65 -82 -84 -99 -101 -132 -134 -147 -148 -161 -162 -174 -175 -186 -187 0
-23 -44 -45 -64 -65 -83 -84 -99 -102 -132 -134 -147 -148 -161 -162 -174 -175 -186 -187 0
-22 -43 -44 -63 -64 -82 -83 -100 -101 -132 -135 -147 -148 -161 -162 -174 -175 -186 -187 0
-23 -43 -45 -63 -64 -82 -83 -100 -101 -132 -135 -147 -148 -161 -162 -174 -175 -186 -187 0
-23 -44 -45 -63 -65 -82 -83 -100 -101 -132 -135 -147 -148 -161 -162 -174 -175 -186 -187 0
-23 -44 -45 -64 -65 -82 -84 -100 -101 -132 -135 -147 -148 -161 -162 -174 -175 -186 -187 0
-23 -44 -45 -64 -65 -83 -84 -100 -102 -132 -135 -147 -148 -161 -162 -174 -175 -186 -187 0
-23 -44 -45 -64 -65 -83 -84 -101 -102 -132 -136 -147 -148 -161 -162 -174 -175 -186 -187 0
-21 -42 -43 -62 -63 -81 -82 -99 -100 -133 -134 -147 -149 -161 -162 -174 -175 -186 -187 0
-22 -42 -44 -62 -63 -81 -82 -99 -100 -133 -134 -147 -149 -161 -162 -174 -175 -186 -187 0
-23 -42 -45 -62 -63 -81 -82 -99 -100 -133 -134 -147 -149 -161 -162 -174 -175 -186 -187 0
-22 -43 -44 -62 -64 -81 -82 -99 -100 -133 -134 -147 -149 -161 -162 -174 -175 -186 -187 0
-23 -43 -45 -62 -64 -81 -82 -99 -100 -133 -134 -147 -149 -161 -162 -174 -175 -186 -187 0
-23 -44 -45 -62 -65 -81 -82 -99 -100 -133 -134 -147 -149 -161 -162 -174 -175 -186 -187 0
-22 -43 -44 -63 -64 -81 -83 -99 -100 -133 -134 -147 -149 -161 -162 -174 -175 -186 -187 0
-23 -43 -45 -63 -64 -81 -83 -99 -100 -133 -134 -147 -149 -161 -162 -174 -175 -186 -187 0
-23 -44 -45 -63 -65 -81 -83 -99 -100 -133 -134 -147 -149 -161 -162 -174 -175 -186 -187 0
-23 -44 -45 -64 -65 -81 -84 -99 -100 -133 -134 -147 -149 -161 -162 -174 -175 -186 -187 0
-22 -43 -44 -63 -64 -82 -83 -99 -101 -133 -134 -147 -149 -161 -162 -174 -175 -186 -187 0
-23 -43 -45 -63 -64 -82 -83 -99 -101 -133 -134 -147 -149 -161 -162 -174 -175 -186 -187 0
-23 -44 -45 -63 -65 -82 -83 -99 -101 -133 -134 -147 -149 -161 -162 -174 -175 -186 -187 0
-23 -44 -45 -64 -65 -82 -84 -99 -101 -133 -134 -147 -149 -161 -162 -174 -175 -186 -187 0
-23 -44 -45 -64 -65 -83 -84 -99 -102 -133 -134 -147 -149 -161 -162 -174 -175 -186 -187 0
-22 -43 -44 -63 -64 -82 -83 -100 -101 -133 -135 -147 -149 -161 -162 -174 -175 -186 -187 0
-23 -43 -45 -63 -64 -82 -83 -100 -101 -133 -135 -147 -149 -161 -162 -174 -175 -186 -187 0
-23 -44 -45 -63 -65 -82 -83 -100 -101 -133 -135 -147 -149 -161 -162 -174 -175 -186 -187 0
-23 -44 -45 -64 -65 -82 -84 -100 -101 -133 -135 -147 -149 -161 -162 -174 -175 -186 -187 0
-23 -44 -45 -64 -65 -83 -84 -100 -102 -133 -135 -147 -149 -161 -162 -174 -175 -186 -187 0
-23 -44 -45 -64 -65 -83 -84 -101 -102 -133 -136 -147 -149 -161 -162 -174 -175 -186 -187 0
-22 -43 -44 -63 -64 -82 -83 -100 -101 -134 -135 -147 -150 -161 -162 -174 -175 -186 -187 0
-23 -43 -45 -63 -64 -82 -83 -100 -101 -134 -135 -147 -150 -161 -162 -174 -175 -186 -187 0
-23 -44 -45 -63 -65 -82 -83 -100 -101 -134 -135 -147 -150 -161 -162 -174 -175 -186 -187 0
-23 -44 -45 -64 -65 -82 -84 -100 -101 -134 -135 -147 -150 -161 -162 -174 -175 -186 -187 0
-23 -44 -45 -64 -65 -83 -84 -100 -102 -134 -135 -147 -150 -161 -162 -174 -175 -186 -187 0
-23 -44 -45 -64 -65 -83 -84 -101 -102 -134 -136 -147 -150 -161 -162 -174 -175 -186 -187 0
-23 -44 -45 -64 -65 -83 -84 -101 -102 -135 -136 -147 -151 -161 -162 -174 -175 -186 -187 0
-21 -42 -43 -62 -63 -81 -82 -99 -100 -133 -134 -148 -149 -161 -163 -174 -175 -186 -187 0
-22 -42 -44 -62 -63 -81 -82 -99 -100 -133 -134 -148 -149 -161 -163 -174 -175 -186 -187 0
-23 -42 -45 -62 -63 -81 -82 -99 -100 -133 -134 -148 -149 -161 -163 -174 -175 -186 -187 0
-22 -43 -44 -62 -64 -81 -82 -99 -100 -133 -134 -148 -149 -161 -163 -174 -175 -186 -187 0
-23 -43 -45 -62 -64 -81 -82 -99 -100 -133 -134 -148 -149 -161 -163 -174 -175 -186 -187 0
-23 -44 -45 -62 -65 -81 -82 -99 -100 -133 -134 -148 -149 -161 -163 -174 -175 -186 -187 0
-22 -43 -44 -63 -64 -81 -83 -99 -100 -133 -134 -148 -149 -161 -163 -174 -175 -186 -187 0
-23 -43 -45 -63 -64 -81 -83 -99 -100 -133 -134 -148 -149 -161 -163 -174 -175 -186 -187 0
-23 -44 -45 -63 -65 -81 -83 -99 -100 -133 -134 -148 -149 -161 -163 -174 -175 -186 -187 0
-23 -44 -45 -64 -65 -81 -84 -99 -100 -133 -134 -148 -149 -161 -163 -174 -175 -186 -187 0
-22 -43 -44 -63 -64 -82 -83 -99 -101 -133 -134 -148 -149 -161 -163 -174 -175 -186 -187 0
-23 -43 -45 -63 -64 -82 -83 -99 -101 -133 -134 -148 -149 -161 -163 -174 -175 -186 -187 0
-23 -44 -45 -63 -65 -82 -83 -99 -101 -133 -134 -148 -149 -161 -163 -174 -175 -186 -187 0
-23 -44 -45 -64 -65 -82 -84 -99 -101 -133 -134 -148 -149 -161 -163 -174 -175 -186 -187 0
-23 -44 -45 -64 -65 -83 -84 -99 -102 -133 -134 -148 -149 -161 -163 -174 -175 -186 -187 0
-22 -43 -44 -63 -64 -82 -83 -100 -101 -133 -135 -148 -149 -161 -163 -174 -175 -186 -187 0
-23 -43 -45 -63 -64 -82 -83 -100 -101 -133 -135 -148 -149 -161 -163 -174 -175 -186 -187 0
-23 -44 -45 -63 -65 -82 -83 -100 -101 -133 -135 -148 -149 -161 -163 -174 -175 -186 -187 0
-23 -44 -45 -64 -65 -82 -84 -100 -101 -133 -135 -148 -149 -161 -163 -174 -175 -186 -187 0
-23 -44 -45 -64 -65 -83 -84 -100 -102 -133 -135 -148 -149 -161 -163 -174 -175 -186 -187 0
-23 -44 -45 -64 -65 -83 -84 -101 -102 -133 -136 -148 -149 -161 -163 -174 -175 -186 -187 0
-22 -43 -44 -63 -64 -82 -83 -100 -101 -134 -135 -148 -150 -161 -163 -174 -175 -186 -187 0
-23 -43 -45 -63 -64 -82 -83 -100 -101 -134 -135 -148 -150 -161 -163 -174 -175 -186 -187 0
-23 -44 -45 -63 -65 -82 -83 -100 -101 -134 -135 -148 -150 -161 -163 -174 -175 -186 -187 0
-23 -44 -45 -64 -65 -82 -84 -100 -101 -134 -135 -148 -150 -161 -163 -174 -175 -186 -187 0
-23 -44 -45 -64 -65 -83 -84 -100 -102 -134 -135 -148 -150 -161 -163 -174 -175 -186 -187 0
-23 -44 -45 -64 -65 -83 -84 -101 -102 -134 -136 -148 -150 -161 -163 -174 -175 -186 -187 0
-23 -44 -45 -64 -65 -83 -84 -101 -102 -135 -136 -148 -151 -161 -163 -174 -175 -186 -187 0
-22 -43 -44 -63 -64 -82 -83 -100 -101 -134 -135 -149 -150 -161 -164 -174 -175 -186 -187 0
-23 -43 -45 -63 -64 -82 -83 -100 -101 -134 -135 -149 -150 -161 -164 -174 -175 -186 -187 0
-23 -44 -45 -63 -65 -82 -83 -100 -101 -134 -135 -149 -150 -161 -164 -174 -175 -186 -187 0
-23 -44 -45 -64 -65 -82 -84 -100 -101 -134 -135 -149 -150 -161 -164 -174 -175 -186 -187 0
-23 -44 -45 -64 -65 -83 -84 -100 -102 -134 -135 -149 -150 -161 -164 -174 -175 -186 -187 0
-23 -44 -45 -64 -65 -83 -84 -101 -102 -134 -136 -149 -150 -161 -164 -174 -175 -186 -187 0
-23 -44 -45 -64 -65 -83 -84 -101 -102 -135 -136 -149 -151 -161 -164 -174 -175 -186 -187 0
-23 -44 -45 -64 -65 -83 -84 -101 -102 -135 -136 -150 -151 -161 -165 -174 -175 -186 -187 0
-21 -42 -43 -62 -63 -81 -82 -99 -100 -133 -134 -148 -149 -162 -163 -174 -176 -186 -187 0
-22 -42 -44 -62 -63 -81 -82 -99 -100 -133 -134 -148 -149 -162 -163 -174 -176 -186 -187 0
-23 -42 -45 -62 -63 -81 -82 -99 -100 -133 -134 -148 -149 -162 -163 -174 -176 -186 -187 0
-22 -43 -44 -62 -64 -81 -82 -99 -100 -133 -134 -148 -149 -162 -163 -174 -176 -186 -187 0
-23 -43 -45 -62 -64 -81 -82 -99 -100 -133 -134 -148 -149 -162 -163 -174 -176 -186 -187 0
-23 -44 -45 -62 -65 -81 -82 -99 -100 -133 -134 -148 -149 -162 -163 -174 -176 -186 -187 0
-22 -43 -44 -63 -64 -81 -83 -99 -100 -133 -134 -148 -149 -162 -163 -174 -176 -186 -187 0
-23 -43 -45 -63 -64 -81 -83 -99 -100 -133 -134 -148 -149 -162 -163 -174 -176 -186 -187 0
-23 -44 -45 -63 -65 -81 -83 -99 -100 -133 -134 -148 -149 -162 -163 -174 -176 -186 -187 0
-23 -44 -45 -64 -65 -81 -84 -99 -100 -133 -134 -148 -149 -162 -163 -174 -176 -186 -187 0
-22 -43 -44 -63 -64 -82 -83 -99 -101 -133 -134 -148 -149 -162 -163 -174 -176 -186 -187 0
-23 -43 -45 -63 -64 -82 -83 -99 -101 -133 -134 -148 -149 -162 -163 -174 -176 -186 -187 0
-23 -44 -45 -63 -65 -82 -83 -99 -101 -133 -134 -148 -149 -162 -163 -174 -176 -186 -187 0
-23 -44 -45 -64 -65 -82 -84 -99 -101 -133 -134 -148 -149 -162 -163 -174 -176 -186 -187 0
-23 -44 -45 -64 -65 -83 -84 -99 -102 -133 -134 -148 -149 -162 -163 -174 -176 -186 -187 0
-22 -43 -44 -63 -64 -82 -83 -100 -101 -133 -135 -148 -149 -162 -163 -174 -176 -186 -187 0
-23 -43 -45 -63 -64 -82 -83 -100 -101 -133 -135 -148 -149 -162 -163 -174 -176 -186 -187 0
-23 -44 -45 -63 -65 -82 -83 -100 -101 -133 -135 -148 -149 -162 -163 -174 -176 -186 -187 0
-23 -44 -45 -64 -65 -82 -84 -100 -101 -133 -135 -148 -149 -162 -163 -174 -176 -186 -187 0
-23 -44 -45 -64 -65 -83 -84 -100 -102 -133 -135 -148 -149 -162 -163 -174 -176 -186 -187 0
-23 -44 -45 -64 -65 -83 -84 -101 -102 -133 -136 -148 -149 -162 -163 -174 -176 -186 -187 0
-22 -43 -44 -63 -64 -82 -83 -100 -101 -134 -135 -148 -150 -162 -163 -174 -176 -186 -187 0
-23 -43 -45 -63 -64 -82 -83 -100 -101 -134 -135 -148 -150 -162 -163 -174 -176 -186 -187 0
-23 -44 -45 -63 -65 -82 -83 -100 -101 -134 -135 -148 -150 -162 -163 -174 -176 -186 -187 0
-23 -44 -45 -64 -65 -82 -84 -100 -101 -134 -135 -148 -150 -162 -163 -174 -176 -186 -187 0
-23 -44 -45 -64 -65 -83 -84 -100 -102 -134 -135 -148 -150 -162 -163 -174 -176 -186 -187 0
-23 -44 -45 -64 -65 -83 -84 -101 -102 -134 -136 -148 -150 -162 -163 -174 -176 -186 -187 0
-23 -44 -45 -64 -65 -83 -84 -101 -102 -135 -136 -148 -151 -162 -163 -174 -176 -186 -187 0
-22 -43 -44 -63 -64 -82 -83 -100 -101 -134 -135 -149 -150 -162 -164 -174 -176 -186 -187 0
-23 -43 -45 -63 -64 -82 -83 -100 -101 -134 -135 -149 -150 -162 -164 -174 -176 -186 -187 0
-23 -44 -45 -63 -65 -82 -83 -100 -101 -134 -135 -149 -150 -162 -164 -174 -176 -186 -187 0
-23 -44 -45 -64 -65 -82 -84 -100 -101 -134 -135 -149 -150 -162 -164 -174 -176 -186 -187 0
-23 -44 -45 -64 -65 -83 -84 -100 -102 -134 -135 -149 -150 -162 -164 -174 -176 -186 -187 0
-23 -44 -45 -64 -65 -83 -84 -101 -102 -134 -136 -149 -150 -162 -164 -174 -176 -186 -187 0
-23 -44 -45 -64 -65 -83 -84 -101 -102 -135 -136 -149 -151 -162 -164 -174 -176 -186 -187 0
-23 -44 -45 -64 -65 -83 -84 -101 -102 -135 -136 -150 -151 -162 -165 -174 -176 -186 -187 0
-22 -43 -44 -63 -64 -82 -83 -100 -101 -134 -135 -149 -150 -163 -164 -174 -177 -186 -187 0
-23 -43 -45 -63 -64 -82 -83 -100 -101 -134 -135 -149 -150 -163 -164 -174 -177 -186 -187 0
-23 -44 -45 -63 -65 -82 -83 -100 -101 -134 -135 -149 -150 -163 -164 -174 -177 -186 -187 0
-23 -44 -45 -64 -65 -82 -84 -100 -101 -134 -135 -149 -150 -163 -164 -174 -177 -186 -187 0
-23 -44 -45 -64 -65 -83 -84 -100 -102 -134 -135 -149 -150 -163 -164 -174 -177 -186 -187 0
-23 -44 -45 -64 -65 -83 -84 -101 -102 -134 -136 -149 -150 -163 -164 -174 -177 -186 -187 0
-23 -44 -45 -64 -65 -83 -84 -101 -102 -135 -136 -149 -151 -163 -164 -174 -177 -186 -187 0
-23 -44 -45 -64 -65 -83 -84 -101 -102 -135 -136 -150 -151 -163 -165 -174 -177 -186 -187 0
-23 -44 -45 -64 -65 -83 -84 -101 -102 -135 -136 -150 -151 -164 -165 -174 -178 -186 -187 0
-21 -42 -43 -62 -63 -81 -82 -99 -100 -133 -134 -148 -149 -162 -163 -175 -176 -186 -188 0
-22 -42 -44 -62 -63 -81 -82 -99 -100 -133 -134 -148 -149 -162 -163 -175 -176 -186 -188 0
-23 -42 -45 -62 -63 -81 -82 -99 -100 -133 -134 -148 -149 -162 -163 -175 -176 -186 -188 0
-22 -43 -44 -62 -64 -81 -82 -99 -100 -133 -134 -148 -149 -162 -163 -175 -176 -186 -188 0
-23 -43 -45 -62 -64 -81 -82 -99 -100 -133 -134 -148 -149 -162 -163 -175 -176 -186 -188 0
-23 -44 -45 -62 -65 -81 -82 -99 -100 -133 -134 -148 -149 -162 -163 -175 -176 -186 -188 0
-22 -43 -44 -63 -64 -81 -83 -99 -100 -133 -134 -148 -149 -162 -163 -175 -176 -186 -188 0
-23 -43 -45 -63 -64 -81 -83 -99 -100 -133 -134 -148 -149 -162 -163 -175 -176 -186 -188 0
-23 -44 -45 -63 -65 -81 -83 -99 -100 -133 -134 -148 -149 -162 -163 -175 -176 -186 -188 0
-23 -44 -45 -64 -65 -81 -84 -99 -100 -133 -134 -148 -149 -162 -163 -175 -176 -186 -188 0
-22 -43 -44 -63 -64 -82 -83 -99 -101 -133 -134 -148 -149 -162 -163 -175 -176 -186 -188 0
-23 -43 -45 -63 -64 -82 -83 -99 -101 -133 -134 -148 -149 -162 -163 -175 -176 -186 -188 0
-23 -44 -45 -63 -65 -82 -83 -99 -101 -133 -134 -148 -149 -162 -163 -175 -176 -186 -188 0
-23 -44 -45 -64 -65 -82 -84 -99 -101 -133 -134 -148 -149 -162 -163 -175 -176 -186 -188 0
-23 -44 -45 -64 -65 -83 -84 -99 -102 -133 -134 -148 -149 -162 -163 -175 -176 -186 -188 0
-22 -43 -44 -63 -64 -82 -83 -100 -101 -133 -135 -148 -149 -162 -163 -175 -176 -186 -188 0
-23 -43 -45 -63 -64 -82 -83 -100 -101 -133 -135 -148 -149 -162 -163 -175 -176 -186 -188 0
-23 -44 -45 -63 -65 -82 -83 -100 -101 -133 -135 -148 -149 -162 -163 -175 -176 -186 -188 0
-23 -44 -45 -64 -65 -82 -84 -100 -101 -133 -135 -148 -149 -162 -163 -175 -176 -186 -188 0
-23 -44 -45 -64 -65 -83 -84 -100 -102 -133 -135 -148 -149 -162 -163 -175 -176 -186 -188 0
-23 -44 -45 -64 -65 -83 -84 -101 -102 -133 -136 -148 -149 -162 -163 -175 -176 -186 -188 0
-22 -43 -44 -63 -64 -82 -83 -100 -101 -134 -135 -148 -150 -162 -163 -175 -176 -186 -188 0
-23 -43 -45 -63 -64 -82 -83 -100 -101 -134 -135 -148 -150 -162 -163 -175 -176 -186 -188 0
-23 -44 -45 -63 -65 -82 -83 -100 -101 -134 -135 -148 -150 -162 -163 -175 -176 -186 -188 0
-23 -44 -45 -64 -65 -82 -84 -100 -101 -134 -135 -148 -150 -162 -163 -175 -176 -186 -188 0
-23 -44 -45 -64 -65 -83 -84 -100 -102 -134 -135 -148 -150 -162 -163 -175 -176 -186 -188 0
-23 -44 -45 -64 -65 -83 -84 -101 -102 -134 -136 -148 -150 -162 -163 -175 -176 -186 -188 0
-23 -44 -45 -64 -65 -83 -84 -101 -102 -135 -136 -148 -151 -162 -163 -175 -176 -186 -188 0
-22 -43 -44 -63 -64 -82 -83 -100 -101 -134 -135 -149 -150 -162 -164 -175 -176 -186 -188 0
-23 -43 -45 -63 -64 -82 -83 -100 -101 -134 -135 -149 -150 -162 -164 -175 -176 -186 -188 0
-23 -44 -45 -63 -65 -82 -83 -100 -101 -134 -135 -149 -150 -162 -164 -175 -176 -186 -188 0
-23 -44 -45 -64 -65 -82 -84 -100 -101 -134 -135 -149 -150 -162 -164 -175 -176 -186 -188 0
-23 -44 -45 -64 -65 -83 -84 -100 -102 -134 -135 -149 -150 -162 -164 -175 -176 -186 -188 0
-23 -44 -45 -64 -65 -83 -84 -101 -102 -134 -136 -149 -150 -162 -164 -175 -176 -186 -188 0
-23 -44 -45 -64 -65 -83 -84 -101 -102 -135 -136 -149 -151 -162 -164 -175 -176 -186 -188 0
-23 -44 -45 -64 -65 -83 -84 -101 -102 -135 -136 -150 -151 -162 -165 -175 -176 -186 -188 0
-22 -43 -44 -63 -64 -82 -83 -100 -101 -134 -135 -149 -150 -163 -164 -175 -177 -186 -188 0
-23 -43 -45 -63 -64 -82 -83 -100 -101 -134 -135 -149 -150 -163 -164 -175 -177 -186 -188 0
-23 -44 -45 -63 -65 -82 -83 -100 -101 -134 -135 -149 -150 -163 -164 -175 -177 -186 -188 0
-23 -44 -45 -64 -65 -82 -84 -100 -101 -134 -135 -149 -150 -163 -164 -175 -177 -186 -188 0
-23 -44 -45 -64 -65 -83 -84 -100 -102 -134 -135 -149 -150 -163 -164 -175 -177 -186 -188 0
-23 -44 -45 -64 -65 -83 -84 -101 -102 -134 -136 -149 -150 -163 -164 -175 -177 -186 -188 0
-23 -44 -45 -64 -65 -83 -84 -101 -102 -135 -136 -149 -151 -163 -164 -175 -177 -186 -188 0
-23 -44 -45 -64 -65 -83 -84 -101 -102 -135 -136 -150 -151 -163 -165 -175 -177 -186 -188 0
-23 -44 -45 -64 -65 -83 -84 -101 -102 -135 -136 -150 -151 -164 -165 -175 -178 -186 -188 0
-22 -43 -44 -63 -64 -82 -83 -100 -101 -134 -135 -149 -150 -163 -164 -176 -177 -186 -189 0
-23 -43 -45 -63 -64 -82 -83 -100 -101 -134 -135 -149 -150 -163 -164 -176 -177 -186 -189 0
-23 -44 -45 -63 -65 -82 -83 -100 -101 -134 -135 -149 -150 -163 -164 -176 -177 -186 -189 0
-23 -44 -45 -64 -65 -82 -84 -100 -101 -134 -135 -149 -150 -163 -164 -176 -177 -186 -189 0
-23 -44 -45 -64 -65 -83 -84 -100 -102 -134 -135 -149 -150 -163 -164 -176 -177 -186 -189 0
-23 -44 -45 -64 -65 -83 -84 -101 -102 -134 -136 -149 -150 -163 -164 -176 -177 -186 -189 0
-23 -44 -45 -64 -65 -83 -84 -101 -102 -135 -136 -149 -151 -163 -164 -176 -177 -186 -189 0
-23 -44 -45 -64 -65 -83 -84 -101 -102 -135 -136 -150 -151 -163 -165 -176 -177 -186 -189 0
-23 -44 -45 -64 -65 -83 -84 -101 -102 -135 -136 -150 -151 -164 -165 -176 -178 -186 -189 0
-23 -44 -45 -64 -65 -83 -84 -101 -102 -135 -136 -150 -151 -164 -165 -177 -178 -186 -190 0
-21 -42 -43 -62 -63 -81 -82 -99 -100 -133 -134 -148 -149 -162 -163 -175 -176 -187 -188 0
-22 -42 -44 -62 -63 -81 -82 -99 -100 -133 -134 -148 -149 -162 -163 -175 -176 -187 -188 0
-23 -42 -45 -62 -63 -81 -82 -99 -100 -133 -134 -148 -149 -162 -163 -175 -176 -187 -188 0
-22 -43 -44 -62 -64 -81 -82 -99 -100 -133 -134 -148 -149 -162 -163 -175 -176 -187 -188 0
-23 -43 -45 -62 -64 -81 -82 -99 -100 -133 -134 -148 -149 -162 -163 -175 -176 -187 -188 0
-23 -44 -45 -62 -65 -81 -82 -99 -100 -133 -134 -148 -149 -162 -163 -175 -176 -187 -188 0
-22 -43 -44 -63 -64 -81 -83 -99 -100 -133 -134 -148 -149 -162 -163 -175 -176 -187 -188 0
-23 -43 -45 -63 -64 -81 -83 -99 -100 -133 -134 -148 -149 -162 -163 -175 -176 -187 -188 0
-23 -44 -45 -63 -65 -81 -83 -99 -100 -133 -134 -148 -149 -162 -163 -175 -176 -187 -188 0
-23 -44 -45 -64 -65 -81 -84 -99 -100 -133 -134 -148 -149 -162 -163 -175 -176 -187 -188 0
-22 -43 -44 -63 -64 -82 -83 -99 -101 -133 -134 -148 -149 -162 -163 -175 -176 -187 -188 0
-23 -43 -45 -63 -64 -82 -83 -99 -101 -133 -134 -148 -149 -162 -163 -175 -176 -187 -188 0
-23 -44 -45 -63 -65 -82 -83 -99 -101 -133 -134 -148 -149 -162 -163 -175 -176 -187 -188 0
-23 -44 -45 -64 -65 -82 -84 -99 -101 -133 -134 -148 -149 -162 -163 -175 -176 -187 -188 0
-23 -44 -45 -64 -65 -83 -84 -99 -102 -133 -134 -148 -149 -162 -163 -175 -176 -187 -188 0
-22 -43 -44 -63 -64 -82 -83 -100 -101 -133 -135 -148 -149 -162 -163 -175 -176 -187 -188 0
-23 -43 -45 -63 -64 -82 -83 -100 -101 -133 -135 -148 -149 -162 -163 -175 -176 -187 -188 0
-23 -44 -45 -63 -65 -82 -83 -100 -101 -133 -135 -148 -149 -162 -163 -175 -176 -187 -188 0
-23 -44 -45 -64 -65 -82 -84 -100 -101 -133 -135 -148 -149 -162 -163 -175 -176 -187 -188 0
-23 -44 -45 -64 -65 -83 -84 -100 -102 -133 -135 -148 -149 -162 -163 -175 -176 -187 -188 0
-23 -44 -45 -64 -65 -83 -84 -101 -102 -133 -136 -148 -149 -162 -163 -175 -176 -187 -188 0
-22 -43 -44 -63 -64 -82 -83 -100 -101 -134 -135 -148 -150 -162 -163 -175 -176 -187 -188 0
-23 -43 -45 -63 -64 -82 -83 -100 -101 -134 -135 -148 -150 -162 -163 -175 -176 -187 -188 0
-23 -44 -45 -63 -65 -82 -83 -100 -101 -134 -135 -148 -150 -162 -163 -175 -176 -187 -188 0
-23 -44 -45 -64 -65 -82 -84 -100 -101 -134 -135 -148 -150 -162 -163 -175 -176 -187 -188 0
-23 -44 -45 -64 -65 -83 -84 -100 -102 -134 -135 -148 -150 -162 -163 -175 -176 -187 -188 0
-23 -44 -45 -64 -65 -83 -84 -101 -102 -134 -136 -148 -150 -162 -163 -175 -176 -187 -188 0
-23 -44 -45 -64 -65 -83 -84 -101 -102 -135 -136 -148 -151 -162 -163 -175 -176 -187 -188 0
-22 -43 -44 -63 -64 -82 -83 -100 -101 -134 -135 -149 -150 -162 -164 -175 -176 -187 -188 0
-23 -43 -45 -63 -64 -82 -83 -100 -101 -134 -135 -149 -150 -162 -164 -175 -176 -187 -188 0
-23 -44 -45 -63 -65 -82 -83 -100 -101 -134 -135 -149 -150 -162 -164 -175 -176 -187 -188 0
-23 -44 -45 -64 -65 -82 -84 -100 -101 -134 -135 -149 -150 -162 -164 -175 -176 -187 -188 0
-23 -44 -45 -64 -65 -83 -84 -100 -102 -134 -135 -149 -150 -162 -164 -175 -176 -187 -188 0
-23 -44 -45 -64 -65 -83 -84 -101 -102 -134 -136 -149 -150 -162 -164 -175 -176 -187 -188 0
-23 -44 -45 -64 -65 -83 -84 -101 -102 -135 -136 -149 -151 -162 -164 -175 -176 -187 -188 0
-23 -44 -45 -64 -65 -83 -84 -101 -102 -135 -136 -150 -151 -162 -165 -175 -176 -187 -188 0
-22 -43 -44 -63 -64 -82 -83 -100 -101 -134 -135 -149 -150 -163 -164 -175 -177 -187 -188 0
-23 -43 -45 -63 -64 -82 -83 -100 -101 -134 -135 -149 -150 -163 -164 -175 -177 -187 -188 0
-23 -44 -45 -63 -65 -82 -83 -100 -101 -134 -135 -149 -150 -163 -164 -175 -177 -187 -188 0
-23 -44 -45 -64 -65 -82 -84 -100 -101 -134 -135 -149 -150 -163 -164 -175 -177 -187 -188 0
-23 -44 -45 -64 -65 -83 -84 -100 -102 -134 -135 -149 -150 -163 -164 -175 -177 -187 -188 0
-23 -44 -45 -64 -65 -83 -84 -101 -102 -134 -136 -149 -150 -163 -164 -175 -177 -187 -188 0
-23 -44 -45 -64 -65 -83 -84 -101 -102 -135 -136 -149 -151 -163 -164 -175 -177 -187 -188 0
-23 -44 -45 -64 -65 -83 -84 -101 -102 -135 -136 -150 -151 -163 -165 -175 -177 -187 -188 0
-23 -44 -45 -64 -65 -83 -84 -101 -102 -135 -136 -150 -151 -164 -165 -175 -178 -187 -188 0
-22 -43 -44 -63 -64 -82 -83 -100 -101 -134 -135 -149 -150 -163 -164 -176 -177 -187 -189 0
-23 -43 -45 -63 -64 -82 -83 -100 -101 -134 -135 -149 -150 -163 -164 -176 -177 -187 -189 0
-23 -44 -45 -63 -65 -82 -83 -100 -101 -134 -135 -149 -150 -163 -164 -176 -177 -187 -189 0
-23 -44 -45 -64 -65 -82 -84 -100 -101 -134 -135 -149 -150 -163 -164 -176 -177 -187 -189 0
-23 -44 -45 -64 -65 -83 -84 -100 -102 -134 -135 -149 -150 -163 -164 -176 -177 -187 -189 0
-23 -44 -45 -64 -65 -83 -84 -101 -102 -134 -136 -149 -150 -163 -164 -176 -177 -187 -189 0
-23 -44 -45 -64 -65 -83 -84 -101 -102 -135 -136 -149 -151 -163 -164 -176 -177 -187 -189 0
-23 -44 -45 -64 -65 -83 -84 -101 -102 -135 -136 -150 -151 -163 -165 -176 -177 -187 -189 0
-23 -44 -45 -64 -65 -83 -84 -101 -102 -135 -136 -150 -151 -164 -165 -176 -178 -187 -189 0
-23 -44 -45 -64 -65 -83 -84 -101 -102 -135 -136 -150 -151 -164 -165 -177 -178 -187 -190 0
-22 -43 -44 -63 -64 -82 -83 -100 -101 -134 -135 -149 -150 -163 -164 -176 -177 -188 -189 0
-23 -43 -45 -63 -64 -82 -83 -100 -101 -134 -135 -149 -150 -163 -164 -176 -177 -188 -189 0
-23 -44 -45 -63 -65 -82 -83 -100 -101 -134 -135 -149 -150 -163 -164 -176 -177 -188 -189 0
-23 -44 -45 -64 -65 -82 -84 -100 -101 -134 -135 -149 -150 -163 -164 -176 -177 -188 -189 0
-23 -44 -45 -64 -65 -83 -84 -100 -102 -134 -135 -149 -150 -163 -164 -176 -177 -188 -189 0
-23 -44 -45 -64 -65 -83 -84 -101 -102 -134 -136 -149 -150 -163 -164 -176 -177 -188 -189 0
-23 -44 -45 -64 -65 -83 -84 -101 -102 -135 -136 -149 -151 -163 -164 -176 -177 -188 -189 0
-23 -44 -45 -64 -65 -83 -84 -101 -102 -135 -136 -150 -151 -163 -165 -176 -177 -188 -189 0
-23 -44 -45 -64 -65 -83 -84 -101 -102 -135 -136 -150 -151 -164 -165 -176 -178 -188 -189 0
-23 -44 -45 -64 -65 -83 -84 -101 -102 -135 -136 -150 -151 -164 -165 -177 -178 -188 -190 0
-23 -44 -45 -64 -65 -83 -84 -101 -102 -135 -136 -150 -151 -164 -165 -177 -178 -189 -190 0
-21 -42 -43 -62 -63 -81 -82 -99 -100 -133 -134 -148 -149 -162 -163 -175 -176 -199 -200 0
-22 -42 -44 -62 -63 -81 -82 -99 -100 -133 -134 -148 -149 -162 -163 -175 -176 -199 -200 0
-23 -42 -45 -62 -63 -81 -82 -99 -100 -133 -134 -148 -149 -162 -163 -175 -176 -199 -200 0
-22 -43 -44 -62 -64 -81 -82 -99 -100 -133 -134 -148 -149 -162 -163 -175 -176 -199 -200 0
-23 -43 -45 -62 -64 -81 -82 -99 -100 -133 -134 -148 -149 -162 -163 -175 -176 -199 -200 0
-23 -44 -45 -62 -65 -81 -82 -99 -100 -133 -134 -148 -149 -162 -163 -175 -176 -199 -200 0
-22 -43 -44 -63 -64 -81 -83 -99 -100 -133 -134 -148 -149 -162 -163 -175 -176 -199 -200 0
-23 -43 -45 -63 -64 -81 -83 -99 -100 -133 -134 -148 -149 -162 -163 -175 -176 -199 -200 0
-23 -44 -45 -63 -65 -81 -83 -99 -100 -133 -134 -148 -149 -162 -163 -175 -176 -199 -200 0
-23 -44 -45 -64 -65 -81 -84 -99 -100 -133 -134 -148 -149 -162 -163 -175 -176 -199 -200 0
-22 -43 -44 -63 -64 -82 -83 -99 -101 -133 -134 -148 -149 -162 -163 -175 -176 -199 -200 0
-23 -43 -45 -63 -64 -82 -83 -99 -101 -133 -134 -148 -149 -162 -163 -175 -176 -199 -200 0
-23 -44 -45 -63 -65 -82 -83 -99 -101 -133 -134 -148 -149 -162 -163 -175 -176 -199 -200 0
-23 -44 -45 -64 -65 -82 -84 -99 -101 -133 -134 -148 -149 -162 -163 -175 -176 -199 -200 0
-23 -44 -45 -64 -65 -83 -84 -99 -102 -133 -134 -148 -149 -162 -163 -175 -176 -199 -200 0
-22 -43 -44 -63 -64 -82 -83 -100 -101 -133 -135 -148 -149 -162 -163 -175 -176 -199 -200 0
-23 -43 -45 -63 -64 -82 -83 -100 -101 -133 -135 -148 -149 -162 -163 -175 -176 -199 -200 0
-23 -44 -45 -63 -65 -82 -83 -100 -101 -133 -135 -148 -149 -162 -163 -175 -176 -199 -200 0
-23 -44 -45 -64 -65 -82 -84 -100 -101 -133 -135 -148 -149 -162 -163 -175 -176 -199 -200 0
-23 -44 -45 -64 -65 -83 -84 -100 -102 -133 -135 -148 -149 -162 -163 -175 -176 -199 -200 0
-23 -44 -45 -64 -65 -83 -84 -101 -102 -133 -136 -148 -149 -162 -163 -175 -176 -199 -200 0
-22 -43 -44 -63 -64 -82 -83 -100 -101 -134 -135 -148 -150 -162 -163 -175 -176 -199 -200 0
-23 -43 -45 -63 -64 -82 -83 -100 -101 -134 -135 -148 -150 -162 -163 -175 -176 -199 -200 0
-23 -44 -45 -63 -65 -82 -83 -100 -101 -134 -135 -148 -150 -162 -163 -175 -176 -199 -200 0
-23 -44 -45 -64 -65 -82 -84 -100 -101 -134 -135 -148 -150 -162 -163 -175 -176 -199 -200 0
-23 -44 -45 -64 -65 -83 -84 -100 -102 -134 -135 -148 -150 -162 -163 -175 -176 -199 -200 0
-23 -44 -45 -64 -65 -83 -84 -101 -102 -134 -136 -148 -150 -162 -163 -175 -176 -199 -200 0
-23 -44 -45 -64 -65 -83 -84 -101 -102 -135 -136 -148 -151 -162 -163 -175 -176 -199 -200 0
-22 -43 -44 -63 -64 -82 -83 -100 -101 -134 -135 -149 -150 -162 -164 -175 -176 -199 -200 0
-23 -43 -45 -63 -64 -82 -83 -100 -101 -134 -135 -149 -150 -162 -164 -175 -176 -199 -200 0
-23 -44 -45 -63 -65 -82 -83 -100 -101 -134 -135 -149 -150 -162 -164 -175 -176 -199 -200 0
-23 -44 -45 -64 -65 -82 -84 -100 -101 -134 -135 -149 -150 -162 -164 -175 -176 -199 -200 0
-23 -44 -45 -64 -65 -83 -84 -100 -102 -134 -135 -149 -150 -162 -164 -175 -176 -199 -200 0
-23 -44 -45 -64 -65 -83 -84 -101 -102 -134 -136 -149 -150 -162 -164 -175 -176 -199 -200 0
-23 -44 -45 -64 -65 -83 -84 -101 -102 -135 -136 -149 -151 -162 -164 -175 -176 -199 -200 0
-23 -44 -45 -64 -65 -83 -84 -101 -102 -135 -136 -150 -151 -162 -165 -175 -176 -199 -200 0
-22 -43 -44 -63 -64 -82 -83 -100 -101 -134 -135 -149 -150 -163 -164 -175 -177 -199 -200 0
-23 -43 -45 -63 -64 -82 -83 -100 -101 -134 -135 -149 -150 -163 -164 -175 -177 -199 -200 0
-23 -44 -45 -63 -65 -82 -83 -100 -101 -134 -135 -149 -150 -163 -164 -175 -177 -199 -200 0
-23 -44 -45 -64 -65 -82 -84 -100 -101 -134 -135 -149 -150 -163 -164 -175 -177 -199 -200 0
-23 -44 -45 -64 -65 -83 -84 -100 -102 -134 -135 -149 -150 -163 -164 -175 -177 -199 -200 0
-23 -44 -45 -64 -65 -83 -84 -101 -102 -134 -136 -149 -150 -163 -164 -175 -177 -199 -200 0
-23 -44 -45 -64 -65 -83 -84 -101 -102 -135 -136 -149 -151 -163 -164 -175 -177 -199 -200 0
-23 -44 -45 -64 -65 -83 -84 -101 -102 -135 -136 -150 -151 -163 -165 -175 -177 -199 -200 0
-23 -44 -45 -64 -65 -83 -84 -101 -102 -135 -136 -150 -151 -164 -165 -175 -178 -199 -200 0
-22 -43 -44 -63 -64 -82 -83 -100 -101 -134 -135 -149 -150 -163 -164 -176 -177 -199 -201 0
-23 -43 -45 -63 -64 -82 -83 -100 -101 -134 -135 -149 -150 -163 -164 -176 -177 -199 -201 0
-23 -44 -45 -63 -65 -82 -83 -100 -101 -134 -135 -149 -150 -163 -164 -176 -177 -199 -201 0
-23 -44 -45 -64 -65 -82 -84 -100 -101 -134 -135 -149 -150 -163 -164 -176 -177 -199 -201 0
-23 -44 -45 -64 -65 -83 -84 -100 -102 -134 -135 -149 -150 -163 -164 -176 -177 -199 -201 0
-23 -44 -45 -64 -65 -83 -84 -101 -102 -134 -136 -149 -150 -163 -164 -176 -177 -199 -201 0
-23 -44 -45 -64 -65 -83 -84 -101 -102 -135 -136 -149 -151 -163 -164 -176 -177 -199 -201 0
-23 -44 -45 -64 -65 -83 -84 -101 -102 -135 -136 -150 -151 -163 -165 -176 -177 -199 -201 0
-23 -44 -45 -64 -65 -83 -84 -101 -102 -135 -136 -150 -151 -164 -165 -176 -178 -199 -201 0
-23 -44 -45 -64 -65 -83 -84 -101 -102 -135 -136 -150 -151 -164 -165 -177 -178 -199 -202 0
-22 -43 -44 -63 -64 -82 -83 -100 -101 -134 -135 -149 -150 -163 -164 -176 -177 -200 -201 0
-23 -43 -45 -63 -64 -82 -83 -100 -101 -134 -135 -149 -150 -163 -164 -176 -177 -200 -201 0
-23 -44 -45 -63 -65 -82 -83 -100 -101 -134 -135 -149 -150 -163 -164 -176 -177 -200 -201 0
-23 -44 -45 -64 -65 -82 -84 -100 -101 -134 -135 -149 -150 -163 -164 -176 -177 -200 -201 0
-23 -44 -45 -64 -65 -83 -84 -100 -102 -134 -135 -149 -150 -163 -164 -176 -177 -200 -201 0
-23 -44 -45 -64 -65 -83 -84 -101 -102 -134 -136 -149 -150 -163 -164 -176 -177 -200 -201 0
-23 -44 -45 -64 -65 -83 -84 -101 -102 -135 -136 -149 -151 -163 -164 -176 -177 -200 -201 0
-23 -44 -45 -64 -65 -83 -84 -101 -102 -135 -136 -150 -151 -163 -165 -176 -177 -200 -201 0
-23 -44 -45 -64 -65 -83 -84 -101 -102 -135 -136 -150 -151 -164 -165 -176 -178 -200 -201 0
-23 -44 -45 -64 -65 -83 -84 -101 -102 -135 -136 -150 -151 -164 -165 -177 -178 -200 -202 0
-23 -44 -45 -64 -65 -83 -84 -101 -102 -135 -136 -150 -151 -164 -165 -177 -178 -201 -202 0
-22 -43 -44 -63 -64 -82 -83 -100 -101 -134 -135 -149 -150 -163 -164 -176 -177 -211 -212 0
-23 -43 -45 -63 -64 -82 -83 -100 -101 -134 -135 -149 -150 -163 -164 -176 -177 -211 -212 0
-23 -44 -45 -63 -65 -82 -83 -100 -101 -134 -135 -149 -150 -163 -164 -176 -177 -211 -212 0
-23 -44 -45 -64 -65 -82 -84 -100 -101 -134 -135 -149 -150 -163 -164 -176 -177 -211 -212 0
-23 -44 -45 -64 -65 -83 -84 -100 -102 -134 -135 -149 -150 -163 -164 -176 -177 -211 -212 0
-23 -44 -45 -64 -65 -83 -84 -101 -102 -134 -136 -149 -150 -163 -164 -176 -177 -211 -212 0
-23 -44 -45 -64 -65 -83 -84 -101 -102 -135 -136 -149 -151 -163 -164 -176 -177 -211 -212 0
-23 -44 -45 -64 -65 -83 -84 -101 -102 -135 -136 -150 -151 -163 -165 -176 -177 -211 -212 0
-23 -44 -45 -64 -65 -83 -84 -101 -102 -135 -136 -150 -151 -164 -165 -176 -178 -211 -212 0
-23 -44 -45 -64 -65 -83 -84 -101 -102 -135 -136 -150 -151 -164 -165 -177 -178 -211 -213 0
-23 -44 -45 -64 -65 -83 -84 -101 -102 -135 -136 -150 -151 -164 -165 -177 -178 -212 -213 0
-23 -44 -45 -64 -65 -83 -84 -101 -102 -135 -136 -150 -151 -164 -165 -177 -178 -222 -223 0
-21 -42 -43 -62 -63 -81 -82 -99 -100 -133 -134 -148 -149 -162 -163 -188 -189 -199 -200 0
-22 -42 -44 -62 -63 -81 -82 -99 -100 -133 -134 -148 -149 -162 -163 -188 -189 -199 -200 0
-23 -42 -45 -62 -63 -81 -82 -99 -100 -133 -134 -148 -149 -162 -163 -188 -189 -199 -200 0
-22 -43 -44 -62 -64 -81 -82 -99 -100 -133 -134 -148 -149 -162 -163 -188 -189 -199 -200 0
-23 -43 -45 -62 -64 -81 -82 -99 -100 -133 -134 -148 -149 -162 -163 -188 -189 -199 -200 0
-23 -44 -45 -62 -65 -81 -82 -99 -100 -133 -134 -148 -149 -162 -163 -188 -189 -199 -200 0
-22 -43 -44 -63 -64 -81 -83 -99 -100 -133 -134 -148 -149 -162 -163 -188 -189 -199 -200 0
-23 -43 -45 -63 -64 -81 -83 -99 -100 -133 -134 -148 -149 -162 -163 -188 -189 -199 -200 0
-23 -44 -45 -63 -65 -81 -83 -99 -100 -133 -134 -148 -149 -162 -163 -188 -189 -199 -200 0
-23 -44 -45 -64 -65 -81 -84 -99 -100 -133 -134 -148 -149 -162 -163 -188 -189 -199 -200 0
-22 -43 -44 -63 -64 -82 -83 -99 -101 -133 -134 -148 -149 -162 -163 -188 -189 -199 -200 0
-23 -43 -45 -63 -64 -82 -83 -99 -101 -133 -134 -148 -149 -162 -163 -188 -189 -199 -200 0
-23 -44 -45 -63 -65 -82 -83 -99 -101 -133 -134 -148 -149 -162 -163 -188 -189 -199 -200 0
-23 -44 -45 -64 -65 -82 -84 -99 -101 -133 -134 -148 -149 -162 -163 -188 -189 -199 -200 0
-23 -44 -45 -64 -65 -83 -84 -99 -102 -133 -134 -148 -149 -162 -163 -188 -189 -199 -200 0
-22 -43 -44 -63 -64 -82 -83 -100 -101 -133 -135 -148 -149 -162 -163 -188 -189 -199 -200 0
-23 -43 -45 -63 -64 -82 -83 -100 -101 -133 -135 -148 -149 -162 -163 -188 -189 -199 -200 0
-23 -44 -45 -63 -65 -82 -83 -100 -101 -133 -135 -148 -149 -162 -163 -188 -189 -199 -200 0
-23 -44 -45 -64 -65 -82 -84 -100 -101 -133 -135 -148 -149 -162 -163 -188 -189 -199 -200 0
-23 -44 -45 -64 -65 -83 -84 -100 -102 -133 -135 -148 -149 -162 -163 -188 -189 -199 -200 0
-23 -44 -45 -64 -65 -83 -84 -101 -102 -133 -136 -148 -149 -162 -163 -188 -189 -199 -200 0
-22 -43 -44 -63 -64 -82 -83 -100 -101 -134 -135 -148 -150 -162 -163 -188 -189 -199 -200 0
-23 -43 -45 -63 -64 -82 -83 -100 -101 -134 -135 -148 -150 -162 -163 -188 -189 -199 -200 0
-23 -44 -45 -63 -65 -82 -83 -100 -101 -134 -135 -148 -150 -162 -163 -188 -189 -199 -200 0
-23 -44 -45 -64 -65 -82 -84 -100 -101 -134 -135 -148 -150 -162 -163 -188 -189 -199 -200 0
-23 -44 -45 -64 -65 -83 -84 -100 -102 -134 -135 -148 -150 -162 -163 -188 -189 -199 -200 0
-23 -44 -45 -64 -65 -83 -84 -101 -102 -134 -136 -148 -150 -162 -163 -188 -189 -199 -200 0
-23 -44 -45 -64 -65 -83 -84 -101 -102 -135 -136 -148 -151 -162 -163 -188 -189 -199 -200 0
-22 -43 -44 -63 -64 -82 -83 -100 -101 -134 -135 -149 -150 -162 -164 -188 -189 -199 -200 0
-23 -43 -45 -63 -64 -82 -83 -100 -101 -134 -135 -149 -150 -162 -164 -188 -189 -199 -200 0
-23 -44 -45 -63 -65 -82 -83 -100 -101 -134 -135 -149 -150 -162 -164 -188 -189 -199 -200 0
-23 -44 -45 -64 -65 -82 -84 -100 -101 -134 -135 -149 -150 -162 -164 -188 -189 -199 -200 0
-23 -44 -45 -64 -65 -83 -84 -100 -102 -134 -135 -149 -150 -162 -164 -188 -189 -199 -200 0
-23 -44 -45 -64 -65 -83 -84 -101 -102 -134 -136 -149 -150 -162 -164 -188 -189 -199 -200 0
-23 -44 -45 -64 -65 -83 -84 -101 -102 -135 -136 -149 -151 -162 -164 -188 -189 -199 -200 0
-23 -44 -45 -64 -65 -83 -84 -101 -102 -135 -136 -150 -151 -162 -165 -188 -189 -199 -200 0
-22 -43 -44 -63 -64 -82 -83 -100 -101 -134 -135 -149 -150 -163 -164 -188 -190 -199 -200 0
-23 -43 -45 -63 -64 -82 -83 -100 -101 -134 -135 -149 -150 -163 -164 -188 -190 -199 -200 0
-23 -44 -45 -63 -65 -82 -83 -100 -101 -134 -135 -149 -150 -163 -164 -188 -190 -199 -200 0
-23 -44 -45 -64 -65 -82 -84 -100 -101 -134 -135 -149 -150 -163 -164 -188 -190 -199 -200 0
-23 -44 -45 -64 -65 -83 -84 -100 -102 -134 -135 -149 -150 -163 -164 -188 -190 -199 -200 0
-23 -44 -45 -64 -65 -83 -84 -101 -102 -134 -136 -149 -150 -163 -164 -188 -190 -199 -200 0
-23 -44 -45 -64 -65 -83 -84 -101 -102 -135 -136 -149 -151 -163 -164 -188 -190 -199 -200 0
-23 -44 -45 -64 -65 -83 -84 -101 -102 -135 -136 -150 -151 -163 -165 -188 -190 -199 -200 0
-23 -44 -45 -64 -65 -83 -84 -101 -102 -135 -136 -150 -151 -164 -165 -188 -191 -199 -200 0
-22 -43 -44 -63 -64 -82 -83 -100 -101 -134 -135 -149 -150 -163 -164 -189 -190 -199 -201 0
-23 -43 -45 -63 -64 -82 -83 -100 -101 -134 -135 -149 -150 -163 -164 -189 -190 -199 -201 0
-23 -44 -45 -63 -65 -82 -83 -100 -101 -134 -135 -149 -150 -163 -164 -189 -190 -199 -201 0
-23 -44 -45 -64 -65 -82 -84 -100 -101 -134 -135 -149 -150 -163 -164 -189 -190 -199 -201 0
-23 -44 -45 -64 -65 -83 -84 -100 -102 -134 -135 -149 -150 -163 -164 -189 -190 -199 -201 0
-23 -44 -45 -64 -65 -83 -84 -101 -102 -134 -136 -149 -150 -163 -164 -189 -190 -199 -201 0
-23 -44 -45 -64 -65 -83 -84 -101 -102 -135 -136 -149 -151 -163 -164 -189 -190 -199 -201 0
-23 -44 -45 -64 -65 -83 -84 -101 -102 -135 -136 -150 -151 -163 -165 -189 -190 -199 -201 0
-23 -44 -45 -64 -65 -83 -84 -101 -102 -135 -136 -150 -151 -164 -165 -189 -191 -199 -201 0
-23 -44 -45 -64 -65 -83 -84 -101 -102 -135 -136 -150 -151 -164 -165 -190 -191 -199 -202 0
-22 -43 -44 -63 -64 -82 -83 -100 -101 -134 -135 -149 -150 -163 -164 -189 -190 -200 -201 0
-23 -43 -45 -63 -64 -82 -83 -100 -101 -134 -135 -149 -150 -163 -164 -189 -190 -200 -201 0
-23 -44 -45 -63 -65 -82 -83 -100 -101 -134 -135 -149 -150 -163 -164 -189 -190 -200 -201 0
-23 -44 -45 -64 -65 -82 -84 -100 -101 -134 -135 -149 -150 -163 -164 -189 -190 -200 -201 0
-23 -44 -45 -64 -65 -83 -84 -100 -102 -134 -135 -149 -150 -163 -164 -189 -190 -200 -201 0
-23 -44 -45 -64 -65 -83 -84 -101 -102 -134 -136 -149 -150 -163 -164 -189 -190 -200 -201 0
-23 -44 -45 -64 -65 -83 -84 -101 -102 -135 -136 -149 -151 -163 -164 -189 -190 -200 -201 0
-23 -44 -45 -64 -65 -83 -84 -101 -102 -135 -136 -150 -151 -163 -165 -189 -190 -200 -201 0
-23 -44 -45 -64 -65 -83 -84 -101 -102 -135 -136 -150 -151 -164 -165 -189 -191 -200 -201 0
-23 -44 -45 -64 -65 -83 -84 -101 -102 -135 -136 -150 -151 -164 -165 -190 -191 -200 -202 0
-23 -44 -45 -64 -65 -83 -84 -101 -102 -135 -136 -150 -151 -164 -165 -190 -191 -201 -202 0
-22 -43 -44 -63 -64 -82 -83 -100 -101 -134 -135 -149 -150 -163 -164 -189 -190 -211 -212 0
-23 -43 -45 -63 -64 -82 -83 -100 -101 -134 -135 -149 -150 -163 -164 -189 -190 -211 -212 0
-23 -44 -45 -63 -65 -82 -83 -100 -101 -134 -135 -149 -150 -163 -164 -189 -190 -211 -212 0
-23 -44 -45 -64 -65 -82 -84 -100 -101 -134 -135 -149 -150 -163 -164 -189 -190 -211 -212 0
-23 -44 -45 -64 -65 -83 -84 -100 -102 -134 -135 -149 -150 -163 -164 -189 -190 -211 -212 0
-23 -44 -45 -64 -65 -83 -84 -101 -102 -134 -136 -149 -150 -163 -164 -189 -190 -211 -212 0
-23 -44 -45 -64 -65 -83 -84 -101 -102 -135 -136 -149 -151 -163 -164 -189 -190 -211 -212 0
-23 -44 -45 -64 -65 -83 -84 -101 -102 -135 -136 -150 -151 -163 -165 -189 -190 -211 -212 0
-23 -44 -45 -64 -65 -83 -84 -101 -102 -135 -136 -150 -151 -164 -165 -189 -191 -211 -212 0
-23 -44 -45 -64 -65 -83 -84 -101 -102 -135 -136 -150 -151 -164 -165 -190 -191 -211 -213 0
-23 -44 -45 -64 -65 -83 -84 -101 -102 -135 -136 -150 -151 -164 -165 -190 -191 -212 -213 0
-23 -44 -45 -64 -65 -83 -84 -101 -102 -135 -136 -150 -151 -164 -165 -190 -191 -222 -223 0
-22 -43 -44 -63 -64 -82 -83 -100 -101 -134 -135 -149 -150 -163 -164 -201 -202 -211 -212 0
-23 -43 -45 -63 -64 -82 -83 -100 -101 -134 -135 -149 -150 -163 -164 -201 -202 -211 -212 0
-23 -44 -45 -63 -65 -82 -83 -100 -101 -134 -135 -149 -150 -163 -164 -201 -202 -211 -212 0
-23 -44 -45 -64 -65 -82 -84 -100 -101 -134 -135 -149 -150 -163 -164 -201 -202 -211 -212 0
-23 -44 -45 -64 -65 -83 -84 -100 -102 -134 -135 -149 -150 -163 -164 -201 -202 -211 -212 0
-23 -44 -45 -64 -65 -83 -84 -101 -102 -134 -136 -149 -150 -163 -164 -201 -202 -211 -212 0
-23 -44 -45 -64 -65 -83 -84 -101 -102 -135 -136 -149 -151 -163 -164 -201 -202 -211 -212 0
-23 -44 -45 -64 -65 -83 -84 -101 -102 -135 -136 -150 -151 -163 -165 -201 -202 -211 -212 0
-23 -44 -45 -64 -65 -83 -84 -101 -102 -135 -136 -150 -151 -164 -165 -201 -203 -211 -212 0
-23 -44 -45 -64 -65 -83 -84 -101 -102 -135 -136 -150 -151 -164 -165 -202 -203 -211 -213 0
-23 -44 -45 -64 -65 -83 -84 -101 -102 -135 -136 -150 -151 -164 -165 -202 -203 -212 -213 0
-23 -44 -45 -64 -65 -83 -84 -101 -102 -135 -136 -150 -151 -164 -165 -202 -203 -222 -223 0
-23 -44 -45 -64 -65 -83 -84 -101 -102 -135 -136 -150 -151 -164 -165 -213 -214 -222 -223 0
-21 -42 -43 -62 -63 -81 -82 -99 -100 -133 -134 -148 -149 -176 -177 -188 -189 -199 -200 0
-22 -42 -44 -62 -63 -81 -82 -99 -100 -133 -134 -148 -149 -176 -177 -188 -189 -199 -200 0
-23 -42 -45 -62 -63 -81 -82 -99 -100 -133 -134 -148 -149 -176 -177 -188 -189 -199 -200 0
-22 -43 -44 -62 -64 -81 -82 -99 -100 -133 -134 -148 -149 -176 -177 -188 -189 -199 -200 0
-23 -43 -45 -62 -64 -81 -82 -99 -100 -133 -134 -148 -149 -176 -177 -188 -189 -199 -200 0
-23 -44 -45 -62 -65 -81 -82 -99 -100 -133 -134 -148 -149 -176 -177 -188 -189 -199 -200 0
-22 -43 -44 -63 -64 -81 -83 -99 -100 -133 -134 -148 -149 -176 -177 -188 -189 -199 -200 0
-23 -43 -45 -63 -64 -81 -83 -99 -100 -133 -134 -148 -149 -176 -177 -188 -189 -199 -200 0
-23 -44 -45 -63 -65 -81 -83 -99 -100 -133 -134 -148 -149 -176 -177 -188 -189 -199 -200 0
-23 -44 -45 -64 -65 -81 -84 -99 -100 -133 -134 -148 -149 -176 -177 -188 -189 -199 -200 0
-22 -43 -44 -63 -64 -82 -83 -99 -101 -133 -134 -148 -149 -176 -177 -188 -189 -199 -200 0
-23 -43 -45 -63 -64 -82 -83 -99 -101 -133 -134 -148 -149 -176 -177 -188 -189 -199 -200 0
-23 -44 -45 -63 -65 -82 -83 -99 -101 -133 -134 -148 -149 -176 -177 -188 -189 -199 -200 0
-23 -44 -45 -64 -65 -82 -84 -99 -101 -133 -134 -148 -149 -176 -177 -188 -189 -199 -200 0
-23 -44 -45 -64 -65 -83 -84 -99 -102 -133 -134 -148 -149 -176 -177 -188 -189 -199 -200 0
-22 -43 -44 -63 -64 -82 -83 -100 -101 -133 -135 -148 -149 -176 -177 -188 -189 -199 -200 0
-23 -43 -45 -63 -64 -82 -83 -100 -101 -133 -135 -148 -149 -176 -177 -188 -189 -199 -200 0
-23 -44 -45 -63 -65 -82 -83 -100 -101 -133 -135 -148 -149 -176 -177 -188 -189 -199 -200 0
-23 -44 -45 -64 -65 -82 -84 -100 -101 -133 -135 -148 -149 -176 -177 -188 -189 -199 -200 0
-23 -44 -45 -64 -65 -83 -84 -100 -102 -133 -135 -148 -149 -176 -177 -188 -189 -199 -200 0
-23 -44 -45 -64 -65 -83 -84 -101 -102 -133 -136 -148 -149 -176 -177 -188 -189 -199 -200 0
-22 -43 -44 -63 -64 -82 -83 -100 -101 -134 -135 -148 -150 -176 -177 -188 -189 -199 -200 0
-23 -43 -45 -63 -64 -82 -83 -100 -101 -134 -135 -148 -150 -176 -177 -188 -189 -199 -200 0
-23 -44 -45 -63 -65 -82 -83 -100 -101 -134 -135 -148 -150 -176 -177 -188 -189 -199 -200 0
-23 -44 -45 -64 -65 -82 -84 -100 -101 -134 -135 -148 -150 -176 -177 -188 -189 -199 -200 0
-23 -44 -45 -64 -65 -83 -84 -100 -102 -134 -135 -148 -150 -176 -177 -188 -189 -199 -200 0
-23 -44 -45 -64 -65 -83 -84 -101 -102 -134 -136 -148 -150 -176 -177 -188 -189 -199 -200 0
-23 -44 -45 -64 -65 -83 -84 -101 -102 -135 -136 -148 -151 -176 -177 -188 -189 -199 -200 0
-22 -43 -44 -63 -64 -82 -83 -100 -101 -134 -135 -149 -150 -176 -178 -188 -189 -199 -200 0
-23 -43 -45 -63 -64 -82 -83 -100 -101 -134 -135 -149 -150 -176 -178 -188 -189 -199 -200 0
-23 -44 -45 -63 -65 -82 -83 -100 -101 -134 -135 -149 -150 -176 -178 -188 -189 -199 -200 0
-23 -44 -45 -64 -65 -82 -84 -100 -101 -134 -135 -149 -150 -176 -178 -188 -189 -199 -200 0
-23 -44 -45 -64 -65 -83 -84 -100 -102 -134 -135 -149 -150 -176 -178 -188 -189 -199 -200 0
-23 -44 -45 -64 -65 -83 -84 -101 -102 -134 -136 -149 -150 -176 -178 -188 -189 -199 -200 0
-23 -44 -45 -64 -65 -83 -84 -101 -102 -135 -136 -149 -151 -176 -178 -188 -189 -199 -200 0
-23 -44 -45 -64 -65 -83 -84 -101 -102 -135 -136 -150 -151 -176 -179 -188 -189 -199 -200 0
-22 -43 -44 -63 -64 -82 -83 -100 -101 -134 -135 -149 -150 -177 -178 -188 -190 -199 -200 0
-23 -43 -45 -63 -64 -82 -83 -100 -101 -134 -135 -149 -150 -177 -178 -188 -190 -199 -200 0
-23 -44 -45 -63 -65 -82 -83 -100 -101 -134 -135 -149 -150 -177 -178 -188 -190 -199 -200 0
-23 -44 -45 -64 -65 -82 -84 -100 -101 -134 -135 -149 -150 -177 -178 -188 -190 -199 -200 0
-23 -44 -45 -64 -65 -83 -84 -100 -102 -134 -135 -149 -150 -177 -178 -188 -190 -199 -200 0
-23 -44 -45 -64 -65 -83 -84 -101 -102 -134 -136 -149 -150 -177 -178 -188 -190 -199 -200 0
-23 -44 -45 -64 -65 -83 -84 -101 -102 -135 -136 -149 -151 -177 -178 -188 -190 -199 -200 0
-23 -44 -45 -64 -65 -83 -84 -101 -102 -135 -136 -150 -151 -177 -179 -188 -190 -199 -200 0
-23 -44 -45 -64 -65 -83 -84 -101 -102 -135 -136 -150 -151 -178 -179 -188 -191 -199 -200 0
-22 -43 -44 -63 -64 -82 -83 -100 -101 -134 -135 -149 -150 -177 -178 -189 -190 -199 -201 0
-23 -43 -45 -63 -64 -82 -83 -100 -101 -134 -135 -149 -150 -177 -178 -189 -190 -199 -201 0
-23 -44 -45 -63 -65 -82 -83 -100 -101 -134 -135 -149 -150 -177 -178 -189 -190 -199 -201 0
-23 -44 -45 -64 -65 -82 -84 -100 -101 -134 -135 -149 -150 -177 -178 -189 -190 -199 -201 0
-23 -44 -45 -64 -65 -83 -84 -100 -102 -134 -135 -149 -150 -177 -178 -189 -190 -199 -201 0
-23 -44 -45 -64 -65 -83 -84 -101 -102 -134 -136 -149 -150 -177 -178 -189 -190 -199 -201 0
-23 -44 -45 -64 -65 -83 -84 -101 -102 -135 -136 -149 -151 -177 -178 -189 -190 -199 -201 0
-23 -44 -45 -64 -65 -83 -84 -101 -102 -135 -136 -150 -151 -177 -179 -189 -190 -199 -201 0
-23 -44 -45 -64 -65 -83 -84 -101 -102 -135 -136 -150 -151 -178 -179 -189 -191 -199 -201 0
-23 -44 -45 -64 -65 -83 -84 -101 -102 -135 -136 -150 -151 -178 -179 -190 -191 -199 -202 0
-22 -43 -44 -63 -64 -82 -83 -100 -101 -134 -135 -149 -150 -177 -178 -189 -190 -200 -201 0
-23 -43 -45 -63 -64 -82 -83 -100 -101 -134 -135 -149 -150 -177 -178 -189 -190 -200 -201 0
-23 -44 -45 -63 -65 -82 -83 -100 -101 -134 -135 -149 -150 -177 -178 -189 -190 -200 -201 0
-23 -44 -45 -64 -65 -82 -84 -100 -101 -134 -135 -149 -150 -177 -178 -189 -190 -200 -201 0
-23 -44 -45 -64 -65 -83 -84 -100 -102 -134 -135 -149 -150 -177 -178 -189 -190 -200 -201 0
-23 -44 -45 -64 -65 -83 -84 -101 -102 -134 -136 -149 -150 -177 -178 -189 -190 -200 -201 0
-23 -44 -45 -64 -65 -83 -84 -101 -102 -135 -136 -149 -151 -177 -178 -189 -190 -200 -201 0
-23 -44 -45 -64 -65 -83 -84 -101 -102 -135 -136 -150 -151 -177 -179 -189 -190 -200 -201 0
-23 -44 -45 -64 -65 -83 -84 -101 -102 -135 -136 -150 -151 -178 -179 -189 -191 -200 -201 0
-23 -44 -45 -64 -65 -83 -84 -101 -102 -135 -136 -150 -151 -178 -179 -190 -191 -200 -202 0
-23 -44 -45 -64 -65 -83 -84 -101 -102 -135 -136 -150 -151 -178 -179 -190 -191 -201 -202 0
-22 -43 -44 -63 -64 -82 -83 -100 -101 -134 -135 -149 -150 -177 -178 -189 -190 -211 -212 0
-23 -43 -45 -63 -64 -82 -83 -100 -101 -134 -135 -149 -150 -177 -178 -189 -190 -211 -212 0
-23 -44 -45 -63 -65 -82 -83 -100 -101 -134 -135 -149 -150 -177 -178 -189 -190 -211 -212 0
-23 -44 -45 -64 -65 -82 -84 -100 -101 -134 -135 -149 -150 -177 -178 -189 -190 -211 -212 0
-23 -44 -45 -64 -65 -83 -84 -100 -102 -134 -135 -149 -150 -177 -178 -189 -190 -211 -212 0
-23 -44 -45 -64 -65 -83 -84 -101 -102 -134 -136 -149 -150 -177 -178 -189 -190 -211 -212 0
-23 -44 -45 -64 -65 -83 -84 -101 -102 -135 -136 -149 -151 -177 -178 -189 -190 -211 -212 0
-23 -44 -45 -64 -65 -83 -84 -101 -102 -135 -136 -150 -151 -177 -179 -189 -190 -211 -212 0
-23 -44 -45 -64 -65 -83 -84 -101 -102 -135 -136 -150 -151 -178 -179 -189 -191 -211 -212 0
-23 -44 -45 -64 -65 -83 -84 -101 -102 -135 -136 -150 -151 -178 -179 -190 -191 -211 -213 0
-23 -44 -45 -64 -65 -83 -84 -101 -102 -135 -136 -150 -151 -178 -179 -190 -191 -212 -213 0
-23 -44 -45 -64 -65 -83 -84 -101 -102 -135 -136 -150 -151 -178 -179 -190 -191 -222 -223 0
-22 -43 -44 -63 -64 -82 -83 -100 -101 -134 -135 -149 -150 -177 -178 -201 -202 -211 -212 0
-23 -43 -45 -63 -64 -82 -83 -100 -101 -134 -135 -149 -150 -177 -178 -201 -202 -211 -212 0
-23 -44 -45 -63 -65 -82 -83 -100 -101 -134 -135 -149 -150 -177 -178 -201 -202 -211 -212 0
-23 -44 -45 -64 -65 -82 -84 -100 -101 -134 -135 -149 -150 -177 -178 -201 -202 -211 -212 0
-23 -44 -45 -64 -65 -83 -84 -100 -102 -134 -135 -149 -150 -177 -178 -201 -202 -211 -212 0
-23 -44 -45 -64 -65 -83 -84 -101 -102 -134 -136 -149 -150 -177 -178 -201 -202 -211 -212 0
-23 -44 -45 -64 -65 -83 -84 -101 -102 -135 -136 -149 -151 -177 -178 -201 -202 -211 -212 0
-23 -44 -45 -64 -65 -83 -84 -101 -102 -135 -136 -150 -151 -177 -179 -201 -202 -211 -212 0
-23 -44 -45 -64 -65 -83 -84 -101 -102 -135 -136 -150 -151 -178 -179 -201 -203 -211 -212 0
-23 -44 -45 -64 -65 -83 -84 -101 -102 -135 -136 -150 -151 -178 -179 -202 -203 -211 -213 0
-23 -44 -45 -64 -65 -83 -84 -101 -102 -135 -136 -150 -151 -178 -179 -202 -203 -212 -213 0
-23 -44 -45 -64 -65 -83 -84 -101 -102 -135 -136 -150 -151 -178 -179 -202 -203 -222 -223 0
-23 -44 -45 -64 -65 -83 -84 -101 -102 -135 -136 -150 -151 -178 -179 -213 -214 -222 -223 0
-22 -43 -44 -63 -64 -82 -83 -100 -101 -134 -135 -149 -150 -190 -191 -201 -202 -211 -212 0
-23 -43 -45 -63 -64 -82 -83 -100 -101 -134 -135 -149 -150 -190 -191 -201 -202 -211 -212 0
-23 -44 -45 -63 -65 -82 -83 -100 -101 -134 -135 -149 -150 -190 -191 -201 -202 -211 -212 0
-23 -44 -45 -64 -65 -82 -84 -100 -101 -134 -135 -149 -150 -190 -191 -201 -202 -211 -212 0
-23 -44 -45 -64 -65 -83 -84 -100 -102 -134 -135 -149 -150 -190 -191 -201 -202 -211 -212 0
-23 -44 -45 -64 -65 -83 -84 -101 -102 -134 -136 -149 -150 -190 -191 -201 -202 -211 -212 0
-23 -44 -45 -64 -65 -83 -84 -101 -102 -135 -136 -149 -151 -190 -191 -201 -202 -211 -212 0
-23 -44 -45 -64 -65 -83 -84 -101 -102 -135 -136 -150 -151 -190 -192 -201 -202 -211 -212 0
-23 -44 -45 -64 -65 -83 -84 -101 -102 -135 -136 -150 -151 -191 -192 -201 -203 -211 -212 0
-23 -44 -45 -64 -65 -83 -84 -101 -102 -135 -136 -150 -151 -191 -192 -202 -203 -211 -213 0
-23 -44 -45 -64 -65 -83 -84 -101 -102 -135 -136 -150 -151 -191 -192 -202 -203 -212 -213 0
-23 -44 -45 -64 -65 -83 -84 -101 -102 -135 -136 -150 -151 -191 -192 -202 -203 -222 -223 0
-23 -44 -45 -64 -65 -83 -84 -101 -102 -135 -136 -150 -151 -191 -192 -213 -214 -222 -223 0
-23 -44 -45 -64 -65 -83 -84 -101 -102 -135 -136 -150 -151 -203 -204 -213 -214 -222 -223 0
-21 -42 -43 -62 -63 -81 -82 -99 -100 -133 -134 -163 -164 -176 -177 -188 -189 -199 -200 0
-22 -42 -44 -62 -63 -81 -82 -99 -100 -133 -134 -163 -164 -176 -177 -188 -189 -199 -200 0
-23 -42 -45 -62 -63 -81 -82 -99 -100 -133 -134 -163 -164 -176 -177 -188 -189 -199 -200 0
-22 -43 -44 -62 -64 -81 -82 -99 -100 -133 -134 -163 -164 -176 -177 -188 -189 -199 -200 0
-23 -43 -45 -62 -64 -81 -82 -99 -100 -133 -134 -163 -164 -176 -177 -188 -189 -199 -200 0
-23 -44 -45 -62 -65 -81 -82 -99 -100 -133 -134 -163 -164 -176 -177 -188 -189 -199 -200 0
-22 -43 -44 -63 -64 -81 -83 -99 -100 -133 -134 -163 -164 -176 -177 -188 -189 -199 -200 0
-23 -43 -45 -63 -64 -81 -83 -99 -100 -133 -134 -163 -164 -176 -177 -188 -189 -199 -200 0
-23 -44 -45 -63 -65 -81 -83 -99 -100 -133 -134 -163 -164 -176 -177 -188 -189 -199 -200 0
-23 -44 -45 -64 -65 -81 -84 -99 -100 -133 -134 -163 -164 -176 -177 -188 -189 -199 -200 0
-22 -43 -44 -63 -64 -82 -83 -99 -101 -133 -134 -163 -164 -176 -177 -188 -189 -199 -200 0
-23 -43 -45 -63 -64 -82 -83 -99 -101 -133 -134 -163 -164 -176 -177 -188 -189 -199 -200 0
-23 -44 -45 -63 -65 -82 -83 -99 -101 -133 -134 -163 -164 -176 -177 -188 -189 -199 -200 0
-23 -44 -45 -64 -65 -82 -84 -99 -101 -133 -134 -163 -164 -176 -177 -188 -189 -199 -200 0
-23 -44 -45 -64 -65 -83 -84 -99 -102 -133 -134 -163 -164 -176 -177 -188 -189 -199 -200 0
-22 -43 -44 -63 -64 -82 -83 -100 -101 -133 -135 -163 -164 -176 -177 -188 -189 -199 -200 0
-23 -43 -45 -63 -64 -82 -83 -100 -101 -133 -135 -163 -164 -176 -177 -188 -189 -199 -200 0
-23 -44 -45 -63 -65 -82 -83 -100 -101 -133 -135 -163 -164 -176 -177 -188 -189 -199 -200 0
-23 -44 -45 -64 -65 -82 -84 -100 -101 -133 -135 -163 -164 -176 -177 -188 -189 -199 -200 0
-23 -44 -45 -64 -65 -83 -84 -100 -102 -133 -135 -163 -164 -176 -177 -188 -189 -199 -200 0
-23 -44 -45 -64 -65 -83 -84 -101 -102 -133 -136 -163 -164 -176 -177 -188 -189 -199 -200 0
-22 -43 -44 -63 -64 -82 -83 -100 -101 -134 -135 -163 -165 -176 -177 -188 -189 -199 -200 0
-23 -43 -45 -63 -64 -82 -83 -100 -101 -134 -135 -163 -165 -176 -177 -188 -189 -199 -200 0
-23 -44 -45 -63 -65 -82 -83 -100 -101 -134 -135 -163 -165 -176 -177 -188 -189 -199 -200 0
-23 -44 -45 -64 -65 -82 -84 -100 -101 -134 -135 -163 -165 -176 -177 -188 -189 -199 -200 0
-23 -44 -45 -64 -65 -83 -84 -100 -102 -134 -135 -163 -165 -176 -177 -188 -189 -199 -200 0
-23 -44 -45 -64 -65 -83 -84 -101 -102 -134 -136 -163 -165 -176 -177 -188 -189 -199 -200 0
-23 -44 -45 -64 -65 -83 -84 -101 -102 -135 -136 -163 -166 -176 -177 -188 -189 -199 -200 0
-22 -43 -44 -63 -64 -82 -83 -100 -101 -134 -135 -164 -165 -176 -178 -188 -189 -199 -200 0
-23 -43 -45 -63 -64 -82 -83 -100 -101 -134 -135 -164 -165 -176 -178 -188 -189 -199 -200 0
-23 -44 -45 -63 -65 -82 -83 -100 -101 -134 -135 -164 -165 -176 -178 -188 -189 -199 -200 0
-23 -44 -45 -64 -65 -82 -84 -100 -101 -134 -135 -164 -165 -176 -178 -188 -189 -199 -200 0
-23 -44 -45 -64 -65 -83 -84 -100 -102 -134 -135 -164 -165 -176 -178 -188 -189 -199 -200 0
-23 -44 -45 -64 -65 -83 -84 -101 -102 -134 -136 -164 -165 -176 -178 -188 -189 -199 -200 0
-23 -44 -45 -64 -65 -83 -84 -101 -102 -135 -136 -164 -166 -176 -178 -188 -189 -199 -200 0
-23 -44 -45 -64 -65 -83 -84 -101 -102 -135 -136 -165 -166 -176 -179 -188 -189 -199 -200 0
-22 -43 -44 -63 -64 -82 -83 -100 -101 -134 -135 -164 -165 -177 -178 -188 -190 -199 -200 0
-23 -43 -45 -63 -64 -82 -83 -100 -101 -134 -135 -164 -165 -177 -178 -188 -190 -199 -200 0
-23 -44 -45 -63 -65 -82 -83 -100 -101 -134 -135 -164 -165 -177 -178 -188 -190 -199 -200 0
-23 -44 -45 -64 -65 -82 -84 -100 -101 -134 -135 -164 -165 -177 -178 -188 -190 -199 -200 0
-23 -44 -45 -64 -65 -83 -84 -100 -102 -134 -135 -164 -165 -177 -178 -188 -190 -199 -200 0
-23 -44 -45 -64 -65 -83 -84 -101 -102 -134 -136 -164 -165 -177 -178 -188 -190 -199 -200 0
-23 -44 -45 -64 -65 -83 -84 -101 -102 -135 -136 -164 -166 -177 -178 -188 -190 -199 -200 0
-23 -44 -45 -64 -65 -83 -84 -101 -102 -135 -136 -165 -166 -177 -179 -188 -190 -199 -200 0
-23 -44 -45 -64 -65 -83 -84 -101 -102 -135 -136 -165 -166 -178 -179 -188 -191 -199 -200 0
-22 -43 -44 -63 -64 -82 -83 -100 -101 -134 -135 -164 -165 -177 -178 -189 -190 -199 -201 0
-23 -43 -45 -63 -64 -82 -83 -100 -101 -134 -135 -164 -165 -177 -178 -189 -190 -199 -201 0
-23 -44 -45 -63 -65 -82 -83 -100 -101 -134 -135 -164 -165 -177 -178 -189 -190 -199 -201 0
-23 -44 -45 -64 -65 -82 -84 -100 -101 -134 -135 -164 -165 -177 -178 -189 -190 -199 -201 0
-23 -44 -45 -64 -65 -83 -84 -100 -102 -134 -135 -164 -165 -177 -178 -189 -190 -199 -201 0
-23 -44 -45 -64 -65 -83 -84 -101 -102 -134 -136 -164 -165 -177 -178 -189 -190 -199 -201 0
-23 -44 -45 -64 -65 -83 -84 -101 -102 -135 -136 -164 -166 -177 -178 -189 -190 -199 -201 0
-23 -44 -45 -64 -65 -83 -84 -101 -102 -135 -136 -165 -166 -177 -179 -189 -190 -199 -201 0
-23 -44 -45 -64 -65 -83 -84 -101 -102 -135 -136 -165 -166 -178 -179 -189 -191 -199 -201 0
-23 -44 -45 -64 -65 -83 -84 -101 -102 -135 -136 -165 -166 -178 -179 -190 -191 -199 -202 0
-22 -43 -44 -63 -64 -82 -83 -100 -101 -134 -135 -164 -165 -177 -178 -189 -190 -200 -201 0
-23 -43 -45 -63 -64 -82 -83 -100 -101 -134 -135 -164 -165 -177 -178 -189 -190 -200 -201 0
-23 -44 -45 -63 -65 -82 -83 -100 -101 -134 -135 -164 -165 -177 -178 -189 -190 -200 -201 0
-23 -44 -45 -64 -65 -82 -84 -100 -101 -134 -135 -164 -165 -177 -178 -189 -190 -200 -201 0
-23 -44 -45 -64 -65 -83 -84 -100 -102 -134 -135 -164 -165 -177 -178 -189 -190 -200 -201 0
-23 -44 -45 -64 -65 -83 -84 -101 -102 -134 -136 -164 -165 -177 -178 -189 -190 -200 -201 0
-23 -44 -45 -64 -65 -83 -84 -101 -102 -135 -136 -164 -166 -177 -178 -189 -190 -200 -201 0
-23 -44 -45 -64 -65 -83 -84 -101 -102 -135 -136 -165 -166 -177 -179 -189 -190 -200 -201 0
-23 -44 -45 -64 -65 -83 -84 -101 -102 -135 -136 -165 -166 -178 -179 -189 -191 -200 -201 0
-23 -44 -45 -64 -65 -83 -84 -101 -102 -135 -136 -165 -166 -178 -179 -190 -191 -200 -202 0
-23 -44 -45 -64 -65 -83 -84 -101 -102 -135 -136 -165 -166 -178 -179 -190 -191 -201 -202 0
-22 -43 -44 -63 -64 -82 -83 -100 -101 -134 -135 -164 -165 -177 -178 -189 -190 -211 -212 0
-23 -43 -45 -63 -64 -82 -83 -100 -101 -134 -135 -164 -165 -177 -178 -189 -190 -211 -212 0
-23 -44 -45 -63 -65 -82 -83 -100 -101 -134 -135 -164 -165 -177 -178 -189 -190 -211 -212 0
-23 -44 -45 -64 -65 -82 -84 -100 -101 -134 -135 -164 -165 -177 -178 -189 -190 -211 -212 0
-23 -44 -45 -64 -65 -83 -84 -100 -102 -134 -135 -164 -165 -177 -178 -189 -190 -211 -212 0
-23 -44 -45 -64 -65 -83 -84 -101 -102 -134 -136 -164 -165 -177 -178 -189 -190 -211 -212 0
-23 -44 -45 -64 -65 -83 -84 -101 -102 -135 -136 -164 -166 -177 -178 -189 -190 -211 -212 0
-23 -44 -45 -64 -65 -83 -84 -101 -102 -135 -136 -165 -166 -177 -179 -189 -190 -211 -212 0
-23 -44 -45 -64 -65 -83 -84 -101 -102 -135 -136 -165 -166 -178 -179 -189 -191 -211 -212 0
-23 -44 -45 -64 -65 -83 -84 -101 -102 -135 -136 -165 -166 -178 -179 -190 -191 -211 -213 0
-23 -44 -45 -64 -65 -83 -84 -101 -102 -135 -136 -165 -166 -178 -179 -190 -191 -212 -213 0
-23 -44 -45 -64 -65 -83 -84 -101 -102 -135 -136 -165 -166 -178 -179 -190 -191 -222 -223 0
-22 -43 -44 -63 -64 -82 -83 -100 -101 -134 -135 -164 -165 -177 -178 -201 -202 -211 -212 0
-23 -43 -45 -63 -64 -82 -83 -100 -101 -134 -135 -164 -165 -177 -178 -201 -202 -211 -212 0
-23 -44 -45 -63 -65 -82 -83 -100 -101 -134 -135 -164 -165 -177 -178 -201 -202 -211 -212 0
-23 -44 -45 -64 -65 -82 -84 -100 -101 -134 -135 -164 -165 -177 -178 -201 -202 -211 -212 0
-23 -44 -45 -64 -65 -83 -84 -100 -102 -134 -135 -164 -165 -177 -178 -201 -202 -211 -212 0
-23 -44 -45 -64 -65 -83 -84 -101 -102 -134 -136 -164 -165 -177 -178 -201 -202 -211 -212 0
-23 -44 -45 -64 -65 -83 -84 -101 -102 -135 -136 -164 -166 -177 -178 -201 -202 -211 -212 0
-23 -44 -45 -64 -65 -83 -84 -101 -102 -135 -136 -165 -166 -177 -179 -201 -202 -211 -212 0
-23 -44 -45 -64 -65 -83 -84 -101 -102 -135 -136 -165 -166 -178 -179 -201 -203 -211 -212 0
-23 -44 -45 -64 -65 -83 -84 -101 -102 -135 -136 -165 -166 -178 -179 -202 -203 -211 -213 0
-23 -44 -45 -64 -65 -83 -84 -101 -102 -135 -136 -165 -166 -178 -179 -202 -203 -212 -213 0
-23 -44 -45 -64 -65 -83 -84 -101 -102 -135 -136 -165 -166 -178 -179 -202 -203 -222 -223 0
-23 -44 -45 -64 -65 -83 -84 -101 -102 -135 -136 -165 -166 -178 -179 -213 -214 -222 -223 0
-22 -43 -44 -63 -64 -82 -83 -100 -101 -134 -135 -164 -165 -190 -191 -201 -202 -211 -212 0
-23 -43 -45 -63 -64 -82 -83 -100 -101 -134 -135 -164 -165 -190 -191 -201 -202 -211 -212 0
-23 -44 -45 -63 -65 -82 -83 -100 -101 -134 -135 -164 -165 -190 -191 -201 -202 -211 -212 0
-23 -44 -45 -64 -65 -82 -84 -100 -101 -134 -135 -164 -165 -190 -191 -201 -202 -211 -212 0
-23 -44 -45 -64 -65 -83 -84 -100 -102 -134 -135 -164 -165 -190 -191 -201 -202 -211 -212 0
-23 -44 -45 -64 -65 -83 -84 -101 -102 -134 -136 -164 -165 -190 -191 -201 -202 -211 -212 0
-23 -44 -45 -64 -65 -83 -84 -101 -102 -135 -136 -164 -166 -190 -191 -201 -202 -211 -212 0
-23 -44 -45 -64 -65 -83 -84 -101 -102 -135 -136 -165 -166 -190 -192 -201 -202 -211 -212 0
-23 -44 -45 -64 -65 -83 -84 -101 -102 -135 -136 -165 -166 -191 -192 -201 -203 -211 -212 0
-23 -44 -45 -64 -65 -83 -84 -101 -102 -135 -136 -165 -166 -191 -192 -202 -203 -211 -213 0
-23 -44 -45 -64 -65 -83 -84 -101 -102 -135 -136 -165 -166 -191 -192 -202 -203 -212 -213 0
-23 -44 -45 -64 -65 -83 -84 -101 -102 -135 -136 -165 -166 -191 -192 -202 -203 -222 -223 0
-23 -44 -45 -64 -65 -83 -84 -101 -102 -135 -136 -165 -166 -191 -192 -213 -214 -222 -223 0
-23 -44 -45 -64 -65 -83 -84 -101 -102 -135 -136 -165 -166 -203 -204 -213 -214 -222 -223 0
-22 -43 -44 -63 -64 -82 -83 -100 -101 -134 -135 -178 -179 -190 -191 -201 -202 -211 -212 0
-23 -43 -45 -63 -64 -82 -83 -100 -101 -134 -135 -178 -179 -190 -191 -201 -202 -211 -212 0
-23 -44 -45 -63 -65 -82 -83 -100 -101 -134 -135 -178 -179 -190 -191 -201 -202 -211 -212 0
-23 -44 -45 -64 -65 -82 -84 -100 -101 -134 -135 -178 -179 -190 -191 -201 -202 -211 -212 0
-23 -44 -45 -64 -65 -83 -84 -100 -102 -134 -135 -178 -179 -190 -191 -201 -202 -211 -212 0
-23 -44 -45 -64 -65 -83 -84 -101 -102 -134 -136 -178 -179 -190 -191 -201 -202 -211 -212 0
-23 -44 -45 -64 -65 -83 -84 -101 -102 -135 -136 -178 -180 -190 -191 -201 -202 -211 -212 0
-23 -44 -45 -64 -65 -83 -84 -101 -102 -135 -136 -179 -180 -190 -192 -201 -202 -211 -212 0
-23 -44 -45 -64 -65 -83 -84 -101 -102 -135 -136 -179 -180 -191 -192 -201 -203 -211 -212 0
-23 -44 -45 -64 -65 -83 -84 -101 -102 -135 -136 -179 -180 -191 -192 -202 -203 -211 -213 0
-23 -44 -45 -64 -65 -83 -84 -101 -102 -135 -136 -179 -180 -191 -192 -202 -203 -212 -213 0
-23 -44 -45 -64 -65 -83 -84 -101 -102 -135 -136 -179 -180 -191 -192 -202 -203 -222 -223 0
-23 -44 -45 -64 -65 -83 -84 -101 -102 -135 -136 -179 -180 -191 -192 -213 -214 -222 -223 0
-23 -44 -45 -64 -65 -83 -84 -101 -102 -135 -136 -179 -180 -203 -204 -213 -214 -222 -223 0
-23 -44 -45 -64 -65 -83 -84 -101 -102 -135 -136 -192 -193 -203 -204 -213 -214 -222 -223 0
-21 -42 -43 -62 -63 -81 -82 -99 -100 -149 -150 -163 -164 -176 -177 -188 -189 -199 -200 0
-22 -42 -44 -62 -63 -81 -82 -99 -100 -149 -150 -163 -164 -176 -177 -188 -189 -199 -200 0
-23 -42 -45 -62 -63 -81 -82 -99 -100 -149 -150 -163 -164 -176 -177 -188 -189 -199 -200 0
-22 -43 -44 -62 -64 -81 -82 -99 -100 -149 -150 -163 -164 -176 -177 -188 -189 -199 -200 0
-23 -43 -45 -62 -64 -81 -82 -99 -100 -149 -150 -163 -164 -176 -177 -188 -189 -199 -200 0
-23 -44 -45 -62 -65 -81 -82 -99 -100 -149 -150 -163 -164 -176 -177 -188 -189 -199 -200 0
-22 -43 -44 -63 -64 -81 -83 -99 -100 -149 -150 -163 -164 -176 -177 -188 -189 -199 -200 0
-23 -43 -45 -63 -64 -81 -83 -99 -100 -149 -150 -163 -164 -176 -177 -188 -189 -199 -200 0
-23 -44 -45 -63 -65 -81 -83 -99 -100 -149 -150 -163 -164 -176 -177 -188 -189 -199 -200 0
-23 -44 -45 -64 -65 -81 -84 -99 -100 -149 -150 -163 -164 -176 -177 -188 -189 -199 -200 0
-22 -43 -44 -63 -64 -82 -83 -99 -101 -149 -150 -163 -164 -176 -177 -188 -189 -199 -200 0
-23 -43 -45 -63 -64 -82 -83 -99 -101 -149 -150 -163 -164 -176 -177 -188 -189 -199 -200 0
-23 -44 -45 -63 -65 -82 -83 -99 -101 -149 -150 -163 -164 -176 -177 -188 -189 -199 -200 0
-23 -44 -45 -64 -65 -82 -84 -99 -101 -149 -150 -163 -164 -176 -177 -188 -189 -199 -200 0
-23 -44 -45 -64 -65 -83 -84 -99 -102 -149 -150 -163 -164 -176 -177 -188 -189 -199 -200 0
-22 -43 -44 -63 -64 -82 -83 -100 -101 -149 -151 -163 -164 -176 -177 -188 -189 -199 -200 0
-23 -43 -45 -63 -64 -82 -83 -100 -101 -149 -151 -163 -164 -176 -177 -188 -189 -199 -200 0
-23 -44 -45 -63 -65 -82 -83 -100 -101 -149 -151 -163 -164 -176 -177 -188 -189 -199 -200 0
-23 -44 -45 -64 -65 -82 -84 -100 -101 -149 -151 -163 -164 -176 -177 -188 -189 -199 -200 0
-23 -44 -45 -64 -65 -83 -84 -100 -102 -149 -151 -163 -164 -176 -177 -188 -189 -199 -200 0
-23 -44 -45 -64 -65 -83 -84 -101 -102 -149 -152 -163 -164 -176 -177 -188 -189 -199 -200 0
-22 -43 -44 -63 -64 -82 -83 -100 -101 -150 -151 -163 -165 -176 -177 -188 -189 -199 -200 0
-23 -43 -45 -63 -64 -82 -83 -100 -101 -150 -151 -163 -165 -176 -177 -188 -189 -199 -200 0
-23 -44 -45 -63 -65 -82 -83 -100 -101 -150 -151 -163 -165 -176 -177 -188 -189 -199 -200 0
-23 -44 -45 -64 -65 -82 -84 -100 -101 -150 -151 -163 -165 -176 -177 -188 -189 -199 -200 0
-23 -44 -45 -64 -65 -83 -84 -100 -102 -150 -151 -163 -165 -176 -177 -188 -189 -199 -200 0
-23 -44 -45 -64 -65 -83 -84 -101 -102 -150 -152 -163 -165 -176 -177 -188 -189 -199 -200 0
-23 -44 -45 -64 -65 -83 -84 -101 -102 -151 -152 -163 -166 -176 -177 -188 -189 -199 -200 0
-22 -43 -44 -63 -64 -82 -83 -100 -101 -150 -151 -164 -165 -176 -178 -188 -189 -199 -200 0
-23 -43 -45 -63 -64 -82 -83 -100 -101 -150 -151 -164 -165 -176 -178 -188 -189 -199 -200 0
-23 -44 -45 -63 -65 -82 -83 -100 -101 -150 -151 -164 -165 -176 -178 -188 -189 -199 -200 0
-23 -44 -45 -64 -65 -82 -84 -100 -101 -150 -151 -164 -165 -176 -178 -188 -189 -199 -200 0
-23 -44 -45 -64 -65 -83 -84 -100 -102 -150 -151 -164 -165 -176 -178 -188 -189 -199 -200 0
-23 -44 -45 -64 -65 -83 -84 -101 -102 -150 -152 -164 -165 -176 -178 -188 -189 -199 -200 0
-23 -44 -45 -64 -65 -83 -84 -101 -102 -151 -152 -164 -166 -176 -178 -188 -189 -199 -200 0
-23 -44 -45 -64 -65 -83 -84 -101 -102 -151 -152 -165 -166 -176 -179 -188 -189 -199 -200 0
-22 -43 -44 -63 -64 -82 -83 -100 -101 -150 -151 -164 -165 -177 -178 -188 -190 -199 -200 0
-23 -43 -45 -63 -64 -82 -83 -100 -101 -150 -151 -164 -165 -177 -178 -188 -190 -199 -200 0
-23 -44 -45 -63 -65 -82 -83 -100 -101 -150 -151 -164 -165 -177 -178 -188 -190 -199 -200 0
-23 -44 -45 -64 -65 -82 -84 -100 -101 -150 -151 -164 -165 -177 -178 -188 -190 -199 -200 0
-23 -44 -45 -64 -65 -83 -84 -100 -102 -150 -151 -164 -165 -177 -178 -188 -190 -199 -200 0
-23 -44 -45 -64 -65 -83 -84 -101 -102 -150 -152 -164 -165 -177 -178 -188 -190 -199 -200 0
-23 -44 -45 -64 -65 -83 -84 -101 -102 -151 -152 -164 -166 -177 -178 -188 -190 -199 -200 0
-23 -44 -45 -64 -65 -83 -84 -101 -102 -151 -152 -165 -166 -177 -179 -188 -190 -199 -200 0
-23 -44 -45 -64 -65 -83 -84 -101 -102 -151 -152 -165 -166 -178 -179 -188 -191 -199 -200 0
-22 -43 -44 -63 -64 -82 -83 -100 -101 -150 -151 -164 -165 -177 -178 -189 -190 -199 -201 0
-23 -43 -45 -63 -64 -82 -83 -100 -101 -150 -151 -164 -165 -177 -178 -189 -190 -199 -201 0
-23 -44 -45 -63 -65 -82 -83 -100 -101 -150 -151 -164 -165 -177 -178 -189 -190 -199 -201 0
-23 -44 -45 -64 -65 -82 -84 -100 -101 -150 -151 -164 -165 -177 -178 -189 -190 -199 -201 0
-23 -44 -45 -64 -65 -83 -84 -100 -102 -150 -151 -164 -165 -177 -178 -189 -190 -199 -201 0
-23 -44 -45 -64 -65 -83 -84 -101 -102 -150 -152 -164 -165 -177 -178 -189 -190 -199 -201 0
-23 -44 -45 -64 -65 -83 -84 -101 -102 -151 -152 -164 -166 -177 -178 -189 -190 -199 -201 0
-23 -44 -45 -64 -65 -83 -84 -101 -102 -151 -152 -165 -166 -177 -179 -189 -190 -199 -201 0
-23 -44 -45 -64 -65 -83 -84 -101 -102 -151 -152 -165 -166 -178 -179 -189 -191 -199 -201 0
-23 -44 -45 -64 -65 -83 -84 -101 -102 -151 -152 -165 -166 -178 -179 -190 -191 -199 -202 0
-22 -43 -44 -63 -64 -82 -83 -100 -101 -150 -151 -164 -165 -177 -178 -189 -190 -200 -201 0
-23 -43 -45 -63 -64 -82 -83 -100 -101 -150 -151 -164 -165 -177 -178 -189 -190 -200 -201 0
-23 -44 -45 -63 -65 -82 -83 -100 -101 -150 -151 -164 -165 -177 -178 -189 -190 -200 -201 0
-23 -44 -45 -64 -65 -82 -84 -100 -101 -150 -151 -164 -165 -177 -178 -189 -190 -200 -201 0
-23 -44 -45 -64 -65 -83 -84 -100 -102 -150 -151 -164 -165 -177 -178 -189 -190 -200 -201 0
-23 -44 -45 -64 -65 -83 -84 -101 -102 -150 -152 -164 -165 -177 -178 -189 -190 -200 -201 0
-23 -44 -45 -64 -65 -83 -84 -101 -102 -151 -152 -164 -166 -177 -178 -189 -190 -200 -201 0
-23 -44 -45 -64 -65 -83 -84 -101 -102 -151 -152 -165 -166 -177 -179 -189 -190 -200 -201 0
-23 -44 -45 -64 -65 -83 -84 -101 -102 -151 -152 -165 -166 -178 -179 -189 -191 -200 -201 0
-23 -44 -45 -64 -65 -83 -84 -101 -102 -151 -152 -165 -166 -178 -179 -190 -191 -200 -202 0
-23 -44 -45 -64 -65 -83 -84 -101 -102 -151 -152 -165 -166 -178 -179 -190 -191 -201 -202 0
-22 -43 -44 -63 -64 -82 -83 -100 -101 -150 -151 -164 -165 -177 -178 -189 -190 -211 -212 0
-23 -43 -45 -63 -64 -82 -83 -100 -101 -150 -151 -164 -165 -177 -178 -189 -190 -211 -212 0
-23 -44 -45 -63 -65 -82 -83 -100 -101 -150 -151 -164 -165 -177 -178 -189 -190 -211 -212 0
-23 -44 -45 -64 -65 -82 -84 -100 -101 -150 -151 -164 -165 -177 -178 -189 -190 -211 -212 0
-23 -44 -45 -64 -65 -83 -84 -100 -102 -150 -151 -164 -165 -177 -178 -189 -190 -211 -212 0
-23 -44 -45 -64 -65 -83 -84 -101 -102 -150 -152 -164 -165 -177 -178 -189 -190 -211 -212 0
-23 -44 -45 -64 -65 -83 -84 -101 -102 -151 -152 -164 -166 -177 -178 -189 -190 -211 -212 0
-23 -44 -45 -64 -65 -83 -84 -101 -102 -151 -152 -165 -166 -177 -179 -189 -190 -211 -212 0
-23 -44 -45 -64 -65 -83 -84 -101 -102 -151 -152 -165 -166 -178 -179 -189 -191 -211 -212 0
-23 -44 -45 -64 -65 -83 -84 -101 -102 -151 -152 -165 -166 -178 -179 -190 -191 -211 -213 0
-23 -44 -45 -64 -65 -83 -84 -101 -102 -151 -152 -165 -166 -178 -179 -190 -191 -212 -213 0
-23 -44 -45 -64 -65 -83 -84 -101 -102 -151 -152 -165 -166 -178 -179 -190 -191 -222 -223 0
-22 -43 -44 -63 -64 -82 -83 -100 -101 -150 -151 -164 -165 -177 -178 -201 -202 -211 -212 0
-23 -43 -45 -63 -64 -82 -83 -100 -101 -150 -151 -164 -165 -177 -178 -201 -202 -211 -212 0
-23 -44 -45 -63 -65 -82 -83 -100 -101 -150 -151 -164 -165 -177 -178 -201 -202 -211 -212 0
-23 -44 -45 -64 -65 -82 -84 -100 -101 -150 -151 -164 -165 -177 -178 -201 -202 -211 -212 0
-23 -44 -45 -64 -65 -83 -84 -100 -102 -150 -151 -164 -165 -177 -178 -201 -202 -211 -212 0
-23 -44 -45 -64 -65 -83 -84 -101 -102 -150 -152 -164 -165 -177 -178 -201 -202 -211 -212 0
-23 -44 -45 -64 -65 -83 -84 -101 -102 -151 -152 -164 -166 -177 -178 -201 -202 -211 -212 0
-23 -44 -45 -64 -65 -83 -84 -101 -102 -151 -152 -165 -166 -177 -179 -201 -202 -211 -212 0
-23 -44 -45 -64 -65 -83 -84 -101 -102 -151 -152 -165 -166 -178 -179 -201 -203 -211 -212 0
-23 -44 -45 -64 -65 -83 -84 -101 -102 -151 -152 -165 -166 -178 -179 -202 -203 -211 -213 0
-23 -44 -45 -64 -65 -83 -84 -101 -102 -151 -152 -165 -166 -178 -179 -202 -203 -212 -213 0
-23 -44 -45 -64 -65 -83 -84 -101 -102 -151 -152 -165 -166 -178 -179 -202 -203 -222 -223 0
-23 -44 -45 -64 -65 -83 -84 -101 -102 -151 -152 -165 -166 -178 -179 -213 -214 -222 -223 0
-22 -43 -44 -63 -64 -82 -83 -100 -101 -150 -151 -164 -165 -190 -191 -201 -202 -211 -212 0
-23 -43 -45 -63 -64 -82 -83 -100 -101 -150 -151 -164 -165 -190 -191 -201 -202 -211 -212 0
-23 -44 -45 -63 -65 -82 -83 -100 -101 -150 -151 -164 -165 -190 -191 -201 -202 -211 -212 0
-23 -44 -45 -64 -65 -82 -84 -100 -101 -150 -151 -164 -165 -190 -191 -201 -202 -211 -212 0
-23 -44 -45 -64 -65 -83 -84 -100 -102 -150 -151 -164 -165 -190 -191 -201 -202 -211 -212 0
-23 -44 -45 -64 -65 -83 -84 -101 -102 -150 -152 -164 -165 -190 -191 -201 -202 -211 -212 0
-23 -44 -45 -64 -65 -83 -84 -101 -102 -151 -152 -164 -166 -190 -191 -201 -202 -211 -212 0
-23 -44 -45 -64 -65 -83 -84 -101 -102 -151 -152 -165 -166 -190 -192 -201 -202 -211 -212 0
-23 -44 -45 -64 -65 -83 -84 -101 -102 -151 -152 -165 -166 -191 -192 -201 -203 -211 -212 0
-23 -44 -45 -64 -65 -83 -84 -101 -102 -151 -152 -165 -166 -191 -192 -202 -203 -211 -213 0
-23 -44 -45 -64 -65 -83 -84 -101 -102 -151 -152 -165 -166 -191 -192 -202 -203 -212 -213 0
-23 -44 -45 -64 -65 -83 -84 -101 -102 -151 -152 -165 -166 -191 -192 -202 -203 -222 -223 0
-23 -44 -45 -64 -65 -83 -84 -101 -102 -151 -152 -165 -166 -191 -192 -213 -214 -222 -223 0
-23 -44 -45 -64 -65 -83 -84 -101 -102 -151 -152 -165 -166 -203 -204 -213 -214 -222 -223 0
-22 -43 -44 -63 -64 -82 -83 -100 -101 -150 -151 -178 -179 -190 -191 -201 -202 -211 -212 0
-23 -43 -45 -63 -64 -82 -83 -100 -101 -150 -151 -178 -179 -190 -191 -201 -202 -211 -212 0
-23 -44 -45 -63 -65 -82 -83 -100 -101 -150 -151 -178 -179 -190 -191 -201 -202 -211 -212 0
-23 -44 -45 -64 -65 -82 -84 -100 -101 -150 -151 -178 -179 -190 -191 -201 -202 -211 -212 0
-23 -44 -45 -64 -65 -83 -84 -100 -102 -150 -151 -178 -179 -190 -191 -201 -202 -211 -212 0
-23 -44 -45 -64 -65 -83 -84 -101 -102 -150 -152 -178 -179 -190 -191 -201 -202 -211 -212 0
-23 -44 -45 -64 -65 -83 -84 -101 -102 -151 -152 -178 -180 -190 -191 -201 -202 -211 -212 0
-23 -44 -45 -64 -65 -83 -84 -101 -102 -151 -152 -179 -180 -190 -192 -201 -202 -211 -212 0
-23 -44 -45 -64 -65 -83 -84 -101 -102 -151 -152 -179 -180 -191 -192 -201 -203 -211 -212 0
-23 -44 -45 -64 -65 -83 -84 -101 -102 -151 -152 -179 -180 -191 -192 -202 -203 -211 -213 0
-23 -44 -45 -64 -65 -83 -84 -101 -102 -151 -152 -179 -180 -191 -192 -202 -203 -212 -213 0
-23 -44 -45 -64 -65 -83 -84 -101 -102 -151 -152 -179 -180 -191 -192 -202 -203 -222 -223 0
-23 -44 -45 -64 -65 -83 -84 -101 -102 -151 -152 -179 -180 -191 -192 -213 -214 -222 -223 0
-23 -44 -45 -64 -65 -83 -84 -101 -102 -151 -152 -179 -180 -203 -204 -213 -214 -222 -223 0
-23 -44 -45 -64 -65 -83 -84 -101 -102 -151 -152 -192 -193 -203 -204 -213 -214 -222 -223 0
-22 -43 -44 -63 -64 -82 -83 -100 -101 -165 -166 -178 -179 -190 -191 -201 -202 -211 -212 0
-23 -43 -45 -63 -64 -82 -83 -100 -101 -165 -166 -178 -179 -190 -191 -201 -202 -211 -212 0
-23 -44 -45 -63 -65 -82 -83 -100 -101 -165 -166 -178 -179 -190 -191 -201 -202 -211 -212 0
-23 -44 -45 -64 -65 -82 -84 -100 -101 -165 -166 -178 -179 -190 -191 -201 -202 -211 -212 0
-23 -44 -45 -64 -65 -83 -84 -100 -102 -165 -166 -178 -179 -190 -191 -201 -202 -211 -212 0
-23 -44 -45 -64 -65 -83 -84 -101 -102 -165 -167 -178 -179 -190 -191 -201 -202 -211 -212 0
-23 -44 -45 -64 -65 -83 -84 -101 -102 -166 -167 -178 -180 -190 -191 -201 -202 -211 -212 0
-23 -44 -45 -64 -65 -83 -84 -101 -102 -166 -167 -179 -180 -190 -192 -201 -202 -211 -212 0
-23 -44 -45 -64 -65 -83 -84 -101 -102 -166 -167 -179 -180 -191 -192 -201 -203 -211 -212 0
-23 -44 -45 -64 -65 -83 -84 -101 -102 -166 -167 -179 -180 -191 -192 -202 -203 -211 -213 0
-23 -44 -45 -64 -65 -83 -84 -101 -102 -166 -167 -179 -180 -191 -192 -202 -203 -212 -213 0
-23 -44 -45 -64 -65 -83 -84 -101 -102 -166 -167 -179 -180 -191 -192 -202 -203 -222 -223 0
-23 -44 -45 -64 -65 -83 -84 -101 -102 -166 -167 -179 -180 -191 -192 -213 -214 -222 -223 0
-23 -44 -45 -64 -65 -83 -84 -101 -102 -166 -167 -179 -180 -203 -204 -213 -214 -222 -223 0
-23 -44 -45 -64 -65 -83 -84 -101 -102 -166 -167 -192 -193 -203 -204 -213 -214 -222 -223 0
-23 -44 -45 -64 -65 -83 -84 -101 -102 -180 -181 -192 -193 -203 -204 -213 -214 -222 -223 0
-20 -41 -42 -61 -62 -80 -81 -116 -117 -132 -133 -147 -148 -161 -162 -174 -175 -186 -187 0
-21 -41 -43 -61 -62 -80 -81 -116 -117 -132 -133 -147 -148 -161 -162 -174 -175 -186 -187 0
-22 -41 -44 -61 -62 -80 -81 -116 -117 -132 -133 -147 -148 -161 -162 -174 -175 -186 -187 0
-23 -41 -45 -61 -62 -80 -81 -116 -117 -132 -133 -147 -148 -161 -162 -174 -175 -186 -187 0
-21 -42 -43 -61 -63 -80 -81 -116 -117 -132 -133 -147 -148 -161 -162 -174 -175 -186 -187 0
-22 -42 -44 -61 -63 -80 -81 -116 -117 -132 -133 -147 -148 -161 -162 -174 -175 -186 -187 0
-23 -42 -45 -61 -63 -80 -81 -116 -117 -132 -133 -147 -148 -161 -162 -174 -175 -186 -187 0
-22 -43 -44 -61 -64 -80 -81 -116 -117 -132 -133 -147 -148 -161 -162 -174 -175 -186 -187 0
-23 -43 -45 -61 -64 -80 -81 -116 -117 -132 -133 -147 -148 -161 -162 -174 -175 -186 -187 0
-23 -44 -45 -61 -65 -80 -81 -116 -117 -132 -133 -147 -148 -161 -162 -174 -175 -186 -187 0
-21 -42 -43 -62 -63 -80 -82 -116 -117 -132 -133 -147 -148 -161 -162 -174 -175 -186 -187 0
-22 -42 -44 -62 -63 -80 -82 -116 -117 -132 -133 -147 -148 -161 -162 -174 -175 -186 -187 0
-23 -42 -45 -62 -63 -80 -82 -116 -117 -132 -133 -147 -148 -161 -162 -174 -175 -186 -187 0
-22 -43 -44 -62 -64 -80 -82 -116 -117 -132 -133 -147 -148 -161 -162 -174 -175 -186 -187 0
-23 -43 -45 -62 -64 -80 -82 -116 -117 -132 -133 -147 -148 -161 -162 -174 -175 -186 -187 0
-23 -44 -45 -62 -65 -80 -82 -116 -117 -132 -133 -147 -148 -161 -162 -174 -175 -186 -187 0
-22 -43 -44 -63 -64 -80 -83 -116 -117 -132 -133 -147 -148 -161 -162 -174 -175 -186 -187 0
-23 -43 -45 -63 -64 -80 -83 -116 -117 -132 -133 -147 -148 -161 -162 -174 -175 -186 -187 0
-23 -44 -45 -63 -65 -80 -83 -116 -117 -132 -133 -147 -148 -161 -162 -174 -175 -186 -187 0
-23 -44 -45 -64 -65 -80 -84 -116 -117 -132 -133 -147 -148 -161 -162 -174 -175 -186 -187 0
-21 -42 -43 -62 -63 -81 -82 -116 -118 -132 -133 -147 -148 -161 -162 -174 -175 -186 -187 0
-22 -42 -44 -62 -63 -81 -82 -116 -118 -132 -133 -147 -148 -161 -162 -174 -175 -186 -187 0
-23 -42 -45 -62 -63 -81 -82 -116 -118 -132 -133 -147 -148 -161 -162 -174 -175 -186 -187 0
-22 -43 -44 -62 -64 -81 -82 -116 -118 -132 -133 -147 -148 -161 -162 -174 -175 -186 -187 0
-23 -43 -45 -62 -64 -81 -82 -116 -118 -132 -133 -147 -148 -161 -162 -174 -175 -186 -187 0
-23 -44 -45 -62 -65 -81 -82 -116 -118 -132 -133 -147 -148 -161 -162 -174 -175 -186 -187 0
-22 -43 -44 -63 -64 -81 -83 -116 -118 -132 -133 -147 -148 -161 -162 -174 -175 -186 -187 0
-23 -43 -45 -63 -64 -81 -83 -116 -118 -132 -133 -147 -148 -161 -162 -174 -175 -186 -187 0
-23 -44 -45 -63 -65 -81 -83 -116 -118 -132 -133 -147 -148 -161 -162 -174 -175 -186 -187 0
-23 -44 -45 -64 -65 -81 -84 -116 -118 -132 -133 -147 -148 -161 -162 -174 -175 -186 -187 0
-22 -43 -44 -63 -64 -82 -83 -116 -119 -132 -133 -147 -148 -161 -162 -174 -175 -186 -187 0
-23 -43 -45 -63 -64 -82 -83 -116 -119 -132 -133 -147 -148 -161 -162 -174 -175 -186 -187 0
-23 -44 -45 -63 -65 -82 -83 -116 -119 -132 -133 -147 -148 -161 -162 -174 -175 -186 -187 0
-23 -44 -45 -64 -65 -82 -84 -116 -119 -132 -133 -147 -148 -161 -162 -174 -175 -186 -187 0
-23 -44 -45 -64 -65 -83 -84 -116 -120 -132 -133 -147 -148 -161 -162 -174 -175 -186 -187 0
-21 -42 -43 -62 -63 -81 -82 -117 -118 -132 -134 -147 -148 -161 -162 -174 -175 -186 -187 0
-22 -42 -44 -62 -63 -81 -82 -117 -118 -132 -134 -147 -148 -161 -162 -174 -175 -186 -187 0
-23 -42 -45 -62 -63 -81 -82 -117 -118 -132 -134 -147 -148 -161 -162 -174 -175 -186 -187 0
-22 -43 -44 -62 -64 -81 -82 -117 -118 -132 -134 -147 -148 -161 -162 -174 -175 -186 -187 0
-23 -43 -45 -62 -64 -81 -82 -117 -118 -132 -134 -147 -148 -161 -162 -174 -175 -186 -187 0
-23 -44 -45 -62 -65 -81 -82 -117 -118 -132 -134 -147 -148 -161 -162 -174 -175 -186 -187 0
-22 -43 -44 -63 -64 -81 -83 -117 -118 -132 -134 -147 -148 -161 -162 -174 -175 -186 -187 0
-23 -43 -45 -63 -64 -81 -83 -117 -118 -132 -134 -147 -148 -161 -162 -174 -175 -186 -187 0
-23 -44 -45 -63 -65 -81 -83 -117 -118 -132 -134 -147 -148 -161 -162 -174 -175 -186 -187 0
-23 -44 -45 -64 -65 -81 -84 -117 -118 -132 -134 -147 -148 -161 -162 -174 -175 -186 -187 0
-22 -43 -44 -63 -64 -82 -83 -117 -119 -132 -134 -147 -148 -161 -162 -174 -175 -186 -187 0
-23 -43 -45 -63 -64 -82 -83 -117 -119 -132 -134 -147 -148 -161 -162 -174 -175 -186 -187 0
-23 -44 -45 -63 -65 -82 -83 -117 -119 -132 -134 -147 -148 -161 -162 -174 -175 -186 -187 0
-23 -44 -45 -64 -65 -82 -84 -117 -119 -132 -134 -147 -148 -161 -162 -174 -175 -186 -187 0
-23 -44 -45 -64 -65 -83 -84 -117 -120 -132 -134 -147 -148 -161 -162 -174 -175 -186 -187 0
-22 -43 -44 -63 -64 -82 -83 -118 -119 -132 -135 -147 -148 -161 -162 -174 -175 -186 -187 0
-23 -43 -45 -63 -64 -82 -83 -118 -119 -132 -135 -147 -148 -161 -162 -174 -175 -186 -187 0
-23 -44 -45 -63 -65 -82 -83 -118 -119 -132 -135 -147 -148 -161 -162 -174 -175 -186 -187 0
-23 -44 -45 -64 -65 -82 -84 -118 -119 -132 -135 -147 -148 -161 -162 -174 -175 -186 -187 0
-23 -44 -45 -64 -65 -83 -84 -118 -120 -132 -135 -147 -148 -161 -162 -174 -175 -186 -187 0
-23 -44 -45 -64 -65 -83 -84 -119 -120 -132 -136 -147 -148 -161 -162 -174 -175 -186 -187 0
-21 -42 -43 -62 -63 -81 -82 -117 -118 -133 -134 -147 -149 -161 -162 -174 -175 -186 -187 0
-22 -42 -44 -62 -63 -81 -82 -117 -118 -133 -134 -147 -149 -161 -162 -174 -175 -186 -187 0
-23 -42 -45 -62 -63 -81 -82 -117 -118 -133 -134 -147 -149 -161 -162 -174 -175 -186 -187 0
-22 -43 -44 -62 -64 -81 -82 -117 -118 -133 -134 -147 -149 -161 -162 -174 -175 -186 -187 0
-23 -43 -45 -62 -64 -81 -82 -117 -118 -133 -134 -147 -149 -161 -162 -174 -175 -186 -187 0
-23 -44 -45 -62 -65 -81 -82 -117 -118 -133 -134 -147 -149 -161 -162 -174 -175 -186 -187 0
-22 -43 -44 -63 -64 -81 -83 -117 -118 -133 -134 -147 -149 -161 -162 -174 -175 -186 -187 0
-23 -43 -45 -63 -64 -81 -83 -117 -118 -133 -134 -147 -149 -161 -162 -174 -175 -186 -187 0
-23 -44 -45 -63 -65 -81 -83 -117 -118 -133 -134 -147 -149 -161 -162 -174 -175 -186 -187 0
-23 -44 -45 -64 -65 -81 -84 -117 -118 -133 -134 -147 -149 -161 -162 -174 -175 -186 -187 0
-22 -43 -44 -63 -64 -82 -83 -117 -119 -133 -134 -147 -149 -161 -162 -174 -175 -186 -187 0
-23 -43 -45 -63 -64 -82 -83 -117 -119 -133 -134 -147 -149 -161 -162 -174 -175 -186 -187 0
-23 -44 -45 -63 -65 -82 -83 -117 -119 -133 -134 -147 -149 -161 -162 -174 -175 -186 -187 0
-23 -44 -45 -64 -65 -82 -84 -117 -119 -133 -134 -147 -149 -161 -162 -174 -175 -186 -187 0
-23 -44 -45 -64 -65 -83 -84 -117 -120 -133 -134 -147 -149 -161 -162 -174 -175 -186 -187 0
-22 -43 -44 -63 -64 -82 -83 -118 -119 -133 -135 -147 -149 -161 -162 -174 -175 -186 -187 0
-23 -43 -45 -63 -64 -82 -83 -118 -119 -133 -135 -147 -149 -161 -162 -174 -175 -186 -187 0
-23 -44 -45 -63 -65 -82 -83 -118 -119 -133 -135 -147 -149 -161 -162 -174 -175 -186 -187 0
-23 -44 -45 -64 -65 -82 -84 -118 -119 -133 -135 -147 -149 -161 -162 -174 -175 -186 -187 0
-23 -44 -45 -64 -65 -83 -84 -118 -120 -133 -135 -147 -149 -161 -162 -174 -175 -186 -187 0
-23 -44 -45 -64 -65 -83 -84 -119 -120 -133 -136 -147 -149 -161 -162 -174 -175 -186 -187 0
-22 -43 -44 -63 -64 -82 -83 -118 -119 -134 -135 -147 -150 -161 -162 -174 -175 -186 -187 0
-23 -43 -45 -63 -64 -82 -83 -118 -119 -134 -135 -147 -150 -161 -162 -174 -175 -186 -187 0
-23 -44 -45 -63 -65 -82 -83 -118 -119 -134 -135 -147 -150 -161 -162 -174 -175 -186 -187 0
-23 -44 -45 -64 -65 -82 -84 -118 -119 -134 -135 -147 -150 -161 -162 -174 -175 -186 -187 0
-23 -44 -45 -64 -65 -83 -84 -118 -120 -134 -135 -147 -150 -161 -162 -174 -175 -186 -187 0
-23 -44 -45 -64 -65 -83 -84 -119 -120 -134 -136 -147 -150 -161 -162 -174 -175 -186 -187 0
-23 -44 -45 -64 -65 -83 -84 -119 -120 -135 -136 -147 -151 -161 -162 -174 -175 -186 -187 0
-21 -42 -43 -62 -63 -81 -82 -117 -118 -133 -134 -148 -149 -161 -163 -174 -175 -186 -187 0
-22 -42 -44 -62 -63 -81 -82 -117 -118 -133 -134 -148 -149 -161 -163 -174 -175 -186 -187 0
-23 -42 -45 -62 -63 -81 -82 -117 -118 -133 -134 -148 -149 -161 -163 -174 -175 -186 -187 0
-22 -43 -44 -62 -64 -81 -82 -117 -118 -133 -134 -148 -149 -161 -163 -174 -175 -186 -187 0
-23 -43 -45 -62 -64 -81 -82 -117 -118 -133 -134 -148 -149 -161 -163 -174 -175 -186 -187 0
-23 -44 -45 -62 -65 -81 -82 -117 -118 -133 -134 -148 -149 -161 -163 -174 -175 -186 -187 0
-22 -43 -44 -63 -64 -81 -83 -117 -118 -133 -134 -148 -149 -161 -163 -174 -175 -186 -187 0
-23 -43 -45 -63 -64 -81 -83 -117 -118 -133 -134 -148 -149 -161 -163 -174 -175 -186 -187 0
-23 -44 -45 -63 -65 -81 -83 -117 -118 -133 -134 -148 -149 -161 -163 -174 -175 -186 -187 0
-23 -44 -45 -64 -65 -81 -84 -117 -118 -133 -134 -148 -149 -161 -163 -174 -175 -186 -187 0
-22 -43 -44 -63 -64 -82 -83 -117 -119 -133 -134 -148 -149 -161 -163 -174 -175 -186 -187 0
-23 -43 -45 -63 -64 -82 -83 -117 -119 -133 -134 -148 -149 -161 -163 -174 -175 -186 -187 0
-23 -44 -45 -63 -65 -82 -83 -117 -119 -133 -134 -148 -149 -161 -163 -174 -175 -186 -187 0
-23 -44 -45 -64 -65 -82 -84 -117 -119 -133 -134 -148 -149 -161 -163 -174 -175 -186 -187 0
-23 -44 -45 -64 -65 -83 -84 -117 -120 -133 -134 -148 -149 -161 -163 -174 -175 -186 -187 0
-22 -43 -44 -63 -64 -82 -83 -118 -119 -133 -135 -148 -149 -161 -163 -174 -175 -186 -187 0
-23 -43 -45 -63 -64 -82 -83 -118 -119 -133 -135 -148 -149 -161 -163 -174 -175 -186 -187 0
-23 -44 -45 -63 -65 -82 -83 -118 -119 -133 -135 -148 -149 -161 -163 -174 -175 -186 -187 0
-23 -44 -45 -64 -65 -82 -84 -118 -119 -133 -135 -148 -149 -161 -163 -174 -175 -186 -187 0
-23 -44 -45 -64 -65 -83 -84 -118 -120 -133 -135 -148 -149 -161 -163 -174 -175 -186 -187 0
-23 -44 -45 -64 -65 -83 -84 -119 -120 -133 -136 -148 -149 -161 -163 -174 -175 -186 -187 0
-22 -43 -44 -63 -64 -82 -83 -118 -119 -134 -135 -148 -150 -161 -163 -174 -175 -186 -187 0
-23 -43 -45 -63 -64 -82 -83 -118 -119 -134 -135 -148 -150 -161 -163 -174 -175 -186 -187 0
-23 -44 -45 -63 -65 -82 -83 -118 -119 -134 -135 -148 -150 -161 -163 -174 -175 -186 -187 0
-23 -44 -45 -64 -65 -82 -84 -118 -119 -134 -135 -148 -150 -161 -163 -174 -175 -186 -187 0
-23 -44 -45 -64 -65 -83 -84 -118 -120 -134 -135 -148 -150 -161 -163 -174 -175 -186 -187 0
-23 -44 -45 -64 -65 -83 -84 -119 -120 -134 -136 -148 -150 -161 -163 -174 -175 -186 -187 0
-23 -44 -45 -64 -65 -83 -84 -119 -120 -135 -136 -148 -151 -161 -163 -174 -175 -186 -187 0
-22 -43 -44 -63 -64 -82 -83 -118 -119 -134 -135 -149 -150 -161 -164 -174 -175 -186 -187 0
-23 -43 -45 -63 -64 -82 -83 -118 -119 -134 -135 -149 -150 -161 -164 -174 -175 -186 -187 0
-23 -44 -45 -63 -65 -82 -83 -118 -119 -134 -135 -149 -150 -161 -164 -174 -175 -186 -187 0
-23 -44 -45 -64 -65 -82 -84 -118 -119 -134 -135 -149 -150 -161 -164 -174 -175 -186 -187 0
-23 -44 -45 -64 -65 -83 -84 -118 -120 -134 -135 -149 -150 -161 -164 -174 -175 -186 -187 0
-23 -44 -45 -64 -65 -83 -84 -119 -120 -134 -136 -149 -150 -161 -164 -174 -175 -186 -187 0
-23 -44 -45 -64 -65 -83 -84 -119 -120 -135 -136 -149 -151 -161 -164 -174 -175 -186 -187 0
-23 -44 -45 -64 -65 -83 -84 -119 -120 -135 -136 -150 -151 -161 -165 -174 -175 -186 -187 0
-21 -42 -43 -62 -63 -81 -82 -117 -118 -133 -134 -148 -149 -162 -163 -174 -176 -186 -187 0
-22 -42 -44 -62 -63 -81 -82 -117 -118 -133 -134 -148 -149 -162 -163 -174 -176 -186 -187 0
-23 -42 -45 -62 -63 -81 -82 -117 -118 -133 -134 -148 -149 -162 -163 -174 -176 -186 -187 0
-22 -43 -44 -62 -64 -81 -82 -117 -118 -133 -134 -148 -149 -162 -163 -174 -176 -186 -187 0
-23 -43 -45 -62 -64 -81 -82 -117 -118 -133 -134 -148 -149 -162 -163 -174 -176 -186 -187 0
-23 -44 -45 -62 -65 -81 -82 -117 -118 -133 -134 -148 -149 -162 -163 -174 -176 -186 -187 0
-22 -43 -44 -63 -64 -81 -83 -117 -118 -133 -134 -148 -149 -162 -163 -174 -176 -186 -187 0
-23 -43 -45 -63 -64 -81 -83 -117 -118 -133 -134 -148 -149 -162 -163 -174 -176 -186 -187 0
-23 -44 -45 -63 -65 -81 -83 -117 -118 -133 -134 -148 -149 -162 -163 -174 -176 -186 -187 0
-23 -44 -45 -64 -65 -81 -84 -117 -118 -133 -134 -148 -149 -162 -163 -174 -176 -186 -187 0
-22 -43 -44 -63 -64 -82 -83 -117 -119 -133 -134 -148 -149 -162 -163 -174 -176 -186 -187 0
-23 -43 -45 -63 -64 -82 -83 -117 -119 -133 -134 -148 -149 -162 -163 -174 -176 -186 -187 0
-23 -44 -45 -63 -65 -82 -83 -117 -119 -133 -134 -148 -149 -162 -163 -174 -176 -186 -187 0
-23 -44 -45 -64 -65 -82 -84 -117 -119 -133 -134 -148 -149 -162 -163 -174 -176 -186 -187 0
-23 -44 -45 -64 -65 -83 -84 -117 -120 -133 -134 -148 -149 -162 -163 -174 -176 -186 -187 0
-22 -43 -44 -63 -64 -82 -83 -118 -119 -133 -135 -148 -149 -162 -163 -174 -176 -186 -187 0
-23 -43 -45 -63 -64 -82 -83 -118 -119 -133 -135 -148 -149 -162 -163 -174 -176 -186 -187 0
-23 -44 -45 -63 -65 -82 -83 -118 -119 -133 -135 -148 -149 -162 -163 -174 -176 -186 -187 0
-23 -44 -45 -64 -65 -82 -84 -118 -119 -133 -135 -148 -149 -162 -163 -174 -176 -186 -187 0
-23 -44 -45 -64 -65 -83 -84 -118 -120 -133 -135 -148 -149 -162 -163 -174 -176 -186 -187 0
-23 -44 -45 -64 -65 -83 -84 -119 -120 -133 -136 -148 -149 -162 -163 -174 -176 -186 -187 0
-22 -43 -44 -63 -64 -82 -83 -118 -119 -134 -135 -148 -150 -162 -163 -174 -176 -186 -187 0
-23 -43 -45 -63 -64 -82 -83 -118 -119 -134 -135 -148 -150 -162 -163 -174 -176 -186 -187 0
-23 -44 -45 -63 -65 -82 -83 -118 -119 -134 -135 -148 -150 -162 -163 -174 -176 -186 -187 0
-23 -44 -45 -64 -65 -82 -84 -118 -119 -134 -135 -148 -150 -162 -163 -174 -176 -186 -187 0
-23 -44 -45 -64 -65 -83 -84 -118 -120 -134 -135 -148 -150 -162 -163 -174 -176 -186 -187 0
-23 -44 -45 -64 -65 -83 -84 -119 -120 -134 -136 -148 -150 -162 -163 -174 -176 -186 -187 0
-23 -44 -45 -64 -65 -83 -84 -119 -120 -135 -136 -148 -151 -162 -163 -174 -176 -186 -187 0
-22 -43 -44 -63 -64 -82 -83 -118 -119 -134 -135 -149 -150 -162 -164 -174 -176 -186 -187 0
-23 -43 -45 -63 -64 -82 -83 -118 -119 -134 -135 -149 -150 -162 -164 -174 -176 -186 -187 0
-23 -44 -45 -63 -65 -82 -83 -118 -119 -134 -135 -149 -150 -162 -164 -174 -176 -186 -187 0
-23 -44 -45 -64 -65 -82 -84 -118 -119 -134 -135 -149 -150 -162 -164 -174 -176 -186 -187 0
-23 -44 -45 -64 -65 -83 -84 -118 -120 -134 -135 -149 -150 -162 -164 -174 -176 -186 -187 0
-23 -44 -45 -64 -65 -83 -84 -119 -120 -134 -136 -149 -150 -162 -164 -174 -176 -186 -187 0
-23 -44 -45 -64 -65 -83 -84 -119 -120 -135 -136 -149 -151 -162 -164 -174 -176 -186 -187 0
-23 -44 -45 -64 -65 -83 -84 -119 -120 -135 -136 -150 -151 -162 -165 -174 -176 -186 -187 0
-22 -43 -44 -63 -64 -82 -83 -118 -119 -134 -135 -149 -150 -163 -164 -174 -177 -186 -187 0
-23 -43 -45 -63 -64 -82 -83 -118 -119 -134 -135 -149 -150 -163 -164 -174 -177 -186 -187 0
-23 -44 -45 -63 -65 -82 -83 -118 -119 -134 -135 -149 -150 -163 -164 -174 -177 -186 -187 0
-23 -44 -45 -64 -65 -82 -84 -118 -119 -134 -135 -149 -150 -163 -164 -174 -177 -186 -187 0
-23 -44 -45 -64 -65 -83 -84 -118 -120 -134 -135 -149 -150 -163 -164 -174 -177 -186 -187 0
-23 -44 -45 -64 -65 -83 -84 -119 -120 -134 -136 -149 -150 -163 -164 -174 -177 -186 -187 0
-23 -44 -45 -64 -65 -83 -84 -119 -120 -135 -136 -149 -151 -163 -164 -174 -177 -186 -187 0
-23 -44 -45 -64 -65 -83 -84 -119 -120 -135 -136 -150 -151 -163 -165 -174 -177 -186 -187 0
-23 -44 -45 -64 -65 -83 -84 -119 -120 -135 -136 -150 -151 -164 -165 -174 -178 -186 -187 0
-21 -42 -43 -62 -63 -81 -82 -117 -118 -133 -134 -148 -149 -162 -163 -175 -176 -186 -188 0
-22 -42 -44 -62 -63 -81 -82 -117 -118 -133 -134 -148 -149 -162 -163 -175 -176 -186 -188 0
-23 -42 -45 -62 -63 -81 -82 -117 -118 -133 -134 -148 -149 -162 -163 -175 -176 -186 -188 0
-22 -43 -44 -62 -64 -81 -82 -117 -118 -133 -134 -148 -149 -162 -163 -175 -176 -186 -188 0
-23 -43 -45 -62 -64 -81 -82 -117 -118 -133 -134 -148 -149 -162 -163 -175 -176 -186 -188 0
-23 -44 -45 -62 -65 -81 -82 -117 -118 -133 -134 -148 -149 -162 -163 -175 -176 -186 -188 0
-22 -43 -44 -63 -64 -81 -83 -117 -118 -133 -134 -148 -149 -162 -163 -175 -176 -186 -188 0
-23 -43 -45 -63 -64 -81 -83 -117 -118 -133 -134 -148 -149 -162 -163 -175 -176 -186 -188 0
-23 -44 -45 -63 -65 -81 -83 -117 -118 -133 -134 -148 -149 -162 -163 -175 -176 -186 -188 0
-23 -44 -45 -64 -65 -81 -84 -117 -118 -133 -134 -148 -149 -162 -163 -175 -176 -186 -188 0
-22 -43 -44 -63 -64 -82 -83 -117 -119 -133 -134 -148 -149 -162 -163 -175 -176 -186 -188 0
-23 -43 -45 -63 -64 -82 -83 -117 -119 -133 -134 -148 -149 -162 -163 -175 -176 -186 -188 0
-23 -44 -45 -63 -65 -82 -83 -117 -119 -133 -134 -148 -149 -162 -163 -175 -176 -186 -188 0
-23 -44 -45 -64 -65 -82 -84 -117 -119 -133 -134 -148 -149 -162 -163 -175 -176 -186 -188 0
-23 -44 -45 -64 -65 -83 -84 -117 -120 -133 -134 -148 -149 -162 -163 -175 -176 -186 -188 0
-22 -43 -44 -63 -64 -82 -83 -118 -119 -133 -135 -148 -149 -162 -163 -175 -176 -186 -188 0
-23 -43 -45 -63 -64 -82 -83 -118 -119 -133 -135 -148 -149 -162 -163 -175 -176 -186 -188 0
-23 -44 -45 -63 -65 -82 -83 -118 -119 -133 -135 -148 -149 -162 -163 -175 -176 -186 -188 0
-23 -44 -45 -64 -65 -82 -84 -118 -119 -133 -135 -148 -149 -162 -163 -175 -176 -186 -188 0
-23 -44 -45 -64 -65 -83 -84 -118 -120 -133 -135 -148 -149 -162 -163 -175 -176 -186 -188 0
-23 -44 -45 -64 -65 -83 -84 -119 -120 -133 -136 -148 -149 -162 -163 -175 -176 -186 -188 0
-22 -43 -44 -63 -64 -82 -83 -118 -119 -134 -135 -148 -150 -162 -163 -175 -176 -186 -188 0
-23 -43 -45 -63 -64 -82 -83 -118 -119 -134 -135 -148 -150 -162 -163 -175 -176 -186 -188 0
-23 -44 -45 -63 -65 -82 -83 -118 -119 -134 -135 -148 -150 -162 -163 -175 -176 -186 -188 0
-23 -44 -45 -64 -65 -82 -84 -118 -119 -134 -135 -148 -150 -162 -163 -175 -176 -186 -188 0
-23 -44 -45 -64 -65 -83 -84 -118 -120 -134 -135 -148 -150 -162 -163 -175 -176 -186 -188 0
-23 -44 -45 -64 -65 -83 -84 -119 -120 -134 -136 -148 -150 -162 -163 -175 -176 -186 -188 0
-23 -44 -45 -64 -65 -83 -84 -119 -120 -135 -136 -148 -151 -162 -163 -175 -176 -186 -188 0
-22 -43 -44 -63 -64 -82 -83 -118 -119 -134 -135 -149 -150 -162 -164 -175 -176 -186 -188 0
-23 -43 -45 -63 -64 -82 -83 -118 -119 -134 -135 -149 -150 -162 -164 -175 -176 -186 -188 0
-23 -44 -45 -63 -65 -82 -83 -118 -119 -134 -135 -149 -150 -162 -164 -175 -176 -186 -188 0
-23 -44 -45 -64 -65 -82 -84 -118 -119 -134 -135 -149 -150 -162 -164 -175 -176 -186 -188 0
-23 -44 -45 -64 -65 -83 -84 -118 -120 -134 -135 -149 -150 -162 -164 -175 -176 -186 -188 0
-23 -44 -45 -64 -65 -83 -84 -119 -120 -134 -136 -149 -150 -162 -164 -175 -176 -186 -188 0
-23 -44 -45 -64 -65 -83 -84 -119 -120 -135 -136 -149 -151 -162 -164 -175 -176 -186 -188 0
-23 -44 -45 -64 -65 -83 -84 -119 -120 -135 -136 -150 -151 -162 -165 -175 -176 -186 -188 0
-22 -43 -44 -63 -64 -82 -83 -118 -119 -134 -135 -149 -150 -163 -164 -175 -177 -186 -188 0
-23 -43 -45 -63 -64 -82 -83 -118 -119 -134 -135 -149 -150 -163 -164 -175 -177 -186 -188 0
-23 -44 -45 -63 -65 -82 -83 -118 -119 -134 -135 -149 -150 -163 -164 -175 -177 -186 -188 0
-23 -44 -45 -64 -65 -82 -84 -118 -119 -134 -135 -149 -150 -163 -164 -175 -177 -186 -188 0
-23 -44 -45 -64 -65 -83 -84 -118 -120 -134 -135 -149 -150 -163 -164 -175 -177 -186 -188 0
-23 -44 -45 -64 -65 -83 -84 -119 -120 -134 -136 -149 -150 -163 -164 -175 -177 -186 -188 0
-23 -44 -45 -64 -65 -83 -84 -119 -120 -135 -136 -149 -151 -163 -164 -175 -177 -186 -188 0
-23 -44 -45 -64 -65 -83 -84 -119 -120 -135 -136 -150 -151 -163 -165 -175 -177 -186 -188 0
-23 -44 -45 -64 -65 -83 -84 -119 -120 -135 -136 -150 -151 -164 -165 -175 -178 -186 -188 0
-22 -43 -44 -63 -64 -82 -83 -118 -119 -134 -135 -149 -150 -163 -164 -176 -177 -186 -189 0
-23 -43 -45 -63 -64 -82 -83 -118 -119 -134 -135 -149 -150 -163 -164 -176 -177 -186 -189 0
-23 -44 -45 -63 -65 -82 -83 -118 -119 -134 -135 -149 -150 -163 -164 -176 -177 -186 -189 0
-23 -44 -45 -64 -65 -82 -84 -118 -119 -134 -135 -149 -150 -163 -164 -176 -177 -186 -189 0
-23 -44 -45 -64 -65 -83 -84 -118 -120 -134 -135 -149 -150 -163 -164 -176 -177 -186 -189 0
-23 -44 -45 -64 -65 -83 -84 -119 -120 -134 -136 -149 -150 -163 -164 -176 -177 -186 -189 0
-23 -44 -45 -64 -65 -83 -84 -119 -120 -135 -136 -149 -151 -163 -164 -176 -177 -186 -189 0
-23 -44 -45 -64 -65 -83 -84 -119 -120 -135 -136 -150 -151 -163 -165 -176 -177 -186 -189 0
-23 -44 -45 -64 -65 -83 -84 -119 -120 -135 -136 -150 -151 -164 -165 -176 -178 -186 -189 0
-23 -44 -45 -64 -65 -83 -84 -119 -120 -135 -136 -150 -151 -164 -165 -177 -178 -186 -190 0
-21 -42 -43 -62 -63 -81 -82 -117 -118 -133 -134 -148 -149 -162 -163 -175 -176 -187 -188 0
-22 -42 -44 -62 -63 -81 -82 -117 -118 -133 -134 -148 -149 -162 -163 -175 -176 -187 -188 0
-23 -42 -45 -62 -63 -81 -82 -117 -118 -133 -134 -148 -149 -162 -163 -175 -176 -187 -188 0
-22 -43 -44 -62 -64 -81 -82 -117 -118 -133 -134 -148 -149 -162 -163 -175 -176 -187 -188 0
-23 -43 -45 -62 -64 -81 -82 -117 -118 -133 -134 -148 -149 -162 -163 -175 -176 -187 -188 0
-23 -44 -45 -62 -65 -81 -82 -117 -118 -133 -134 -148 -149 -162 -163 -175 -176 -187 -188 0
-22 -43 -44 -63 -64 -81 -83 -117 -118 -133 -134 -148 -149 -162 -163 -175 -176 -187 -188 0
-23 -43 -45 -63 -64 -81 -83 -117 -118 -133 -134 -148 -149 -162 -163 -175 -176 -187 -188 0
-23 -44 -45 -63 -65 -81 -83 -117 -118 -133 -134 -148 -149 -162 -163 -175 -176 -187 -188 0
-23 -44 -45 -64 -65 -81 -84 -117 -118 -133 -134 -148 -149 -162 -163 -175 -176 -187 -188 0
-22 -43 -44 -63 -64 -82 -83 -117 -119 -133 -134 -148 -149 -162 -163 -175 -176 -187 -188 0
-23 -43 -45 -63 -64 -82 -83 -117 -119 -133 -134 -148 -149 -162 -163 -175 -176 -187 -188 0
-23 -44 -45 -63 -65 -82 -83 -117 -119 -133 -134 -148 -149 -162 -163 -175 -176 -187 -188 0
-23 -44 -45 -64 -65 -82 -84 -117 -119 -133 -134 -148 -149 -162 -163 -175 -176 -187 -188 0
-23 -44 -45 -64 -65 -83 -84 -117 -120 -133 -134 -148 -149 -162 -163 -175 -176 -187 -188 0
-22 -43 -44 -63 -64 -82 -83 -118 -119 -133 -135 -148 -149 -162 -163 -175 -176 -187 -188 0
-23 -43 -45 -63 -64 -82 -83 -118 -119 -133 -135 -148 -149 -162 -163 -175 -176 -187 -188 0
-23 -44 -45 -63 -65 -82 -83 -118 -119 -133 -135 -148 -149 -162 -163 -175 -176 -187 -188 0
-23 -44 -45 -64 -65 -82 -84 -118 -119 -133 -135 -148 -149 -162 -163 -175 -176 -187 -188 0
-23 -44 -45 -64 -65 -83 -84 -118 -120 -133 -135 -148 -149 -162 -163 -175 -176 -187 -188 0
-23 -44 -45 -64 -65 -83 -84 -119 -120 -133 -136 -148 -149 -162 -163 -175 -176 -187 -188 0
-22 -43 -44 -63 -64 -82 -83 -118 -119 -134 -135 -148 -150 -162 -163 -175 -176 -187 -188 0
-23 -43 -45 -63 -64 -82 -83 -118 -119 -134 -135 -148 -150 -162 -163 -175 -176 -187 -188 0
-23 -44 -45 -63 -65 -82 -83 -118 -119 -134 -135 -148 -150 -162 -163 -175 -176 -187 -188 0
-23 -44 -45 -64 -65 -82 -84 -118 -119 -134 -135 -148 -150 -162 -163 -175 -176 -187 -188 0
-23 -44 -45 -64 -65 -83 -84 -118 -120 -134 -135 -148 -150 -162 -163 -175 -176 -187 -188 0
-23 -44 -45 -64 -65 -83 -84 -119 -120 -134 -136 -148 -150 -162 -163 -175 -176 -187 -188 0
-23 -44 -45 -64 -65 -83 -84 -119 -120 -135 -136 -148 -151 -162 -163 -175 -176 -187 -188 0
-22 -43 -44 -63 -64 -82 -83 -118 -119 -134 -135 -149 -150 -162 -164 -175 -176 -187 -188 0
-23 -43 -45 -63 -64 -82 -83 -118 -119 -134 -135 -149 -150 -162 -164 -175 -176 -187 -188 0
-23 -44 -45 -63 -65 -82 -83 -118 -119 -134 -135 -149 -150 -162 -164 -175 -176 -187 -188 0
-23 -44 -45 -64 -65 -82 -84 -118 -119 -134 -135 -149 -150 -162 -164 -175 -176 -187 -188 0
-23 -44 -45 -64 -65 -83 -84 -118 -120 -134 -135 -149 -150 -162 -164 -175 -176 -187 -188 0
-23 -44 -45 -64 -65 -83 -84 -119 -120 -134 -136 -149 -150 -162 -164 -175 -176 -187 -188 0
-23 -44 -45 -64 -65 -83 -84 -119 -120 -135 -136 -149 -151 -162 -164 -175 -176 -187 -188 0
-23 -44 -45 -64 -65 -83 -84 -119 -120 -135 -136 -150 -151 -162 -165 -175 -176 -187 -188 0
-22 -43 -44 -63 -64 -82 -83 -118 -119 -134 -135 -149 -150 -163 -164 -175 -177 -187 -188 0
-23 -43 -45 -63 -64 -82 -83 -118 -119 -134 -135 -149 -150 -163 -164 -175 -177 -187 -188 0
-23 -44 -45 -63 -65 -82 -83 -118 -119 -134 -135 -149 -150 -163 -164 -175 -177 -187 -188 0
-23 -44 -45 -64 -65 -82 -84 -118 -119 -134 -135 -149 -150 -163 -164 -175 -177 -187 -188 0
-23 -44 -45 -64 -65 -83 -84 -118 -120 -134 -135 -149 -150 -163 -164 -175 -177 -187 -188 0
-23 -44 -45 -64 -65 -83 -84 -119 -120 -134 -136 -149 -150 -163 -164 -175 -177 -187 -188 0
-23 -44 -45 -64 -65 -83 -84 -119 -120 -135 -136 -149 -151 -163 -164 -175 -177 -187 -188 0
-23 -44 -45 -64 -65 -83 -84 -119 -120 -135 -136 -150 -151 -163 -165 -175 -177 -187 -188 0
-23 -44 -45 -64 -65 -83 -84 -119 -120 -135 -136 -150 -151 -164 -165 -175 -178 -187 -188 0
-22 -43 -44 -63 -64 -82 -83 -118 -119 -134 -135 -149 -150 -163 -164 -176 -177 -187 -189 0
-23 -43 -45 -63 -64 -82 -83 -118 -119 -134 -135 -149 -150 -163 -164 -176 -177 -187 -189 0
-23 -44 -45 -63 -65 -82 -83 -118 -119 -134 -135 -149 -150 -163 -164 -176 -177 -187 -189 0
-23 -44 -45 -64 -65 -82 -84 -118 -119 -134 -135 -149 -150 -163 -164 -176 -177 -187 -189 0
-23 -44 -45 -64 -65 -83 -84 -118 -120 -134 -135 -149 -150 -163 -164 -176 -177 -187 -189 0
-23 -44 -45 -64 -65 -83 -84 -119 -120 -134 -136 -149 -150 -163 -164 -176 -177 -187 -189 0
-23 -44 -45 -64 -65 -83 -84 -119 -120 -135 -136 -149 -151 -163 -164 -176 -177 -187 -189 0
-23 -44 -45 -64 -65 -83 -84 -119 -120 -135 -136 -150 -151 -163 -165 -176 -177 -187 -189 0
-23 -44 -45 -64 -65 -83 -84 -119 -120 -135 -136 -150 -151 -164 -165 -176 -178 -187 -189 0
-23 -44 -45 -64 -65 -83 -84 -119 -120 -135 -136 -150 -151 -164 -165 -177 -178 -187 -190 0
-22 -43 -44 -63 -64 -82 -83 -118 -119 -134 -135 -149 -150 -163 -164 -176 -177 -188 -189 0
-23 -43 -45 -63 -64 -82 -83 -118 -119 -134 -135 -149 -150 -163 -164 -176 -177 -188 -189 0
-23 -44 -45 -63 -65 -82 -83 -118 -119 -134 -135 -149 -150 -163 -164 -176 -177 -188 -189 0
-23 -44 -45 -64 -65 -82 -84 -118 -119 -134 -135 -149 -150 -163 -164 -176 -177 -188 -189 0
-23 -44 -45 -64 -65 -83 -84 -118 -120 -134 -135 -149 -150 -163 -164 -176 -177 -188 -189 0
-23 -44 -45 -64 -65 -83 -84 -119 -120 -134 -136 -149 -150 -163 -164 -176 -177 -188 -189 0
-23 -44 -45 -64 -65 -83 -84 -119 -120 -135 -136 -149 -151 -163 -164 -176 -177 -188 -189 0
-23 -44 -45 -64 -65 -83 -84 -119 -120 -135 -136 -150 -151 -163 -165 -176 -177 -188 -189 0
-23 -44 -45 -64 -65 -83 -84 -119 -120 -135 -136 -150 -151 -164 -165 -176 -178 -188 -189 0
-23 -44 -45 -64 -65 -83 -84 -119 -120 -135 -136 -150 -151 -164 -165 -177 -178 -188 -190 0
-23 -44 -45 -64 -65 -83 -84 -119 -120 -135 -136 -150 -151 -164 -165 -177 -178 -189 -190 0
-21 -42 -43 -62 -63 -81 -82 -117 -118 -133 -134 -148 -149 -162 -163 -175 -176 -199 -200 0
-22 -42 -44 -62 -63 -81 -82 -117 -118 -133 -134 -148 -149 -162 -163 -175 -176 -199 -200 0
-23 -42 -45 -62 -63 -81 -82 -117 -118 -133 -134 -148 -149 -162 -163 -175 -176 -199 -200 0
-22 -43 -44 -62 -64 -81 -82 -117 -118 -133 -134 -148 -149 -162 -163 -175 -176 -199 -200 0
-23 -43 -45 -62 -64 -81 -82 -117 -118 -133 -134 -148 -149 -162 -163 -175 -176 -199 -200 0
-23 -44 -45 -62 -65 -81 -82 -117 -118 -133 -134 -148 -149 -162 -163 -175 -176 -199 -200 0
-22 -43 -44 -63 -64 -81 -83 -117 -118 -133 -134 -148 -149 -162 -163 -175 -176 -199 -200 0
-23 -43 -45 -63 -64 -81 -83 -117 -118 -133 -134 -148 -149 -162 -163 -175 -176 -199 -200 0
-23 -44 -45 -63 -65 -81 -83 -117 -118 -133 -134 -148 -149 -162 -163 -175 -176 -199 -200 0
-23 -44 -45 -64 -65 -81 -84 -117 -118 -133 -134 -148 -149 -162 -163 -175 -176 -199 -200 0
-22 -43 -44 -63 -64 -82 -83 -117 -119 -133 -134 -148 -149 -162 -163 -175 -176 -199 -200 0
-23 -43 -45 -63 -64 -82 -83 -117 -119 -133 -134 -148 -149 -162 -163 -175 -176 -199 -200 0
-23 -44 -45 -63 -65 -82 -83 -117 -119 -133 -134 -148 -149 -162 -163 -175 -176 -199 -200 0
-23 -44 -45 -64 -65 -82 -84 -117 -119 -133 -134 -148 -149 -162 -163 -175 -176 -199 -200 0
-23 -44 -45 -64 -65 -83 -84 -117 -120 -133 -134 -148 -149 -162 -163 -175 -176 -199 -200 0
-22 -43 -44 -63 -64 -82 -83 -118 -119 -133 -135 -148 -149 -162 -163 -175 -176 -199 -200 0
-23 -43 -45 -63 -64 -82 -83 -118 -119 -133 -135 -148 -149 -162 -163 -175 -176 -199 -200 0
-23 -44 -45 -63 -65 -82 -83 -118 -119 -133 -135 -148 -149 -162 -163 -175 -176 -199 -200 0
-23 -44 -45 -64 -65 -82 -84 -118 -119 -133 -135 -148 -149 -162 -163 -175 -176 -199 -200 0
-23 -44 -45 -64 -65 -83 -84 -118 -120 -133 -135 -148 -149 -162 -163 -175 -176 -199 -200 0
-23 -44 -45 -64 -65 -83 -84 -119 -120 -133 -136 -148 -149 -162 -163 -175 -176 -199 -200 0
-22 -43 -44 -63 -64 -82 -83 -118 -119 -134 -135 -148 -150 -162 -163 -175 -176 -199 -200 0
-23 -43 -45 -63 -64 -82 -83 -118 -119 -134 -135 -148 -150 -162 -163 -175 -176 -199 -200 0
-23 -44 -45 -63 -65 -82 -83 -118 -119 -134 -135 -148 -150 -162 -163 -175 -176 -199 -200 0
-23 -44 -45 -64 -65 -82 -84 -118 -119 -134 -135 -148 -150 -162 -163 -175 -176 -199 -200 0
-23 -44 -45 -64 -65 -83 -84 -118 -120 -134 -135 -148 -150 -162 -163 -175 -176 -199 -200 0
-23 -44 -45 -64 -65 -83 -84 -119 -120 -134 -136 -148 -150 -162 -163 -175 -176 -199 -200 0
-23 -44 -45 -64 -65 -83 -84 -119 -120 -135 -136 -148 -151 -162 -163 -175 -176 -199 -200 0
-22 -43 -44 -63 -64 -82 -83 -118 -119 -134 -135 -149 -150 -162 -164 -175 -176 -199 -200 0
-23 -43 -45 -63 -64 -82 -83 -118 -119 -134 -135 -149 -150 -162 -164 -175 -176 -199 -200 0
-23 -44 -45 -63 -65 -82 -83 -118 -119 -134 -135 -149 -150 -162 -164 -175 -176 -199 -200 0
-23 -44 -45 -64 -65 -82 -84 -118 -119 -134 -135 -149 -150 -162 -164 -175 -176 -199 -200 0
-23 -44 -45 -64 -65 -83 -84 -118 -120 -134 -135 -149 -150 -162 -164 -175 -176 -199 -200 0
-23 -44 -45 -64 -65 -83 -84 -119 -120 -134 -136 -149 -150 -162 -164 -175 -176 -199 -200 0
-23 -44 -45 -64 -65 -83 -84 -119 -120 -135 -136 -149 -151 -162 -164 -175 -176 -199 -200 0
-23 -44 -45 -64 -65 -83 -84 -119 -120 -135 -136 -150 -151 -162 -165 -175 -176 -199 -200 0
-22 -43 -44 -63 -64 -82 -83 -118 -119 -134 -135 -149 -150 -163 -164 -175 -177 -199 -200 0
-23 -43 -45 -63 -64 -82 -83 -118 -119 -134 -135 -149 -150 -163 -164 -175 -177 -199 -200 0
-23 -44 -45 -63 -65 -82 -83 -118 -119 -134 -135 -149 -150 -163 -164 -175 -177 -199 -200 0
-23 -44 -45 -64 -65 -82 -84 -118 -119 -134 -135 -149 -150 -163 -164 -175 -177 -199 -200 0
-23 -44 -45 -64 -65 -83 -84 -118 -120 -134 -135 -149 -150 -163 -164 -175 -177 -199 -200 0
-23 -44 -45 -64 -65 -83 -84 -119 -120 -134 -136 -149 -150 -163 -164 -175 -177 -199 -200 0
-23 -44 -45 -64 -65 -83 -84 -119 -120 -135 -136 -149 -151 -163 -164 -175 -177 -199 -200 0
-23 -44 -45 -64 -65 -83 -84 -119 -120 -135 -136 -150 -151 -163 -165 -175 -177 -199 -200 0
-23 -44 -45 -64 -65 -83 -84 -119 -120 -135 -136 -150 -151 -164 -165 -175 -178 -199 -200 0
-22 -43 -44 -63 -64 -82 -83 -118 -119 -134 -135 -149 -150 -163 -164 -176 -177 -199 -201 0
-23 -43 -45 -63 -64 -82 -83 -118 -119 -134 -135 -149 -150 -163 -164 -176 -177 -199 -201 0
-23 -44 -45 -63 -65 -82 -83 -118 -119 -134 -135 -149 -150 -163 -164 -176 -177 -199 -201 0
-23 -44 -45 -64 -65 -82 -84 -118 -119 -134 -135 -149 -150 -163 -164 -176 -177 -199 -201 0
-23 -44 -45 -64 -65 -83 -84 -118 -120 -134 -135 -149 -150 -163 -164 -176 -177 -199 -201 0
-23 -44 -45 -64 -65 -83 -84 -119 -120 -134 -136 -149 -150 -163 -164 -176 -177 -199 -201 0
-23 -44 -45 -64 -65 -83 -84 -119 -120 -135 -136 -149 -151 -163 -164 -176 -177 -199 -201 0
-23 -44 -45 -64 -65 -83 -84 -119 -120 -135 -136 -150 -151 -163 -165 -176 -177 -199 -201 0
-23 -44 -45 -64 -65 -83 -84 -119 -120 -135 -136 -150 -151 -164 -165 -176 -178 -199 -201 0
-23 -44 -45 -64 -65 -83 -84 -119 -120 -135 -136 -150 -151 -164 -165 -177 -178 -199 -202 0
-22 -43 -44 -63 -64 -82 -83 -118 -119 -134 -135 -149 -150 -163 -164 -176 -177 -200 -201 0
-23 -43 -45 -63 -64 -82 -83 -118 -119 -134 -135 -149 -150 -163 -164 -176 -177 -200 -201 0
-23 -44 -45 -63 -65 -82 -83 -118 -119 -134 -135 -149 -150 -163 -164 -176 -177 -200 -201 0
-23 -44 -45 -64 -65 -82 -84 -118 -119 -134 -135 -149 -150 -163 -164 -176 -177 -200 -201 0
-23 -44 -45 -64 -65 -83 -84 -118 -120 -134 -135 -149 -150 -163 -164 -176 -177 -200 -201 0
-23 -44 -45 -64 -65 -83 -84 -119 -120 -134 -136 -149 -150 -163 -164 -176 -177 -200 -201 0
-23 -44 -45 -64 -65 -83 -84 -119 -120 -135 -136 -149 -151 -163 -164 -176 -177 -200 -201 0
-23 -44 -45 -64 -65 -83 -84 -119 -120 -135 -136 -150 -151 -163 -165 -176 -177 -200 -201 0
-23 -44 -45 -64 -65 -83 -84 -119 -120 -135 -136 -150 -151 -164 -165 -176 -178 -200 -201 0
-23 -44 -45 -64 -65 -83 -84 -119 -120 -135 -136 -150 -151 -164 -165 -177 -178 -200 -202 0
-23 -44 -45 -64 -65 -83 -84 -119 -120 -135 -136 -150 -151 -164 -165 -177 -178 -201 -202 0
-22 -43 -44 -63 -64 -82 -83 -118 -119 -134 -135 -149 -150 -163 -164 -176 -177 -211 -212 0
-23 -43 -45 -63 -64 -82 -83 -118 -119 -134 -135 -149 -150 -163 -164 -176 -177 -211 -212 0
-23 -44 -45 -63 -65 -82 -83 -118 -119 -134 -135 -149 -150 -163 -164 -176 -177 -211 -212 0
-23 -44 -45 -64 -65 -82 -84 -118 -119 -134 -135 -149 -150 -163 -164 -176 -177 -211 -212 0
-23 -44 -45 -64 -65 -83 -84 -118 -120 -134 -135 -149 -150 -163 -164 -176 -177 -211 -212 0
-23 -44 -45 -64 -65 -83 -84 -119 -120 -134 -136 -149 -150 -163 -164 -176 -177 -211 -212 0
-23 -44 -45 -64 -65 -83 -84 -119 -120 -135 -136 -149 -151 -163 -164 -176 -177 -211 -212 0
-23 -44 -45 -64 -65 -83 -84 -119 -120 -135 -136 -150 -151 -163 -165 -176 -177 -211 -212 0
-23 -44 -45 -64 -65 -83 -84 -119 -120 -135 -136 -150 -151 -164 -165 -176 -178 -211 -212 0
-23 -44 -45 -64 -65 -83 -84 -119 -120 -135 -136 -150 -151 -164 -165 -177 -178 -211 -213 0
-23 -44 -45 -64 -65 -83 -84 -119 -120 -135 -136 -150 -151 -164 -165 -177 -178 -212 -213 0
-23 -44 -45 -64 -65 -83 -84 -119 -120 -135 -136 -150 -151 -164 -165 -177 -178 -222 -223 0
-21 -42 -43 -62 -63 -81 -82 -117 -118 -133 -134 -148 -149 -162 -163 -188 -189 -199 -200 0
-22 -42 -44 -62 -63 -81 -82 -117 -118 -133 -134 -148 -149 -162 -163 -188 -189 -199 -200 0
-23 -42 -45 -62 -63 -81 -82 -117 -118 -133 -134 -148 -149 -162 -163 -188 -189 -199 -200 0
-22 -43 -44 -62 -64 -81 -82 -117 -118 -133 -134 -148 -149 -162 -163 -188 -189 -199 -200 0
-23 -43 -45 -62 -64 -81 -82 -117 -118 -133 -134 -148 -149 -162 -163 -188 -189 -199 -200 0
-23 -44 -45 -62 -65 -81 -82 -117 -118 -133 -134 -148 -149 -162 -163 -188 -189 -199 -200 0
-22 -43 -44 -63 -64 -81 -83 -117 -118 -133 -134 -148 -149 -162 -163 -188 -189 -199 -200 0
-23 -43 -45 -63 -64 -81 -83 -117 -118 -133 -134 -148 -149 -162 -163 -188 -189 -199 -200 0
-23 -44 -45 -63 -65 -81 -83 -117 -118 -133 -134 -148 -149 -162 -163 -188 -189 -199 -200 0
-23 -44 -45 -64 -65 -81 -84 -117 -118 -133 -134 -148 -149 -162 -163 -188 -189 -199 -200 0
-22 -43 -44 -63 -64 -82 -83 -117 -119 -133 -134 -148 -149 -162 -163 -188 -189 -199 -200 0
-23 -43 -45 -63 -64 -82 -83 -117 -119 -133 -134 -148 -149 -162 -163 -188 -189 -199 -200 0
-23 -44 -45 -63 -65 -82 -83 -117 -119 -133 -134 -148 -149 -162 -163 -188 -189 -199 -200 0
-23 -44 -45 -64 -65 -82 -84 -117 -119 -133 -134 -148 -149 -162 -163 -188 -189 -199 -200 0
-23 -44 -45 -64 -65 -83 -84 -117 -120 -133 -134 -148 -149 -162 -163 -188 -189 -199 -200 0
-22 -43 -44 -63 -64 -82 -83 -118 -119 -133 -135 -148 -149 -162 -163 -188 -189 -199 -200 0
-23 -43 -45 -63 -64 -82 -83 -118 -119 -133 -135 -148 -149 -162 -163 -188 -189 -199 -200 0
-23 -44 -45 -63 -65 -82 -83 -118 -119 -133 -135 -148 -149 -162 -163 -188 -189 -199 -200 0
-23 -44 -45 -64 -65 -82 -84 -118 -119 -133 -135 -148 -149 -162 -163 -188 -189 -199 -200 0
-23 -44 -45 -64 -65 -83 -84 -118 -120 -133 -135 -148 -149 -162 -163 -188 -189 -199 -200 0
-23 -44 -45 -64 -65 -83 -84 -119 -120 -133 -136 -148 -149 -162 -163 -188 -189 -199 -200 0
-22 -43 -44 -63 -64 -82 -83 -118 -119 -134 -135 -148 -150 -162 -163 -188 -189 -199 -200 0
-23 -43 -45 -63 -64 -82 -83 -118 -119 -134 -135 -148 -150 -162 -163 -188 -189 -199 -200 0
-23 -44 -45 -63 -65 -82 -83 -118 -119 -134 -135 -148 -150 -162 -163 -188 -189 -199 -200 0
-23 -44 -45 -64 -65 -82 -84 -118 -119 -134 -135 -148 -150 -162 -163 -188 -189 -199 -200 0
-23 -44 -45 -64 -65 -83 -84 -118 -120 -134 -135 -148 -150 -162 -163 -188 -189 -199 -200 0
-23 -44 -45 -64 -65 -83 -84 -119 -120 -134 -136 -148 -150 -162 -163 -188 -189 -199 -200 0
-23 -44 -45 -64 -65 -83 -84 -119 -120 -135 -136 -148 -151 -162 -163 -188 -189 -199 -200 0
-22 -43 -44 -63 -64 -82 -83 -118 -119 -134 -135 -149 -150 -162 -164 -188 -189 -199 -200 0
-23 -43 -45 -63 -64 -82 -83 -118 -119 -134 -135 -149 -150 -162 -164 -188 -189 -199 -200 0
-23 -44 -45 -63 -65 -82 -83 -118 -119 -134 -135 -149 -150 -162 -164 -188 -189 -199 -200 0
-23 -44 -45 -64 -65 -82 -84 -118 -119 -134 -135 -149 -150 -162 -164 -188 -189 -199 -200 0
-23 -44 -45 -64 -65 -83 -84 -118 -120 -134 -135 -149 -150 -162 -164 -188 -189 -199 -200 0
-23 -44 -45 -64 -65 -83 -84 -119 -120 -134 -136 -149 -150 -162 -164 -188 -189 -199 -200 0
-23 -44 -45 -64 -65 -83 -84 -119 -120 -135 -136 -149 -151 -162 -164 -188 -189 -199 -200 0
-23 -44 -45 -64 -65 -83 -84 -119 -120 -135 -136 -150 -151 -162 -165 -188 -189 -199 -200 0
-22 -43 -44 -63 -64 -82 -83 -118 -119 -134 -135 -149 -150 -163 -164 -188 -190 -199 -200 0
-23 -43 -45 -63 -64 -82 -83 -118 -119 -134 -135 -149 -150 -163 -164 -188 -190 -199 -200 0
-23 -44 -45 -63 -65 -82 -83 -118 -119 -134 -135 -149 -150 -163 -164 -188 -190 -199 -200 0
-23 -44 -45 -64 -65 -82 -84 -118 -119 -134 -135 -149 -150 -163 -164 -188 -190 -199 -200 0
-23 -44 -45 -64 -65 -83 -84 -118 -120 -134 -135 -149 -150 -163 -164 -188 -190 -199 -200 0
-23 -44 -45 -64 -65 -83 -84 -119 -120 -134 -136 -149 -150 -163 -164 -188 -190 -199 -200 0
-23 -44 -45 -64 -65 -83 -84 -119 -120 -135 -136 -149 -151 -163 -164 -188 -190 -199 -200 0
-23 -44 -45 -64 -65 -83 -84 -119 -120 -135 -136 -150 -151 -163 -165 -188 -190 -199 -200 0
-23 -44 -45 -64 -65 -83 -84 -119 -120 -135 -136 -150 -151 -164 -165 -188 -191 -199 -200 0
-22 -43 -44 -63 -64 -82 -83 -118 -119 -134 -135 -149 -150 -163 -164 -189 -190 -199 -201 0
-23 -43 -45 -63 -64 -82 -83 -118 -119 -134 -135 -149 -150 -163 -164 -189 -190 -199 -201 0
-23 -44 -45 -63 -65 -82 -83 -118 -119 -134 -135 -149 -150 -163 -164 -189 -190 -199 -201 0
-23 -44 -45 -64 -65 -82 -84 -118 -119 -134 -135 -149 -150 -163 -164 -189 -190 -199 -201 0
-23 -44 -45 -64 -65 -83 -84 -118 -120 -134 -135 -149 -150 -163 -164 -189 -190 -199 -201 0
-23 -44 -45 -64 -65 -83 -84 -119 -120 -134 -136 -149 -150 -163 -164 -189 -190 -199 -201 0
-23 -44 -45 -64 -65 -83 -84 -119 -120 -135 -136 -149 -151 -163 -164 -189 -190 -199 -201 0
-23 -44 -45 -64 -65 -83 -84 -119 -120 -135 -136 -150 -151 -163 -165 -189 -190 -199 -201 0
-23 -44 -45 -64 -65 -83 -84 -119 -120 -135 -136 -150 -151 -164 -165 -189 -191 -199 -201 0
-23 -44 -45 -64 -65 -83 -84 -119 -120 -135 -136 -150 -151 -164 -165 -190 -191 -199 -202 0
-22 -43 -44 -63 -64 -82 -83 -118 -119 -134 -135 -149 -150 -163 -164 -189 -190 -200 -201 0
-23 -43 -45 -63 -64 -82 -83 -118 -119 -134 -135 -149 -150 -163 -164 -189 -190 -200 -201 0
-23 -44 -45 -63 -65 -82 -83 -118 -119 -134 -135 -149 -150 -163 -164 -189 -190 -200 -201 0
-23 -44 -45 -64 -65 -82 -84 -118 -119 -134 -135 -149 -150 -163 -164 -189 -190 -200 -201 0
-23 -44 -45 -64 -65 -83 -84 -118 -120 -134 -135 -149 -150 -163 -164 -189 -190 -200 -201 0
-23 -44 -45 -64 -65 -83 -84 -119 -120 -134 -136 -149 -150 -163 -164 -189 -190 -200 -201 0
-23 -44 -45 -64 -65 -83 -84 -119 -120 -135 -136 -149 -151 -163 -164 -189 -190 -200 -201 0
-23 -44 -45 -64 -65 -83 -84 -119 -120 -135 -136 -150 -151 -163 -165 -189 -190 -200 -201 0
-23 -44 -45 -64 -65 -83 -84 -119 -120 -135 -136 -150 -151 -164 -165 -189 -191 -200 -201 0
-23 -44 -45 -64 -65 -83 -84 -119 -120 -135 -136 -150 -151 -164 -165 -190 -191 -200 -202 0
-23 -44 -45 -64 -65 -83 -84 -119 -120 -135 -136 -150 -151 -164 -165 -190 -191 -201 -202 0
-22 -43 -44 -63 -64 -82 -83 -118 -119 -134 -135 -149 -150 -163 -164 -189 -190 -211 -212 0
-23 -43 -45 -63 -64 -82 -83 -118 -119 -134 -135 -149 -150 -163 -164 -189 -190 -211 -212 0
-23 -44 -45 -63 -65 -82 -83 -118 -119 -134 -135 -149 -150 -163 -164 -189 -190 -211 -212 0
-23 -44 -45 -64 -65 -82 -84 -118 -119 -134 -135 -149 -150 -163 -164 -189 -190 -211 -212 0
-23 -44 -45 -64 -65 -83 -84 -118 -120 -134 -135 -149 -150 -163 -164 -189 -190 -211 -212 0
-23 -44 -45 -64 -65 -83 -84 -119 -120 -134 -136 -149 -150 -163 -164 -189 -190 -211 -212 0
-23 -44 -45 -64 -65 -83 -84 -119 -120 -135 -136 -149 -151 -163 -164 -189 -190 -211 -212 0
-23 -44 -45 -64 -65 -83 -84 -119 -120 -135 -136 -150 -151 -163 -165 -189 -190 -211 -212 0
-23 -44 -45 -64 -65 -83 -84 -119 -120 -135 -136 -150 -151 -164 -165 -189 -191 -211 -212 0
-23 -44 -45 -64 -65 -83 -84 -119 -120 -135 -136 -150 -151 -164 -165 -190 -191 -211 -213 0
-23 -44 -45 -64 -65 -83 -84 -119 -120 -135 -136 -150 -151 -164 -165 -190 -191 -212 -213 0
-23 -44 -45 -64 -65 -83 -84 -119 -120 -135 -136 -150 -151 -164 -165 -190 -191 -222 -223 0
-22 -43 -44 -63 -64 -82 -83 -118 -119 -134 -135 -149 -150 -163 -164 -201 -202 -211 -212 0
-23 -43 -45 -63 -64 -82 -83 -118 -119 -134 -135 -149 -150 -163 -164 -201 -202 -211 -212 0
-23 -44 -45 -63 -65 -82 -83 -118 -119 -134 -135 -149 -150 -163 -164 -201 -202 -211 -212 0
-23 -44 -45 -64 -65 -82 -84 -118 -119 -134 -135 -149 -150 -163 -164 -201 -202 -211 -212 0
-23 -44 -45 -64 -65 -83 -84 -118 -120 -134 -135 -149 -150 -163 -164 -201 -202 -211 -212 0
-23 -44 -45 -64 -65 -83 -84 -119 -120 -134 -136 -149 -150 -163 -164 -201 -202 -211 -212 0
-23 -44 -45 -64 -65 -83 -84 -119 -120 -135 -136 -149 -151 -163 -164 -201 -202 -211 -212 0
-23 -44 -45 -64 -65 -83 -84 -119 -120 -135 -136 -150 -151 -163 -165 -201 -202 -211 -212 0
-23 -44 -45 -64 -65 -83 -84 -119 -120 -135 -136 -150 -151 -164 -165 -201 -203 -211 -212 0
-23 -44 -45 -64 -65 -83 -84 -119 -120 -135 -136 -150 -151 -164 -165 -202 -203 -211 -213 0
-23 -44 -45 -64 -65 -83 -84 -119 -120 -135 -136 -150 -151 -164 -165 -202 -203 -212 -213 0
-23 -44 -45 -64 -65 -83 -84 -119 -120 -135 -136 -150 -151 -164 -165 -202 -203 -222 -223 0
-23 -44 -45 -64 -65 -83 -84 -119 -120 -135 -136 -150 -151 -164 -165 -213 -214 -222 -223 0
-21 -42 -43 -62 -63 -81 -82 -117 -118 -133 -134 -148 -149 -176 -177 -188 -189 -199 -200 0
-22 -42 -44 -62 -63 -81 -82 -117 -118 -133 -134 -148 -149 -176 -177 -188 -189 -199 -200 0
-23 -42 -45 -62 -63 -81 -82 -117 -118 -133 -134 -148 -149 -176 -177 -188 -189 -199 -200 0
-22 -43 -44 -62 -64 -81 -82 -117 -118 -133 -134 -148 -149 -176 -177 -188 -189 -199 -200 0
-23 -43 -45 -62 -64 -81 -82 -117 -118 -133 -134 -148 -149 -176 -177 -188 -189 -199 -200 0
-23 -44 -45 -62 -65 -81 -82 -117 -118 -133 -134 -148 -149 -176 -177 -188 -189 -199 -200 0
-22 -43 -44 -63 -64 -81 -83 -117 -118 -133 -134 -148 -149 -176 -177 -188 -189 -199 -200 0
-23 -43 -45 -63 -64 -81 -83 -117 -118 -133 -134 -148 -149 -176 -177 -188 -189 -199 -200 0
-23 -44 -45 -63 -65 -81 -83 -117 -118 -133 -134 -148 -149 -176 -177 -188 -189 -199 -200 0
-23 -44 -45 -64 -65 -81 -84 -117 -118 -133 -134 -148 -149 -176 -177 -188 -189 -199 -200 0
-22 -43 -44 -63 -64 -82 -83 -117 -119 -133 -134 -148 -149 -176 -177 -188 -189 -199 -200 0
-23 -43 -45 -63 -64 -82 -83 -117 -119 -133 -134 -148 -149 -176 -177 -188 -189 -199 -200 0
-23 -44 -45 -63 -65 -82 -83 -117 -119 -133 -134 -148 -149 -176 -177 -188 -189 -199 -200 0
-23 -44 -45 -64 -65 -82 -84 -117 -119 -133 -134 -148 -149 -176 -177 -188 -189 -199 -200 0
-23 -44 -45 -64 -65 -83 -84 -117 -120 -133 -134 -148 -149 -176 -177 -188 -189 -199 -200 0
-22 -43 -44 -63 -64 -82 -83 -118 -119 -133 -135 -148 -149 -176 -177 -188 -189 -199 -200 0
-23 -43 -45 -63 -64 -82 -83 -118 -119 -133 -135 -148 -149 -176 -177 -188 -189 -199 -200 0
-23 -44 -45 -63 -65 -82 -83 -118 -119 -133 -135 -148 -149 -176 -177 -188 -189 -199 -200 0
-23 -44 -45 -64 -65 -82 -84 -118 -119 -133 -135 -148 -149 -176 -177 -188 -189 -199 -200 0
-23 -44 -45 -64 -65 -83 -84 -118 -120 -133 -135 -148 -149 -176 -177 -188 -189 -199 -200 0
-23 -44 -45 -64 -65 -83 -84 -119 -120 -133 -136 -148 -149 -176 -177 -188 -189 -199 -200 0
-22 -43 -44 -63 -64 -82 -83 -118 -119 -134 -135 -148 -150 -176 -177 -188 -189 -199 -200 0
-23 -43 -45 -63 -64 -82 -83 -118 -119 -134 -135 -148 -150 -176 -177 -188 -189 -199 -200 0
-23 -44 -45 -63 -65 -82 -83 -118 -119 -134 -135 -148 -150 -176 -177 -188 -189 -199 -200 0
-23 -44 -45 -64 -65 -82 -84 -118 -119 -134 -135 -148 -150 -176 -177 -188 -189 -199 -200 0
-23 -44 -45 -64 -65 -83 -84 -118 -120 -134 -135 -148 -150 -176 -177 -188 -189 -199 -200 0
-23 -44 -45 -64 -65 -83 -84 -119 -120 -134 -136 -148 -150 -176 -177 -188 -189 -199 -200 0
-23 -44 -45 -64 -65 -83 -84 -119 -120 -135 -136 -148 -151 -176 -177 -188 -189 -199 -200 0
-22 -43 -44 -63 -64 -82 -83 -118 -119 -134 -135 -149 -150 -176 -178 -188 -189 -199 -200 0
-23 -43 -45 -63 -64 -82 -83 -118 -119 -134 -135 -149 -150 -176 -178 -188 -189 -199 -200 0
-23 -44 -45 -63 -65 -82 -83 -118 -119 -134 -135 -149 -150 -176 -178 -188 -189 -199 -200 0
-23 -44 -45 -64 -65 -82 -84 -118 -119 -134 -135 -149 -150 -176 -178 -188 -189 -199 -200 0
-23 -44 -45 -64 -65 -83 -84 -118 -120 -134 -135 -149 -150 -176 -178 -188 -189 -199 -200 0
-23 -44 -45 -64 -65 -83 -84 -119 -120 -134 -136 -149 -150 -176 -178 -188 -189 -199 -200 0
-23 -44 -45 -64 -65 -83 -84 -119 -120 -135 -136 -149 -151 -176 -178 -188 -189 -199 -200 0
-23 -44 -45 -64 -65 -83 -84 -119 -120 -135 -136 -150 -151 -176 -179 -188 -189 -199 -200 0
-22 -43 -44 -63 -64 -82 -83 -118 -119 -134 -135 -149 -150 -177 -178 -188 -190 -199 -200 0
-23 -43 -45 -63 -64 -82 -83 -118 -119 -134 -135 -149 -150 -177 -178 -188 -190 -199 -200 0
-23 -44 -45 -63 -65 -82 -83 -118 -119 -134 -135 -149 -150 -177 -178 -188 -190 -199 -200 0
-23 -44 -45 -64 -65 -82 -84 -118 -119 -134 -135 -149 -150 -177 -178 -188 -190 -199 -200 0
-23 -44 -45 -64 -65 -83 -84 -118 -120 -134 -135 -149 -150 -177 -178 -188 -190 -199 -200 0
-23 -44 -45 -64 -65 -83 -84 -119 -120 -134 -136 -149 -150 -177 -178 -188 -190 -199 -200 0
-23 -44 -45 -64 -65 -83 -84 -119 -120 -135 -136 -149 -151 -177 -178 -188 -190 -199 -200 0
-23 -44 -45 -64 -65 -83 -84 -119 -120 -135 -136 -150 -151 -177 -179 -188 -190 -199 -200 0
-23 -44 -45 -64 -65 -83 -84 -119 -120 -135 -136 -150 -151 -178 -179 -188 -191 -199 -200 0
-22 -43 -44 -63 -64 -82 -83 -118 -119 -134 -135 -149 -150 -177 -178 -189 -190 -199 -201 0
-23 -43 -45 -63 -64 -82 -83 -118 -119 -134 -135 -149 -150 -177 -178 -189 -190 -199 -201 0
-23 -44 -45 -63 -65 -82 -83 -118 -119 -134 -135 -149 -150 -177 -178 -189 -190 -199 -201 0
-23 -44 -45 -64 -65 -82 -84 -118 -119 -134 -135 -149 -150 -177 -178 -189 -190 -199 -201 0
-23 -44 -45 -64 -65 -83 -84 -118 -120 -134 -135 -149 -150 -177 -178 -189 -190 -199 -201 0
-23 -44 -45 -64 -65 -83 -84 -119 -120 -134 -136 -149 -150 -177 -178 -189 -190 -199 -201 0
-23 -44 -45 -64 -65 -83 -84 -119 -120 -135 -136 -149 -151 -177 -178 -189 -190 -199 -201 0
-23 -44 -45 -64 -65 -83 -84 -119 -120 -135 -136 -150 -151 -177 -179 -189 -190 -199 -201 0
-23 -44 -45 -64 -65 -83 -84 -119 -120 -135 -136 -150 -151 -178 -179 -189 -191 -199 -201 0
-23 -44 -45 -64 -65 -83 -84 -119 -120 -135 -136 -150 -151 -178 -179 -190 -191 -199 -202 0
-22 -43 -44 -63 -64 -82 -83 -118 -119 -134 -135 -149 -150 -177 -178 -189 -190 -200 -201 0
-23 -43 -45 -63 -64 -82 -83 -118 -119 -134 -135 -149 -150 -177 -178 -189 -190 -200 -201 0
-23 -44 -45 -63 -65 -82 -83 -118 -119 -134 -135 -149 -150 -177 -178 -189 -190 -200 -201 0
-23 -44 -45 -64 -65 -82 -84 -118 -119 -134 -135 -149 -150 -177 -178 -189 -190 -200 -201 0
-23 -44 -45 -64 -65 -83 -84 -118 -120 -134 -135 -149 -150 -177 -178 -189 -190 -200 -201 0
-23 -44 -45 -64 -65 -83 -84 -119 -120 -134 -136 -149 -150 -177 -178 -189 -190 -200 -201 0
-23 -44 -45 -64 -65 -83 -84 -119 -120 -135 -136 -149 -151 -177 -178 -189 -190 -200 -201 0
-23 -44 -45 -64 -65 -83 -84 -119 -120 -135 -136 -150 -151 -177 -179 -189 -190 -200 -201 0
-23 -44 -45 -64 -65 -83 -84 -119 -120 -135 -136 -150 -151 -178 -179 -189 -191 -200 -201 0
-23 -44 -45 -64 -65 -83 -84 -119 -120 -135 -136 -150 -151 -178 -179 -190 -191 -200 -202 0
-23 -44 -45 -64 -65 -83 -84 -119 -120 -135 -136 -150 -151 -178 -179 -190 -191 -201 -202 0
-22 -43 -44 -63 -64 -82 -83 -118 -119 -134 -135 -149 -150 -177 -178 -189 -190 -211 -212 0
-23 -43 -45 -63 -64 -82 -83 -118 -119 -134 -135 -149 -150 -177 -178 -189 -190 -211 -212 0
-23 -44 -45 -63 -65 -82 -83 -118 -119 -134 -135 -149 -150 -177 -178 -189 -190 -211 -212 0
-23 -44 -45 -64 -65 -82 -84 -118 -119 -134 -135 -149 -150 -177 -178 -189 -190 -211 -212 0
-23 -44 -45 -64 -65 -83 -84 -118 -120 -134 -135 -149 -150 -177 -178 -189 -190 -211 -212 0
-23 -44 -45 -64 -65 -83 -84 -119 -120 -134 -136 -149 -150 -177 -178 -189 -190 -211 -212 0
-23 -44 -45 -64 -65 -83 -84 -119 -120 -135 -136 -149 -151 -177 -178 -189 -190 -211 -212 0
-23 -44 -45 -64 -65 -83 -84 -119 -120 -135 -136 -150 -151 -177 -179 -189 -190 -211 -212 0
-23 -44 -45 -64 -65 -83 -84 -119 -120 -135 -136 -150 -151 -178 -179 -189 -191 -211 -212 0
-23 -44 -45 -64 -65 -83 -84 -119 -120 -135 -136 -150 -151 -178 -179 -190 -191 -211 -213 0
-23 -44 -45 -64 -65 -83 -84 -119 -120 -135 -136 -150 -151 -178 -179 -190 -191 -212 -213 0
-23 -44 -45 -64 -65 -83 -84 -119 -120 -135 -136 -150 -151 -178 -179 -190 -191 -222 -223 0
-22 -43 -44 -63 -64 -82 -83 -118 -119 -134 -135 -149 -150 -177 -178 -201 -202 -211 -212 0
-23 -43 -45 -63 -64 -82 -83 -118 -119 -134 -135 -149 -150 -177 -178 -201 -202 -211 -212 0
-23 -44 -45 -63 -65 -82 -83 -118 -119 -134 -135 -149 -150 -177 -178 -201 -202 -211 -212 0
-23 -44 -45 -64 -65 -82 -84 -118 -119 -134 -135 -149 -150 -177 -178 -201 -202 -211 -212 0
-23 -44 -45 -64 -65 -83 -84 -118 -120 -134 -135 -149 -150 -177 -178 -201 -202 -211 -212 0
-23 -44 -45 -64 -65 -83 -84 -119 -120 -134 -136 -149 -150 -177 -178 -201 -202 -211 -212 0
-23 -44 -45 -64 -65 -83 -84 -119 -120 -135 -136 -149 -151 -177 -178 -201 -202 -211 -212 0
-23 -44 -45 -64 -65 -83 -84 -119 -120 -135 -136 -150 -151 -177 -179 -201 -202 -211 -212 0
-23 -44 -45 -64 -65 -83 -84 -119 -120 -135 -136 -150 -151 -178 -179 -201 -203 -211 -212 0
-23 -44 -45 -64 -65 -83 -84 -119 -120 -135 -136 -150 -151 -178 -179 -202 -203 -211 -213 0
-23 -44 -45 -64 -65 -83 -84 -119 -120 -135 -136 -150 -151 -178 -179 -202 -203 -212 -213 0
-23 -44 -45 -64 -65 -83 -84 -119 -120 -135 -136 -150 -151 -178 -179 -202 -203 -222 -223 0
-23 -44 -45 -64 -65 -83 -84 -119 -120 -135 -136 -150 -151 -178 -179 -213 -214 -222 -223 0
-22 -43 -44 -63 -64 -82 -83 -118 -119 -134 -135 -149 -150 -190 -191 -201 -202 -211 -212 0
-23 -43 -45 -63 -64 -82 -83 -118 -119 -134 -135 -149 -150 -190 -191 -201 -202 -211 -212 0
-23 -44 -45 -63 -65 -82 -83 -118 -119 -134 -135 -149 -150 -190 -191 -201 -202 -211 -212 0
-23 -44 -45 -64 -65 -82 -84 -118 -119 -134 -135 -149 -150 -190 -191 -201 -202 -211 -212 0
-23 -44 -45 -64 -65 -83 -84 -118 -120 -134 -135 -149 -150 -190 -191 -201 -202 -211 -212 0
-23 -44 -45 -64 -65 -83 -84 -119 -120 -134 -136 -149 -150 -190 -191 -201 -202 -211 -212 0
-23 -44 -45 -64 -65 -83 -84 -119 -120 -135 -136 -149 -151 -190 -191 -201 -202 -211 -212 0
-23 -44 -45 -64 -65 -83 -84 -119 -120 -135 -136 -150 -151 -190 -192 -201 -202 -211 -212 0
-23 -44 -45 -64 -65 -83 -84 -119 -120 -135 -136 -150 -151 -191 -192 -201 -203 -211 -212 0
-23 -44 -45 -64 -65 -83 -84 -119 -120 -135 -136 -150 -151 -191 -192 -202 -203 -211 -213 0
-23 -44 -45 -64 -65 -83 -84 -119 -120 -135 -136 -150 -151 -191 -192 -202 -203 -212 -213 0
-23 -44 -45 -64 -65 -83 -84 -119 -120 -135 -136 -150 -151 -191 -192 -202 -203 -222 -223 0
-23 -44 -45 -64 -65 -83 -84 -119 -120 -135 -136 -150 -151 -191 -192 -213 -214 -222 -223 0
-23 -44 -45 -64 -65 -83 -84 -119 -120 -135 -136 -150 -151 -203 -204 -213 -214 -222 -223 0
-21 -42 -43 -62 -63 -81 -82 -117 -118 -133 -134 -163 -164 -176 -177 -188 -189 -199 -200 0
-22 -42 -44 -62 -63 -81 -82 -117 -118 -133 -134 -163 -164 -176 -177 -188 -189 -199 -200 0
-23 -42 -45 -62 -63 -81 -82 -117 -118 -133 -134 -163 -164 -176 -177 -188 -189 -199 -200 0
-22 -43 -44 -62 -64 -81 -82 -117 -118 -133 -134 -163 -164 -176 -177 -188 -189 -199 -200 0
-23 -43 -45 -62 -64 -81 -82 -117 -118 -133 -134 -163 -164 -176 -177 -188 -189 -199 -200 0
-23 -44 -45 -62 -65 -81 -82 -117 -118 -133 -134 -163 -164 -176 -177 -188 -189 -199 -200 0
-22 -43 -44 -63 -64 -81 -83 -117 -118 -133 -134 -163 -164 -176 -177 -188 -189 -199 -200 0
-23 -43 -45 -63 -64 -81 -83 -117 -118 -133 -134 -163 -164 -176 -177 -188 -189 -199 -200 0
-23 -44 -45 -63 -65 -81 -83 -117 -118 -133 -134 -163 -164 -176 -177 -188 -189 -199 -200 0
-23 -44 -45 -64 -65 -81 -84 -117 -118 -133 -134 -163 -164 -176 -177 -188 -189 -199 -200 0
-22 -43 -44 -63 -64 -82 -83 -117 -119 -133 -134 -163 -164 -176 -177 -188 -189 -199 -200 0
-23 -43 -45 -63 -64 -82 -83 -117 -119 -133 -134 -163 -164 -176 -177 -188 -189 -199 -200 0
-23 -44 -45 -63 -65 -82 -83 -117 -119 -133 -134 -163 -164 -176 -177 -188 -189 -199 -200 0
-23 -44 -45 -64 -65 -82 -84 -117 -119 -133 -134 -163 -164 -176 -177 -188 -189 -199 -200 0
-23 -44 -45 -64 -65 -83 -84 -117 -120 -133 -134 -163 -164 -176 -177 -188 -189 -199 -200 0
-22 -43 -44 -63 -64 -82 -83 -118 -119 -133 -135 -163 -164 -176 -177 -188 -189 -199 -200 0
-23 -43 -45 -63 -64 -82 -83 -118 -119 -133 -135 -163 -164 -176 -177 -188 -189 -199 -200 0
-23 -44 -45 -63 -65 -82 -83 -118 -119 -133 -135 -163 -164 -176 -177 -188 -189 -199 -200 0
-23 -44 -45 -64 -65 -82 -84 -118 -119 -133 -135 -163 -164 -176 -177 -188 -189 -199 -200 0
-23 -44 -45 -64 -65 -83 -84 -118 -120 -133 -135 -163 -164 -176 -177 -188 -189 -199 -200 0
-23 -44 -45 -64 -65 -83 -84 -119 -120 -133 -136 -163 -164 -176 -177 -188 -189 -199 -200 0
-22 -43 -44 -63 -64 -82 -83 -118 -119 -134 -135 -163 -165 -176 -177 -188 -189 -199 -200 0
-23 -43 -45 -63 -64 -82 -83 -118 -119 -134 -135 -163 -165 -176 -177 -188 -189 -199 -200 0
-23 -44 -45 -63 -65 -82 -83 -118 -119 -134 -135 -163 -165 -176 -177 -188 -189 -199 -200 0
-23 -44 -45 -64 -65 -82 -84 -118 -119 -134 -135 -163 -165 -176 -177 -188 -189 -199 -200 0
-23 -44 -45 -64 -65 -83 -84 -118 -120 -134 -135 -163 -165 -176 -177 -188 -189 -199 -200 0
-23 -44 -45 -64 -65 -83 -84 -119 -120 -134 -136 -163 -165 -176 -177 -188 -189 -199 -200 0
-23 -44 -45 -64 -65 -83 -84 -119 -120 -135 -136 -163 -166 -176 -177 -188 -189 -199 -200 0
-22 -43 -44 -63 -64 -82 -83 -118 -119 -134 -135 -164 -165 -176 -178 -188 -189 -199 -200 0
-23 -43 -45 -63 -64 -82 -83 -118 -119 -134 -135 -164 -165 -176 -178 -188 -189 -199 -200 0
-23 -44 -45 -63 -65 -82 -83 -118 -119 -134 -135 -164 -165 -176 -178 -188 -189 -199 -200 0
-23 -44 -45 -64 -65 -82 -84 -118 -119 -134 -135 -164 -165 -176 -178 -188 -189 -199 -200 0
-23 -44 -45 -64 -65 -83 -84 -118 -120 -134 -135 -164 -165 -176 -178 -188 -189 -199 -200 0
-23 -44 -45 -64 -65 -83 -84 -119 -120 -134 -136 -164 -165 -176 -178 -188 -189 -199 -200 0
-23 -44 -45 -64 -65 -83 -84 -119 -120 -135 -136 -164 -166 -176 -178 -188 -189 -199 -200 0
-23 -44 -45 -64 -65 -83 -84 -119 -120 -135 -136 -165 -166 -176 -179 -188 -189 -199 -200 0
-22 -43 -44 -63 -64 -82 -83 -118 -119 -134 -135 -164 -165 -177 -178 -188 -190 -199 -200 0
-23 -43 -45 -63 -64 -82 -83 -118 -119 -134 -135 -164 -165 -177 -178 -188 -190 -199 -200 0
-23 -44 -45 -63 -65 -82 -83 -118 -119 -134 -135 -164 -165 -177 -178 -188 -190 -199 -200 0
-23 -44 -45 -64 -65 -82 -84 -118 -119 -134 -135 -164 -165 -177 -178 -188 -190 -199 -200 0
-23 -44 -45 -64 -65 -83 -84 -118 -120 -134 -135 -164 -165 -177 -178 -188 -190 -199 -200 0
-23 -44 -45 -64 -65 -83 -84 -119 -120 -134 -136 -164 -165 -177 -178 -188 -190 -199 -200 0
-23 -44 -45 -64 -65 -83 -84 -119 -120 -135 -136 -164 -166 -177 -178 -188 -190 -199 -200 0
-23 -44 -45 -64 -65 -83 -84 -119 -120 -135 -136 -165 -166 -177 -179 -188 -190 -199 -200 0
-23 -44 -45 -64 -65 -83 -84 -119 -120 -135 -136 -165 -166 -178 -179 -188 -191 -199 -200 0
-22 -43 -44 -63 -64 -82 -83 -118 -119 -134 -135 -164 -165 -177 -178 -189 -190 -199 -201 0
-23 -43 -45 -63 -64 -82 -83 -118 -119 -134 -135 -164 -165 -177 -178 -189 -190 -199 -201 0
-23 -44 -45 -63 -65 -82 -83 -118 -119 -134 -135 -164 -165 -177 -178 -189 -190 -199 -201 0
-23 -44 -45 -64 -65 -82 -84 -118 -119 -134 -135 -164 -165 -177 -178 -189 -190 -199 -201 0
-23 -44 -45 -64 -65 -83 -84 -118 -120 -134 -135 -164 -165 -177 -178 -189 -190 -199 -201 0
-23 -44 -45 -64 -65 -83 -84 -119 -120 -134 -136 -164 -165 -177 -178 -189 -190 -199 -201 0
-23 -44 -45 -64 -65 -83 -84 -119 -120 -135 -136 -164 -166 -177 -178 -189 -190 -199 -201 0
-23 -44 -45 -64 -65 -83 -84 -119 -120 -135 -136 -165 -166 -177 -179 -189 -190 -199 -201 0
-23 -44 -45 -64 -65 -83 -84 -119 -120 -135 -136 -165 -166 -178 -179 -189 -191 -199 -201 0
-23 -44 -45 -64 -65 -83 -84 -119 -120 -135 -136 -165 -166 -178 -179 -190 -191 -199 -202 0
-22 -43 -44 -63 -64 -82 -83 -118 -119 -134 -135 -164 -165 -177 -178 -189 -190 -200 -201 0
-23 -43 -45 -63 -64 -82 -83 -118 -119 -134 -135 -164 -165 -177 -178 -189 -190 -200 -201 0
-23 -44 -45 -63 -65 -82 -83 -118 -119 -134 -135 -164 -165 -177 -178 -189 -190 -200 -201 0
-23 -44 -45 -64 -65 -82 -84 -118 -119 -134 -135 -164 -165 -177 -178 -189 -190 -200 -201 0
-23 -44 -45 -64 -65 -83 -84 -118 -120 -134 -135 -164 -165 -177 -178 -189 -190 -200 -201 0
-23 -44 -45 -64 -65 -83 -84 -119 -120 -134 -136 -164 -165 -177 -178 -189 -190 -200 -201 0
-23 -44 -45 -64 -65 -83 -84 -119 -120 -135 -136 -164 -166 -177 -178 -189 -190 -200 -201 0
-23 -44 -45 -64 -65 -83 -84 -119 -120 -135 -136 -165 -166 -177 -179 -189 -190 -200 -201 0
-23 -44 -45 -64 -65 -83 -84 -119 -120 -135 -136 -165 -166 -178 -179 -189 -191 -200 -201 0
-23 -44 -45 -64 -65 -83 -84 -119 -120 -135 -136 -165 -166 -178 -179 -190 -191 -200 -202 0
-23 -44 -45 -64 -65 -83 -84 -119 -120 -135 -136 -165 -166 -178 -179 -190 -191 -201 -202 0
-22 -43 -44 -63 -64 -82 -83 -118 -119 -134 -135 -164 -165 -177 -178 -189 -190 -211 -212 0
-23 -43 -45 -63 -64 -82 -83 -118 -119 -134 -135 -164 -165 -177 -178 -189 -190 -211 -212 0
-23 -44 -45 -63 -65 -82 -83 -118 -119 -134 -135 -164 -165 -177 -178 -189 -190 -211 -212 0
-23 -44 -45 -64 -65 -82 -84 -118 -119 -134 -135 -164 -165 -177 -178 -189 -190 -211 -212 0
-23 -44 -45 -64 -65 -83 -84 -118 -120 -134 -135 -164 -165 -177 -178 -189 -190 -211 -212 0
-23 -44 -45 -64 -65 -83 -84 -119 -120 -134 -136 -164 -165 -177 -178 -189 -190 -211 -212 0
-23 -44 -45 -64 -65 -83 -84 -119 -120 -135 -136 -164 -166 -177 -178 -189 -190 -211 -212 0
-23 -44 -45 -64 -65 -83 -84 -119 -120 -135 -136 -165 -166 -177 -179 -189 -190 -211 -212 0
-23 -44 -45 -64 -65 -83 -84 -119 -120 -135 -136 -165 -166 -178 -179 -189 -191 -211 -212 0
-23 -44 -45 -64 -65 -83 -84 -119 -120 -135 -136 -165 -166 -178 -179 -190 -191 -211 -213 0
-23 -44 -45 -64 -65 -83 -84 -119 -120 -135 -136 -165 -166 -178 -179 -190 -191 -212 -213 0
-23 -44 -45 -64 -65 -83 -84 -119 -120 -135 -136 -165 -166 -178 -179 -190 -191 -222 -223 0
-22 -43 -44 -63 -64 -82 -83 -118 -119 -134 -135 -164 -165 -177 -178 -201 -202 -211 -212 0
-23 -43 -45 -63 -64 -82 -83 -118 -119 -134 -135 -164 -165 -177 -178 -201 -202 -211 -212 0
-23 -44 -45 -63 -65 -82 -83 -118 -119 -134 -135 -164 -165 -177 -178 -201 -202 -211 -212 0
-23 -44 -45 -64 -65 -82 -84 -118 -119 -134 -135 -164 -165 -177 -178 -201 -202 -211 -212 0
-23 -44 -45 -64 -65 -83 -84 -118 -120 -134 -135 -164 -165 -177 -178 -201 -202 -211 -212 0
-23 -44 -45 -64 -65 -83 -84 -119 -120 -134 -136 -164 -165 -177 -178 -201 -202 -211 -212 0
-23 -44 -45 -64 -65 -83 -84 -119 -120 -135 -136 -164 -166 -177 -178 -201 -202 -211 -212 0
-23 -44 -45 -64 -65 -83 -84 -119 -120 -135 -136 -165 -166 -177 -179 -201 -202 -211 -212 0
-23 -44 -45 -64 -65 -83 -84 -119 -120 -135 -136 -165 -166 -178 -179 -201 -203 -211 -212 0
-23 -44 -45 -64 -65 -83 -84 -119 -120 -135 -136 -165 -166 -178 -179 -202 -203 -211 -213 0
-23 -44 -45 -64 -65 -83 -84 -119 -120 -135 -136 -165 -166 -178 -179 -202 -203 -212 -213 0
-23 -44 -45 -64 -65 -83 -84 -119 -120 -135 -136 -165 -166 -178 -179 -202 -203 -222 -223 0
-23 -44 -45 -64 -65 -83 -84 -119 -120 -135 -136 -165 -166 -178 -179 -213 -214 -222 -223 0
-22 -43 -44 -63 -64 -82 -83 -118 -119 -134 -135 -164 -165 -190 -191 -201 -202 -211 -212 0
-23 -43 -45 -63 -64 -82 -83 -118 -119 -134 -135 -164 -165 -190 -191 -201 -202 -211 -212 0
-23 -44 -45 -63 -65 -82 -83 -118 -119 -134 -135 -164 -165 -190 -191 -201 -202 -211 -212 0
-23 -44 -45 -64 -65 -82 -84 -118 -119 -134 -135 -164 -165 -190 -191 -201 -202 -211 -212 0
-23 -44 -45 -64 -65 -83 -84 -118 -120 -134 -135 -164 -165 -190 -191 -201 -202 -211 -212 0
-23 -44 -45 -64 -65 -83 -84 -119 -120 -134 -136 -164 -165 -190 -191 -201 -202 -211 -212 0
-23 -44 -45 -64 -65 -83 -84 -119 -120 -135 -136 -164 -166 -190 -191 -201 -202 -211 -212 0
-23 -44 -45 -64 -65 -83 -84 -119 -120 -135 -136 -165 -166 -190 -192 -201 -202 -211 -212 0
-23 -44 -45 -64 -65 -83 -84 -119 -120 -135 -136 -165 -166 -191 -192 -201 -203 -211 -212 0
-23 -44 -45 -64 -65 -83 -84 -119 -120 -135 -136 -165 -166 -191 -192 -202 -203 -211 -213 0
-23 -44 -45 -64 -65 -83 -84 -119 -120 -135 -136 -165 -166 -191 -192 -202 -203 -212 -213 0
-23 -44 -45 -64 -65 -83 -84 -119 -120 -135 -136 -165 -166 -191 -192 -202 -203 -222 -223 0
-23 -44 -45 -64 -65 -83 -84 -119 -120 -135 -136 -165 -166 -191 -192 -213 -214 -222 -223 0
-23 -44 -45 -64 -65 -83 -84 -119 -120 -135 -136 -165 -166 -203 -204 -213 -214 -222 -223 0
-22 -43 -44 -63 -64 -82 -83 -118 -119 -134 -135 -178 -179 -190 -191 -201 -202 -211 -212 0
-23 -43 -45 -63 -64 -82 -83 -118 -119 -134 -135 -178 -179 -190 -191 -201 -202 -211 -212 0
-23 -44 -45 -63 -65 -82 -83 -118 -119 -134 -135 -178 -179 -190 -191 -201 -202 -211 -212 0
-23 -44 -45 -64 -65 -82 -84 -118 -119 -134 -135 -178 -179 -190 -191 -201 -202 -211 -212 0
-23 -44 -45 -64 -65 -83 -84 -118 -120 -134 -135 -178 -179 -190 -191 -201 -202 -211 -212 0
-23 -44 -45 -64 -65 -83 -84 -119 -120 -134 -136 -178 -179 -190 -191 -201 -202 -211 -212 0
-23 -44 -45 -64 -65 -83 -84 -119 -120 -135 -136 -178 -180 -190 -191 -201 -202 -211 -212 0
-23 -44 -45 -64 -65 -83 -84 -119 -120 -135 -136 -179 -180 -190 -192 -201 -202 -211 -212 0
-23 -44 -45 -64 -65 -83 -84 -119 -120 -135 -136 -179 -180 -191 -192 -201 -203 -211 -212 0
-23 -44 -45 -64 -65 -83 -84 -119 -120 -135 -136 -179 -180 -191 -192 -202 -203 -211 -213 0
-23 -44 -45 -64 -65 -83 -84 -119 -120 -135 -136 -179 -180 -191 -192 -202 -203 -212 -213 0
-23 -44 -45 -64 -65 -83 -84 -119 -120 -135 -136 -179 -180 -191 -192 -202 -203 -222 -223 0
-23 -44 -45 -64 -65 -83 -84 -119 -120 -135 -136 -179 -180 -191 -192 -213 -214 -222 -223 0
-23 -44 -45 -64 -65 -83 -84 -119 -120 -135 -136 -179 -180 -203 -204 -213 -214 -222 -223 0
-23 -44 -45 -64 -65 -83 -84 -119 -120 -135 -136 -192 -193 -203 -204 -213 -214 -222 -223 0
-21 -42 -43 -62 -63 -81 -82 -117 -118 -149 -150 -163 -164 -176 -177 -188 -189 -199 -200 0
-22 -42 -44 -62 -63 -81 -82 -117 -118 -149 -150 -163 -164 -176 -177 -188 -189 -199 -200 0
-23 -42 -45 -62 -63 -81 -82 -117 -118 -149 -150 -163 -164 -176 -177 -188 -189 -199 -200 0
-22 -43 -44 -62 -64 -81 -82 -117 -118 -149 -150 -163 -164 -176 -177 -188 -189 -199 -200 0
-23 -43 -45 -62 -64 -81 -82 -117 -118 -149 -150 -163 -164 -176 -177 -188 -189 -199 -200 0
-23 -44 -45 -62 -65 -81 -82 -117 -118 -149 -150 -163 -164 -176 -177 -188 -189 -199 -200 0
-22 -43 -44 -63 -64 -81 -83 -117 -118 -149 -150 -163 -164 -176 -177 -188 -189 -199 -200 0
-23 -43 -45 -63 -64 -81 -83 -117 -118 -149 -150 -163 -164 -176 -177 -188 -189 -199 -200 0
-23 -44 -45 -63 -65 -81 -83 -117 -118 -149 -150 -163 -164 -176 -177 -188 -189 -199 -200 0
-23 -44 -45 -64 -65 -81 -84 -117 -118 -149 -150 -163 -164 -176 -177 -188 -189 -199 -200 0
-22 -43 -44 -63 -64 -82 -83 -117 -119 -149 -150 -163 -164 -176 -177 -188 -189 -199 -200 0
-23 -43 -45 -63 -64 -82 -83 -117 -119 -149 -150 -163 -164 -176 -177 -188 -189 -199 -200 0
-23 -44 -45 -63 -65 -82 -83 -117 -119 -149 -150 -163 -164 -176 -177 -188 -189 -199 -200 0
-23 -44 -45 -64 -65 -82 -84 -117 -119 -149 -150 -163 -164 -176 -177 -188 -189 -199 -200 0
-23 -44 -45 -64 -65 -83 -84 -117 -120 -149 -150 -163 -164 -176 -177 -188 -189 -199 -200 0
-22 -43 -44 -63 -64 -82 -83 -118 -119 -149 -151 -163 -164 -176 -177 -188 -189 -199 -200 0
-23 -43 -45 -63 -64 -82 -83 -118 -119 -149 -151 -163 -164 -176 -177 -188 -189 -199 -200 0
-23 -44 -45 -63 -65 -82 -83 -118 -119 -149 -151 -163 -164 -176 -177 -188 -189 -199 -200 0
-23 -44 -45 -64 -65 -82 -84 -118 -119 -149 -151 -163 -164 -176 -177 -188 -189 -199 -200 0
-23 -44 -45 -64 -65 -83 -84 -118 -120 -149 -151 -163 -164 -176 -177 -188 -189 -199 -200 0
-23 -44 -45 -64 -65 -83 -84 -119 -120 -149 -152 -163 -164 -176 -177 -188 -189 -199 -200 0
-22 -43 -44 -63 -64 -82 -83 -118 -119 -150 -151 -163 -165 -176 -177 -188 -189 -199 -200 0
-23 -43 -45 -63 -64 -82 -83 -118 -119 -150 -151 -163 -165 -176 -177 -188 -189 -199 -200 0
-23 -44 -45 -63 -65 -82 -83 -118 -119 -150 -151 -163 -165 -176 -177 -188 -189 -199 -200 0
-23 -44 -45 -64 -65 -82 -84 -118 -119 -150 -151 -163 -165 -176 -177 -188 -189 -199 -200 0
-23 -44 -45 -64 -65 -83 -84 -118 -120 -150 -151 -163 -165 -176 -177 -188 -189 -199 -200 0
-23 -44 -45 -64 -65 -83 -84 -119 -120 -150 -152 -163 -165 -176 -177 -188 -189 -199 -200 0
-23 -44 -45 -64 -65 -83 -84 -119 -120 -151 -152 -163 -166 -176 -177 -188 -189 -199 -200 0
-22 -43 -44 -63 -64 -82 -83 -118 -119 -150 -151 -164 -165 -176 -178 -188 -189 -199 -200 0
-23 -43 -45 -63 -64 -82 -83 -118 -119 -150 -151 -164 -165 -176 -178 -188 -189 -199 -200 0
-23 -44 -45 -63 -65 -82 -83 -118 -119 -150 -151 -164 -165 -176 -178 -188 -189 -199 -200 0
-23 -44 -45 -64 -65 -82 -84 -118 -119 -150 -151 -164 -165 -176 -178 -188 -189 -199 -200 0
-23 -44 -45 -64 -65 -83 -84 -118 -120 -150 -151 -164 -165 -176 -178 -188 -189 -199 -200 0
-23 -44 -45 -64 -65 -83 -84 -119 -120 -150 -152 -164 -165 -176 -178 -188 -189 -199 -200 0
-23 -44 -45 -64 -65 -83 -84 -119 -120 -151 -152 -164 -166 -176 -178 -188 -189 -199 -200 0
-23 -44 -45 -64 -65 -83 -84 -119 -120 -151 -152 -165 -166 -176 -179 -188 -189 -199 -200 0
-22 -43 -44 -63 -64 -82 -83 -118 -119 -150 -151 -164 -165 -177 -178 -188 -190 -199 -200 0
-23 -43 -45 -63 -64 -82 -83 -118 -119 -150 -151 -164 -165 -177 -178 -188 -190 -199 -200 0
-23 -44 -45 -63 -65 -82 -83 -118 -119 -150 -151 -164 -165 -177 -178 -188 -190 -199 -200 0
-23 -44 -45 -64 -65 -82 -84 -118 -119 -150 -151 -164 -165 -177 -178 -188 -190 -199 -200 0
-23 -44 -45 -64 -65 -83 -84 -118 -120 -150 -151 -164 -165 -177 -178 -188 -190 -199 -200 0
-23 -44 -45 -64 -65 -83 -84 -119 -120 -150 -152 -164 -165 -177 -178 -188 -190 -199 -200 0
-23 -44 -45 -64 -65 -83 -84 -119 -120 -151 -152 -164 -166 -177 -178 -188 -190 -199 -200 0
-23 -44 -45 -64 -65 -83 -84 -119 -120 -151 -152 -165 -166 -177 -179 -188 -190 -199 -200 0
-23 -44 -45 -64 -65 -83 -84 -119 -120 -151 -152 -165 -166 -178 -179 -188 -191 -199 -200 0
-22 -43 -44 -63 -64 -82 -83 -118 -119 -150 -151 -164 -165 -177 -178 -189 -190 -199 -201 0
-23 -43 -45 -63 -64 -82 -83 -118 -119 -150 -151 -164 -165 -177 -178 -189 -190 -199 -201 0
-23 -44 -45 -63 -65 -82 -83 -118 -119 -150 -151 -164 -165 -177 -178 -189 -190 -199 -201 0
-23 -44 -45 -64 -65 -82 -84 -118 -119 -150 -151 -164 -165 -177 -178 -189 -190 -199 -201 0
-23 -44 -45 -64 -65 -83 -84 -118 -120 -150 -151 -164 -165 -177 -178 -189 -190 -199 -201 0
-23 -44 -45 -64 -65 -83 -84 -119 -120 -150 -152 -164 -165 -177 -178 -189 -190 -199 -201 0
-23 -44 -45 -64 -65 -83 -84 -119 -120 -151 -152 -164 -166 -177 -178 -189 -190 -199 -201 0
-23 -44 -45 -64 -65 -83 -84 -119 -120 -151 -152 -165 -166 -177 -179 -189 -190 -199 -201 0
-23 -44 -45 -64 -65 -83 -84 -119 -120 -151 -152 -165 -166 -178 -179 -189 -191 -199 -201 0
-23 -44 -45 -64 -65 -83 -84 -119 -120 -151 -152 -165 -166 -178 -179 -190 -191 -199 -202 0
-22 -43 -44 -63 -64 -82 -83 -118 -119 -150 -151 -164 -165 -177 -178 -189 -190 -200 -201 0
-23 -43 -45 -63 -64 -82 -83 -118 -119 -150 -151 -164 -165 -177 -178 -189 -190 -200 -201 0
-23 -44 -45 -63 -65 -82 -83 -118 -119 -150 -151 -164 -165 -177 -178 -189 -190 -200 -201 0
-23 -44 -45 -64 -65 -82 -84 -118 -119 -150 -151 -164 -165 -177 -178 -189 -190 -200 -201 0
-23 -44 -45 -64 -65 -83 -84 -118 -120 -150 -151 -164 -165 -177 -178 -189 -190 -200 -201 0
-23 -44 -45 -64 -65 -83 -84 -119 -120 -150 -152 -164 -165 -177 -178 -189 -190 -200 -201 0
-23 -44 -45 -64 -65 -83 -84 -119 -120 -151 -152 -164 -166 -177 -178 -189 -190 -200 -201 0
-23 -44 -45 -64 -65 -83 -84 -119 -120 -151 -152 -165 -166 -177 -179 -189 -190 -200 -201 0
-23 -44 -45 -64 -65 -83 -84 -119 -120 -151 -152 -165 -166 -178 -179 -189 -191 -200 -201 0
-23 -44 -45 -64 -65 -83 -84 -119 -120 -151 -152 -165 -166 -178 -179 -190 -191 -200 -202 0
-23 -44 -45 -64 -65 -83 -84 -119 -120 -151 -152 -165 -166 -178 -179 -190 -191 -201 -202 0
-22 -43 -44 -63 -64 -82 -83 -118 -119 -150 -151 -164 -165 -177 -178 -189 -190 -211 -212 0
-23 -43 -45 -63 -64 -82 -83 -118 -119 -150 -151 -164 -165 -177 -178 -189 -190 -211 -212 0
-23 -44 -45 -63 -65 -82 -83 -118 -119 -150 -151 -164 -165 -177 -178 -189 -190 -211 -212 0
-23 -44 -45 -64 -65 -82 -84 -118 -119 -150 -151 -164 -165 -177 -178 -189 -190 -211 -212 0
-23 -44 -45 -64 -65 -83 -84 -118 -120 -150 -151 -164 -165 -177 -178 -189 -190 -211 -212 0
-23 -44 -45 -64 -65 -83 -84 -119 -120 -150 -152 -164 -165 -177 -178 -189 -190 -211 -212 0
-23 -44 -45 -64 -65 -83 -84 -119 -120 -151 -152 -164 -166 -177 -178 -189 -190 -211 -212 0
-23 -44 -45 -64 -65 -83 -84 -119 -120 -151 -152 -165 -166 -177 -179 -189 -190 -211 -212 0
-23 -44 -45 -64 -65 -83 -84 -119 -120 -151 -152 -165 -166 -178 -179 -189 -191 -211 -212 0
-23 -44 -45 -64 -65 -83 -84 -119 -120 -151 -152 -165 -166 -178 -179 -190 -191 -211 -213 0
-23 -44 -45 -64 -65 -83 -84 -119 -120 -151 -152 -165 -166 -178 -179 -190 -191 -212 -213 0
-23 -44 -45 -64 -65 -83 -84 -119 -120 -151 -152 -165 -166 -178 -179 -190 -191 -222 -223 0
-22 -43 -44 -63 -64 -82 -83 -118 -119 -150 -151 -164 -165 -177 -178 -201 -202 -211 -212 0
-23 -43 -45 -63 -64 -82 -83 -118 -119 -150 -151 -164 -165 -177 -178 -201 -202 -211 -212 0
-23 -44 -45 -63 -65 -82 -83 -118 -119 -150 -151 -164 -165 -177 -178 -201 -202 -211 -212 0
-23 -44 -45 -64 -65 -82 -84 -118 -119 -150 -151 -164 -165 -177 -178 -201 -202 -211 -212 0
-23 -44 -45 -64 -65 -83 -84 -118 -120 -150 -151 -164 -165 -177 -178 -201 -202 -211 -212 0
-23 -44 -45 -64 -65 -83 -84 -119 -120 -150 -152 -164 -165 -177 -178 -201 -202 -211 -212 0
-23 -44 -45 -64 -65 -83 -84 -119 -120 -151 -152 -164 -166 -177 -178 -201 -202 -211 -212 0
-23 -44 -45 -64 -65 -83 -84 -119 -120 -151 -152 -165 -166 -177 -179 -201 -202 -211 -212 0
-23 -44 -45 -64 -65 -83 -84 -119 -120 -151 -152 -165 -166 -178 -179 -201 -203 -211 -212 0
-23 -44 -45 -64 -65 -83 -84 -119 -120 -151 -152 -165 -166 -178 -179 -202 -203 -211 -213 0
-23 -44 -45 -64 -65 -83 -84 -119 -120 -151 -152 -165 -166 -178 -179 -202 -203 -212 -213 0
-23 -44 -45 -64 -65 -83 -84 -119 -120 -151 -152 -165 -166 -178 -179 -202 -203 -222 -223 0
-23 -44 -45 -64 -65 -83 -84 -119 -120 -151 -152 -165 -166 -178 -179 -213 -214 -222 -223 0
-22 -43 -44 -63 -64 -82 -83 -118 -119 -150 -151 -164 -165 -190 -191 -201 -202 -211 -212 0
-23 -43 -45 -63 -64 -82 -83 -118 -119 -150 -151 -164 -165 -190 -191 -201 -202 -211 -212 0
-23 -44 -45 -63 -65 -82 -83 -118 -119 -150 -151 -164 -165 -190 -191 -201 -202 -211 -212 0
-23 -44 -45 -64 -65 -82 -84 -118 -119 -150 -151 -164 -165 -190 -191 -201 -202 -211 -212 0
-23 -44 -45 -64 -65 -83 -84 -118 -120 -150 -151 -164 -165 -190 -191 -201 -202 -211 -212 0
-23 -44 -45 -64 -65 -83 -84 -119 -120 -150 -152 -164 -165 -190 -191 -201 -202 -211 -212 0
-23 -44 -45 -64 -65 -83 -84 -119 -120 -151 -152 -164 -166 -190 -191 -201 -202 -211 -212 0
-23 -44 -45 -64 -65 -83 -84 -119 -120 -151 -152 -165 -166 -190 -192 -201 -202 -211 -212 0
-23 -44 -45 -64 -65 -83 -84 -119 -120 -151 -152 -165 -166 -191 -192 -201 -203 -211 -212 0
-23 -44 -45 -64 -65 -83 -84 -119 -120 -151 -152 -165 -166 -191 -192 -202 -203 -211 -213 0
-23 -44 -45 -64 -65 -83 -84 -119 -120 -151 -152 -165 -166 -191 -192 -202 -203 -212 -213 0
-23 -44 -45 -64 -65 -83 -84 -119 -120 -151 -152 -165 -166 -191 -192 -202 -203 -222 -223 0
-23 -44 -45 -64 -65 -83 -84 -119 -120 -151 -152 -165 -166 -191 -192 -213 -214 -222 -223 0
-23 -44 -45 -64 -65 -83 -84 -119 -120 -151 -152 -165 -166 -203 -204 -213 -214 -222 -223 0
-22 -43 -44 -63 -64 -82 -83 -118 -119 -150 -151 -178 -179 -190 -191 -201 -202 -211 -212 0
-23 -43 -45 -63 -64 -82 -83 -118 -119 -150 -151 -178 -179 -190 -191 -201 -202 -211 -212 0
-23 -44 -45 -63 -65 -82 -83 -118 -119 -150 -151 -178 -179 -190 -191 -201 -202 -211 -212 0
-23 -44 -45 -64 -65 -82 -84 -118 -119 -150 -151 -178 -179 -190 -191 -201 -202 -211 -212 0
-23 -44 -45 -64 -65 -83 -84 -118 -120 -150 -151 -178 -179 -190 -191 -201 -202 -211 -212 0
-23 -44 -45 -64 -65 -83 -84 -119 -120 -150 -152 -178 -179 -190 -191 -201 -202 -211 -212 0
-23 -44 -45 -64 -65 -83 -84 -119 -120 -151 -152 -178 -180 -190 -191 -201 -202 -211 -212 0
-23 -44 -45 -64 -65 -83 -84 -119 -120 -151 -152 -179 -180 -190 -192 -201 -202 -211 -212 0
-23 -44 -45 -64 -65 -83 -84 -119 -120 -151 -152 -179 -180 -191 -192 -201 -203 -211 -212 0
-23 -44 -45 -64 -65 -83 -84 -119 -120 -151 -152 -179 -180 -191 -192 -202 -203 -211 -213 0
-23 -44 -45 -64 -65 -83 -84 -119 -120 -151 -152 -179 -180 -191 -192 -202 -203 -212 -213 0
-23 -44 -45 -64 -65 -83 -84 -119 -120 -151 -152 -179 -180 -191 -192 -202 -203 -222 -223 0
-23 -44 -45 -64 -65 -83 -84 -119 -120 -151 -152 -179 -180 -191 -192 -213 -214 -222 -223 0
-23 -44 -45 -64 -65 -83 -84 -119 -120 -151 -152 -179 -180 -203 -204 -213 -214 -222 -223 0
-23 -44 -45 -64 -65 -83 -84 -119 -120 -151 -152 -192 -193 -203 -204 -213 -214 -222 -223 0
-22 -43 -44 -63 -64 -82 -83 -118 -119 -165 -166 -178 -179 -190 -191 -201 -202 -211 -212 0
-23 -43 -45 -63 -64 -82 -83 -118 -119 -165 -166 -178 -179 -190 -191 -201 -202 -211 -212 0
-23 -44 -45 -63 -65 -82 -83 -118 -119 -165 -166 -178 -179 -190 -191 -201 -202 -211 -212 0
-23 -44 -45 -64 -65 -82 -84 -118 -119 -165 -166 -178 -179 -190 -191 -201 -202 -211 -212 0
-23 -44 -45 -64 -65 -83 -84 -118 -120 -165 -166 -178 -179 -190 -191 -201 -202 -211 -212 0
-23 -44 -45 -64 -65 -83 -84 -119 -120 -165 -167 -178 -179 -190 -191 -201 -202 -211 -212 0
-23 -44 -45 -64 -65 -83 -84 -119 -120 -166 -167 -178 -180 -190 -191 -201 -202 -211 -212 0
-23 -44 -45 -64 -65 -83 -84 -119 -120 -166 -167 -179 -180 -190 -192 -201 -202 -211 -212 0
-23 -44 -45 -64 -65 -83 -84 -119 -120 -166 -167 -179 -180 -191 -192 -201 -203 -211 -212 0
-23 -44 -45 -64 -65 -83 -84 -119 -120 -166 -167 -179 -180 -191 -192 -202 -203 -211 -213 0
-23 -44 -45 -64 -65 -83 -84 -119 -120 -166 -167 -179 -180 -191 -192 -202 -203 -212 -213 0
-23 -44 -45 -64 -65 -83 -84 -119 -120 -166 -167 -179 -180 -191 -192 -202 -203 -222 -223 0
-23 -44 -45 -64 -65 -83 -84 -119 -120 -166 -167 -179 -180 -191 -192 -213 -214 -222 -223 0
-23 -44 -45 -64 -65 -83 -84 -119 -120 -166 -167 -179 -180 -203 -204 -213 -214 -222 -223 0
-23 -44 -45 -64 -65 -83 -84 -119 -120 -166 -167 -192 -193 -203 -204 -213 -214 -222 -223 0
-23 -44 -45 -64 -65 -83 -84 -119 -120 -180 -181 -192 -193 -203 -204 -213 -214 -222 -223 0
-21 -42 -43 -62 -63 -81 -82 -134 -135 -149 -150 -163 -164 -176 -177 -188 -189 -199 -200 0
-22 -42 -44 -62 -63 -81 -82 -134 -135 -149 -150 -163 -164 -176 -177 -188 -189 -199 -200 0
-23 -42 -45 -62 -63 -81 -82 -134 -135 -149 -150 -163 -164 -176 -177 -188 -189 -199 -200 0
-22 -43 -44 -62 -64 -81 -82 -134 -135 -149 -150 -163 -164 -176 -177 -188 -189 -199 -200 0
-23 -43 -45 -62 -64 -81 -82 -134 -135 -149 -150 -163 -164 -176 -177 -188 -189 -199 -200 0
-23 -44 -45 -62 -65 -81 -82 -134 -135 -149 -150 -163 -164 -176 -177 -188 -189 -199 -200 0
-22 -43 -44 -63 -64 -81 -83 -134 -135 -149 -150 -163 -164 -176 -177 -188 -189 -199 -200 0
-23 -43 -45 -63 -64 -81 -83 -134 -135 -149 -150 -163 -164 -176 -177 -188 -189 -199 -200 0
-23 -44 -45 -63 -65 -81 -83 -134 -135 -149 -150 -163 -164 -176 -177 -188 -189 -199 -200 0
-23 -44 -45 -64 -65 -81 -84 -134 -135 -149 -150 -163 -164 -176 -177 -188 -189 -199 -200 0
-22 -43 -44 -63 -64 -82 -83 -134 -136 -149 -150 -163 -164 -176 -177 -188 -189 -199 -200 0
-23 -43 -45 -63 -64 -82 -83 -134 -136 -149 -150 -163 -164 -176 -177 -188 -189 -199 -200 0
-23 -44 -45 -63 -65 -82 -83 -134 -136 -149 -150 -163 -164 -176 -177 -188 -189 -199 -200 0
-23 -44 -45 -64 -65 -82 -84 -134 -136 -149 -150 -163 -164 -176 -177 -188 -189 -199 -200 0
-23 -44 -45 -64 -65 -83 -84 -134 -137 -149 -150 -163 -164 -176 -177 -188 -189 -199 -200 0
-22 -43 -44 -63 -64 -82 -83 -135 -136 -149 -151 -163 -164 -176 -177 -188 -189 -199 -200 0
-23 -43 -45 -63 -64 -82 -83 -135 -136 -149 -151 -163 -164 -176 -177 -188 -189 -199 -200 0
-23 -44 -45 -63 -65 -82 -83 -135 -136 -149 -151 -163 -164 -176 -177 -188 -189 -199 -200 0
-23 -44 -45 -64 -65 -82 -84 -135 -136 -149 -151 -163 -164 -176 -177 -188 -189 -199 -200 0
-23 -44 -45 -64 -65 -83 -84 -135 -137 -149 -151 -163 -164 -176 -177 -188 -189 -199 -200 0
-23 -44 -45 -64 -65 -83 -84 -136 -137 -149 -152 -163 -164 -176 -177 -188 -189 -199 -200 0
-22 -43 -44 -63 -64 -82 -83 -135 -136 -150 -151 -163 -165 -176 -177 -188 -189 -199 -200 0
-23 -43 -45 -63 -64 -82 -83 -135 -136 -150 -151 -163 -165 -176 -177 -188 -189 -199 -200 0
-23 -44 -45 -63 -65 -82 -83 -135 -136 -150 -151 -163 -165 -176 -177 -188 -189 -199 -200 0
-23 -44 -45 -64 -65 -82 -84 -135 -136 -150 -151 -163 -165 -176 -177 -188 -189 -199 -200 0
-23 -44 -45 -64 -65 -83 -84 -135 -137 -150 -151 -163 -165 -176 -177 -188 -189 -199 -200 0
-23 -44 -45 -64 -65 -83 -84 -136 -137 -150 -152 -163 -165 -176 -177 -188 -189 -199 -200 0
-23 -44 -45 -64 -65 -83 -84 -136 -137 -151 -152 -163 -166 -176 -177 -188 -189 -199 -200 0
-22 -43 -44 -63 -64 -82 -83 -135 -136 -150 -151 -164 -165 -176 -178 -188 -189 -199 -200 0
-23 -43 -45 -63 -64 -82 -83 -135 -136 -150 -151 -164 -165 -176 -178 -188 -189 -199 -200 0
-23 -44 -45 -63 -65 -82 -83 -135 -136 -150 -151 -164 -165 -176 -178 -188 -189 -199 -200 0
-23 -44 -45 -64 -65 -82 -84 -135 -136 -150 -151 -164 -165 -176 -178 -188 -189 -199 -200 0
-23 -44 -45 -64 -65 -83 -84 -135 -137 -150 -151 -164 -165 -176 -178 -188 -189 -199 -200 0
-23 -44 -45 -64 -65 -83 -84 -136 -137 -150 -152 -164 -165 -176 -178 -188 -189 -199 -200 0
-23 -44 -45 -64 -65 -83 -84 -136 -137 -151 -152 -164 -166 -176 -178 -188 -189 -199 -200 0
-23 -44 -45 -64 -65 -83 -84 -136 -137 -151 -152 -165 -166 -176 -179 -188 -189 -199 -200 0
-22 -43 -44 -63 -64 -82 -83 -135 -136 -150 -151 -164 -165 -177 -178 -188 -190 -199 -200 0
-23 -43 -45 -63 -64 -82 -83 -135 -136 -150 -151 -164 -165 -177 -178 -188 -190 -199 -200 0
-23 -44 -45 -63 -65 -82 -83 -135 -136 -150 -151 -164 -165 -177 -178 -188 -190 -199 -200 0
-23 -44 -45 -64 -65 -82 -84 -135 -136 -150 -151 -164 -165 -177 -178 -188 -190 -199 -200 0
-23 -44 -45 -64 -65 -83 -84 -135 -137 -150 -151 -164 -165 -177 -178 -188 -190 -199 -200 0
-23 -44 -45 -64 -65 -83 -84 -136 -137 -150 -152 -164 -165 -177 -178 -188 -190 -199 -200 0
-23 -44 -45 -64 -65 -83 -84 -136 -137 -151 -152 -164 -166 -177 -178 -188 -190 -199 -200 0
-23 -44 -45 -64 -65 -83 -84 -136 -137 -151 -152 -165 -166 -177 -179 -188 -190 -199 -200 0
-23 -44 -45 -64 -65 -83 -84 -136 -137 -151 -152 -165 -166 -178 -179 -188 -191 -199 -200 0
-22 -43 -44 -63 -64 -82 -83 -135 -136 -150 -151 -164 -165 -177 -178 -189 -190 -199 -201 0
-23 -43 -45 -63 -64 -82 -83 -135 -136 -150 -151 -164 -165 -177 -178 -189 -190 -199 -201 0
-23 -44 -45 -63 -65 -82 -83 -135 -136 -150 -151 -164 -165 -177 -178 -189 -190 -199 -201 0
-23 -44 -45 -64 -65 -82 -84 -135 -136 -150 -151 -164 -165 -177 -178 -189 -190 -199 -201 0
-23 -44 -45 -64 -65 -83 -84 -135 -137 -150 -151 -164 -165 -177 -178 -189 -190 -199 -201 0
-23 -44 -45 -64 -65 -83 -84 -136 -137 -150 -152 -164 -165 -177 -178 -189 -190 -199 -201 0
-23 -44 -45 -64 -65 -83 -84 -136 -137 -151 -152 -164 -166 -177 -178 -189 -190 -199 -201 0
-23 -44 -45 -64 -65 -83 -84 -136 -137 -151 -152 -165 -166 -177 -179 -189 -190 -199 -201 0
-23 -44 -45 -64 -65 -83 -84 -136 -137 -151 -152 -165 -166 -178 -179 -189 -191 -199 -201 0
-23 -44 -45 -64 -65 -83 -84 -136 -137 -151 -152 -165 -166 -178 -179 -190 -191 -199 -202 0
-22 -43 -44 -63 -64 -82 -83 -135 -136 -150 -151 -164 -165 -177 -178 -189 -190 -200 -201 0
-23 -43 -45 -63 -64 -82 -83 -135 -136 -150 -151 -164 -165 -177 -178 -189 -190 -200 -201 0
-23 -44 -45 -63 -65 -82 -83 -135 -136 -150 -151 -164 -165 -177 -178 -189 -190 -200 -201 0
-23 -44 -45 -64 -65 -82 -84 -135 -136 -150 -151 -164 -165 -177 -178 -189 -190 -200 -201 0
-23 -44 -45 -64 -65 -83 -84 -135 -137 -150 -151 -164 -165 -177 -178 -189 -190 -200 -201 0
-23 -44 -45 -64 -65 -83 -84 -136 -137 -150 -152 -164 -165 -177 -178 -189 -190 -200 -201 0
-23 -44 -45 -64 -65 -83 -84 -136 -137 -151 -152 -164 -166 -177 -178 -189 -190 -200 -201 0
-23 -44 -45 -64 -65 -83 -84 -136 -137 -151 -152 -165 -166 -177 -179 -189 -190 -200 -201 0
-23 -44 -45 -64 -65 -83 -84 -136 -137 -151 -152 -165 -166 -178 -179 -189 -191 -200 -201 0
-23 -44 -45 -64 -65 -83 -84 -136 -137 -151 -152 -165 -166 -178 -179 -190 -191 -200 -202 0
-23 -44 -45 -64 -65 -83 -84 -136 -137 -151 -152 -165 -166 -178 -179 -190 -191 -201 -202 0
-22 -43 -44 -63 -64 -82 -83 -135 -136 -150 -151 -164 -165 -177 -178 -189 -190 -211 -212 0
-23 -43 -45 -63 -64 -82 -83 -135 -136 -150 -151 -164 -165 -177 -178 -189 -190 -211 -212 0
-23 -44 -45 -63 -65 -82 -83 -135 -136 -150 -151 -164 -165 -177 -178 -189 -190 -211 -212 0
-23 -44 -45 -64 -65 -82 -84 -135 -136 -150 -151 -164 -165 -177 -178 -189 -190 -211 -212 0
-23 -44 -45 -64 -65 -83 -84 -135 -137 -150 -151 -164 -165 -177 -178 -189 -190 -211 -212 0
-23 -44 -45 -64 -65 -83 -84 -136 -137 -150 -152 -164 -165 -177 -178 -189 -190 -211 -212 0
-23 -44 -45 -64 -65 -83 -84 -136 -137 -151 -152 -164 -166 -177 -178 -189 -190 -211 -212 0
-23 -44 -45 -64 -65 -83 -84 -136 -137 -151 -152 -165 -166 -177 -179 -189 -190 -211 -212 0
-23 -44 -45 -64 -65 -83 -84 -136 -137 -151 -152 -165 -166 -178 -179 -189 -191 -211 -212 0
-23 -44 -45 -64 -65 -83 -84 -136 -137 -151 -152 -165 -166 -178 -179 -190 -191 -211 -213 0
-23 -44 -45 -64 -65 -83 -84 -136 -137 -151 -152 -165 -166 -178 -179 -190 -191 -212 -213 0
-23 -44 -45 -64 -65 -83 -84 -136 -137 -151 -152 -165 -166 -178 -179 -190 -191 -222 -223 0
-22 -43 -44 -63 -64 -82 -83 -135 -136 -150 -151 -164 -165 -177 -178 -201 -202 -211 -212 0
-23 -43 -45 -63 -64 -82 -83 -135 -136 -150 -151 -164 -165 -177 -178 -201 -202 -211 -212 0
-23 -44 -45 -63 -65 -82 -83 -135 -136 -150 -151 -164 -165 -177 -178 -201 -202 -211 -212 0
-23 -44 -45 -64 -65 -82 -84 -135 -136 -150 -151 -164 -165 -177 -178 -201 -202 -211 -212 0
-23 -44 -45 -64 -65 -83 -84 -135 -137 -150 -151 -164 -165 -177 -178 -201 -202 -211 -212 0
-23 -44 -45 -64 -65 -83 -84 -136 -137 -150 -152 -164 -165 -177 -178 -201 -202 -211 -212 0
-23 -44 -45 -64 -65 -83 -84 -136 -137 -151 -152 -164 -166 -177 -178 -201 -202 -211 -212 0
-23 -44 -45 -64 -65 -83 -84 -136 -137 -151 -152 -165 -166 -177 -179 -201 -202 -211 -212 0
-23 -44 -45 -64 -65 -83 -84 -136 -137 -151 -152 -165 -166 -178 -179 -201 -203 -211 -212 0
-23 -44 -45 -64 -65 -83 -84 -136 -137 -151 -152 -165 -166 -178 -179 -202 -203 -211 -213 0
-23 -44 -45 -64 -65 -83 -84 -136 -137 -151 -152 -165 -166 -178 -179 -202 -203 -212 -213 0
-23 -44 -45 -64 -65 -83 -84 -136 -137 -151 -152 -165 -166 -178 -179 -202 -203 -222 -223 0
-23 -44 -45 -64 -65 -83 -84 -136 -137 -151 -152 -165 -166 -178 -179 -213 -214 -222 -223 0
-22 -43 -44 -63 -64 -82 -83 -135 -136 -150 -151 -164 -165 -190 -191 -201 -202 -211 -212 0
-23 -43 -45 -63 -64 -82 -83 -135 -136 -150 -151 -164 -165 -190 -191 -201 -202 -211 -212 0
-23 -44 -45 -63 -65 -82 -83 -135 -136 -150 -151 -164 -165 -190 -191 -201 -202 -211 -212 0
-23 -44 -45 -64 -65 -82 -84 -135 -136 -150 -151 -164 -165 -190 -191 -201 -202 -211 -212 0
-23 -44 -45 -64 -65 -83 -84 -135 -137 -150 -151 -164 -165 -190 -191 -201 -202 -211 -212 0
-23 -44 -45 -64 -65 -83 -84 -136 -137 -150 -152 -164 -165 -190 -191 -201 -202 -211 -212 0
-23 -44 -45 -64 -65 -83 -84 -136 -137 -151 -152 -164 -166 -190 -191 -201 -202 -211 -212 0
-23 -44 -45 -64 -65 -83 -84 -136 -137 -151 -152 -165 -166 -190 -192 -201 -202 -211 -212 0
-23 -44 -45 -64 -65 -83 -84 -136 -137 -151 -152 -165 -166 -191 -192 -201 -203 -211 -212 0
-23 -44 -45 -64 -65 -83 -84 -136 -137 -151 -152 -165 -166 -191 -192 -202 -203 -211 -213 0
-23 -44 -45 -64 -65 -83 -84 -136 -137 -151 -152 -165 -166 -191 -192 -202 -203 -212 -213 0
-23 -44 -45 -64 -65 -83 -84 -136 -137 -151 -152 -165 -166 -191 -192 -202 -203 -222 -223 0
-23 -44 -45 -64 -65 -83 -84 -136 -137 -151 -152 -165 -166 -191 -192 -213 -214 -222 -223 0
-23 -44 -45 -64 -65 -83 -84 -136 -137 -151 -152 -165 -166 -203 -204 -213 -214 -222 -223 0
-22 -43 -44 -63 -64 -82 -83 -135 -136 -150 -151 -178 -179 -190 -191 -201 -202 -211 -212 0
-23 -43 -45 -63 -64 -82 -83 -135 -136 -150 -151 -178 -179 -190 -191 -201 -202 -211 -212 0
-23 -44 -45 -63 -65 -82 -83 -135 -136 -150 -151 -178 -179 -190 -191 -201 -202 -211 -212 0
-23 -44 -45 -64 -65 -82 -84 -135 -136 -150 -151 -178 -179 -190 -191 -201 -202 -211 -212 0
-23 -44 -45 -64 -65 -83 -84 -135 -137 -150 -151 -178 -179 -190 -191 -201 -202 -211 -212 0
-23 -44 -45 -64 -65 -83 -84 -136 -137 -150 -152 -178 -179 -190 -191 -201 -202 -211 -212 0
-23 -44 -45 -64 -65 -83 -84 -136 -137 -151 -152 -178 -180 -190 -191 -201 -202 -211 -212 0
-23 -44 -45 -64 -65 -83 -84 -136 -137 -151 -152 -179 -180 -190 -192 -201 -202 -211 -212 0
-23 -44 -45 -64 -65 -83 -84 -136 -137 -151 -152 -179 -180 -191 -192 -201 -203 -211 -212 0
-23 -44 -45 -64 -65 -83 -84 -136 -137 -151 -152 -179 -180 -191 -192 -202 -203 -211 -213 0
-23 -44 -45 -64 -65 -83 -84 -136 -137 -151 -152 -179 -180 -191 -192 -202 -203 -212 -213 0
-23 -44 -45 -64 -65 -83 -84 -136 -137 -151 -152 -179 -180 -191 -192 -202 -203 -222 -223 0
-23 -44 -45 -64 -65 -83 -84 -136 -137 -151 -152 -179 -180 -191 -192 -213 -214 -222 -223 0
-23 -44 -45 -64 -65 -83 -84 -136 -137 -151 -152 -179 -180 -203 -204 -213 -214 -222 -223 0
-23 -44 -45 -64 -65 -83 -84 -136 -137 -151 -152 -192 -193 -203 -204 -213 -214 -222 -223 0
-22 -43 -44 -63 -64 -82 -83 -135 -136 -165 -166 -178 -179 -190 -191 -201 -202 -211 -212 0
-23 -43 -45 -63 -64 -82 -83 -135 -136 -165 -166 -178 -179 -190 -191 -201 -202 -211 -212 0
-23 -44 -45 -63 -65 -82 -83 -135 -136 -165 -166 -178 -179 -190 -191 -201 -202 -211 -212 0
-23 -44 -45 -64 -65 -82 -84 -135 -136 -165 -166 -178 -179 -190 -191 -201 -202 -211 -212 0
-23 -44 -45 -64 -65 -83 -84 -135 -137 -165 -166 -178 -179 -190 -191 -201 -202 -211 -212 0
-23 -44 -45 -64 -65 -83 -84 -136 -137 -165 -167 -178 -179 -190 -191 -201 -202 -211 -212 0
-23 -44 -45 -64 -65 -83 -84 -136 -137 -166 -167 -178 -180 -190 -191 -201 -202 -211 -212 0
-23 -44 -45 -64 -65 -83 -84 -136 -137 -166 -167 -179 -180 -190 -192 -201 -202 -211 -212 0
-23 -44 -45 -64 -65 -83 -84 -136 -137 -166 -167 -179 -180 -191 -192 -201 -203 -211 -212 0
-23 -44 -45 -64 -65 -83 -84 -136 -137 -166 -167 -179 -180 -191 -192 -202 -203 -211 -213 0
-23 -44 -45 -64 -65 -83 -84 -136 -137 -166 -167 -179 -180 -191 -192 -202 -203 -212 -213 0
-23 -44 -45 -64 -65 -83 -84 -136 -137 -166 -167 -179 -180 -191 -192 -202 -203 -222 -223 0
-23 -44 -45 -64 -65 -83 -84 -136 -137 -166 -167 -179 -180 -191 -192 -213 -214 -222 -223 0
-23 -44 -45 -64 -65 -83 -84 -136 -137 -166 -167 -179 -180 -203 -204 -213 -214 -222 -223 0
-23 -44 -45 -64 -65 -83 -84 -136 -137 -166 -167 -192 -193 -203 -204 -213 -214 -222 -223 0
-23 -44 -45 -64 -65 -83 -84 -136 -137 -180 -181 -192 -193 -203 -204 -213 -214 -222 -223 0
-22 -43 -44 -63 -64 -82 -83 -151 -152 -165 -166 -178 -179 -190 -191 -201 -202 -211 -212 0
-23 -43 -45 -63 -64 -82 -83 -151 -152 -165 -166 -178 -179 -190 -191 -201 -202 -211 -212 0
-23 -44 -45 -63 -65 -82 -83 -151 -152 -165 -166 -178 -179 -190 -191 -201 -202 -211 -212 0
-23 -44 -45 -64 -65 -82 -84 -151 -152 -165 -166 -178 -179 -190 -191 -201 -202 -211 -212 0
-23 -44 -45 -64 -65 -83 -84 -151 -153 -165 -166 -178 -179 -190 -191 -201 -202 -211 -212 0
-23 -44 -45 -64 -65 -83 -84 -152 -153 -165 -167 -178 -179 -190 -191 -201 -202 -211 -212 0
-23 -44 -45 -64 -65 -83 -84 -152 -153 -166 -167 -178 -180 -190 -191 -201 -202 -211 -212 0
-23 -44 -45 -64 -65 -83 -84 -152 -153 -166 -167 -179 -180 -190 -192 -201 -202 -211 -212 0
-23 -44 -45 -64 -65 -83 -84 -152 -153 -166 -167 -179 -180 -191 -192 -201 -203 -211 -212 0
-23 -44 -45 -64 -65 -83 -84 -152 -153 -166 -167 -179 -180 -191 -192 -202 -203 -211 -213 0
-23 -44 -45 -64 -65 -83 -84 -152 -153 -166 -167 -179 -180 -191 -192 -202 -203 -212 -213 0
-23 -44 -45 -64 -65 -83 -84 -152 -153 -166 -167 -179 -180 -191 -192 -202 -203 -222 -223 0
-23 -44 -45 -64 -65 -83 -84 -152 -153 -166 -167 -179 -180 -191 -192 -213 -214 -222 -223 0
-23 -44 -45 -64 -65 -83 -84 -152 -153 -166 -167 -179 -180 -203 -204 -213 -214 -222 -223 0
-23 -44 -45 -64 -65 -83 -84 -152 -153 -166 -167 -192 -193 -203 -204 -213 -214 -222 -223 0
-23 -44 -45 -64 -65 -83 -84 -152 -153 -180 -181 -192 -193 -203 -204 -213 -214 -222 -223 0
-23 -44 -45 -64 -65 -83 -84 -167 -168 -180 -181 -192 -193 -203 -204 -213 -214 -222 -223 0
-20 -41 -42 -61 -62 -99 -100 -116 -117 -132 -133 -147 -148 -161 -162 -174 -175 -186 -187 0
-21 -41 -43 -61 -62 -99 -100 -116 -117 -132 -133 -147 -148 -161 -162 -174 -175 -186 -187 0
-22 -41 -44 -61 -62 -99 -100 -116 -117 -132 -133 -147 -148 -161 -162 -174 -175 -186 -187 0
-23 -41 -45 -61 -62 -99 -100 -116 -117 -132 -133 -147 -148 -161 -162 -174 -175 -186 -187 0
-21 -42 -43 -61 -63 -99 -100 -116 -117 -132 -133 -147 -148 -161 -162 -174 -175 -186 -187 0
-22 -42 -44 -61 -63 -99 -100 -116 -117 -132 -133 -147 -148 -161 -162 -174 -175 -186 -187 0
-23 -42 -45 -61 -63 -99 -100 -116 -117 -132 -133 -147 -148 -161 -162 -174 -175 -186 -187 0
-22 -43 -44 -61 -64 -99 -100 -116 -117 -132 -133 -147 -148 -161 -162 -174 -175 -186 -187 0
-23 -43 -45 -61 -64 -99 -100 -116 -117 -132 -133 -147 -148 -161 -162 -174 -175 -186 -187 0
-23 -44 -45 -61 -65 -99 -100 -116 -117 -132 -133 -147 -148 -161 -162 -174 -175 -186 -187 0
-21 -42 -43 -62 -63 -99 -101 -116 -117 -132 -133 -147 -148 -161 -162 -174 -175 -186 -187 0
-22 -42 -44 -62 -63 -99 -101 -116 -117 -132 -133 -147 -148 -161 -162 -174 -175 -186 -187 0
-23 -42 -45 -62 -63 -99 -101 -116 -117 -132 -133 -147 -148 -161 -162 -174 -175 -186 -187 0
-22 -43 -44 -62 -64 -99 -101 -116 -117 -132 -133 -147 -148 -161 -162 -174 -175 -186 -187 0
-23 -43 -45 -62 -64 -99 -101 -116 -117 -132 -133 -147 -148 -161 -162 -174 -175 -186 -187 0
-23 -44 -45 -62 -65 -99 -101 -116 -117 -132 -133 -147 -148 -161 -162 -174 -175 -186 -187 0
-22 -43 -44 -63 -64 -99 -102 -116 -117 -132 -133 -147 -148 -161 -162 -174 -175 -186 -187 0
-23 -43 -45 -63 -64 -99 -102 -116 -117 -132 -133 -147 -148 -161 -162 -174 -175 -186 -187 0
-23 -44 -45 -63 -65 -99 -102 -116 -117 -132 -133 -147 -148 -161 -162 -174 -175 -186 -187 0
-23 -44 -45 -64 -65 -99 -103 -116 -117 -132 -133 -147 -148 -161 -162 -174 -175 -186 -187 0
-21 -42 -43 -62 -63 -100 -101 -116 -118 -132 -133 -147 -148 -161 -162 -174 -175 -186 -187 0
-22 -42 -44 -62 -63 -100 -101 -116 -118 -132 -133 -147 -148 -161 -162 -174 -175 -186 -187 0
-23 -42 -45 -62 -63 -100 -101 -116 -118 -132 -133 -147 -148 -161 -162 -174 -175 -186 -187 0
-22 -43 -44 -62 -64 -100 -101 -116 -118 -132 -133 -147 -148 -161 -162 -174 -175 -186 -187 0
-23 -43 -45 -62 -64 -100 -101 -116 -118 -132 -133 -147 -148 -161 -162 -174 -175 -186 -187 0
-23 -44 -45 -62 -65 -100 -101 -116 -118 -132 -133 -147 -148 -161 -162 -174 -175 -186 -187 0
-22 -43 -44 -63 -64 -100 -102 -116 -118 -132 -133 -147 -148 -161 -162 -174 -175 -186 -187 0
-23 -43 -45 -63 -64 -100 -102 -116 -118 -132 -133 -147 -148 -161 -162 -174 -175 -186 -187 0
-23 -44 -45 -63 -65 -100 -102 -116 -118 -132 -133 -147 -148 -161 -162 -174 -175 -186 -187 0
-23 -44 -45 -64 -65 -100 -103 -116 -118 -132 -133 -147 -148 -161 -162 -174 -175 -186 -187 0
-22 -43 -44 -63 -64 -101 -102 -116 -119 -132 -133 -147 -148 -161 -162 -174 -175 -186 -187 0
-23 -43 -45 -63 -64 -101 -102 -116 -119 -132 -133 -147 -148 -161 -162 -174 -175 -186 -187 0
-23 -44 -45 -63 -65 -101 -102 -116 -119 -132 -133 -147 -148 -161 -162 -174 -175 -186 -187 0
-23 -44 -45 -64 -65 -101 -103 -116 -119 -132 -133 -147 -148 -161 -162 -174 -175 -186 -187 0
-23 -44 -45 -64 -65 -102 -103 -116 -120 -132 -133 -147 -148 -161 -162 -174 -175 -186 -187 0
-21 -42 -43 -62 -63 -100 -101 -117 -118 -132 -134 -147 -148 -161 -162 -174 -175 -186 -187 0
-22 -42 -44 -62 -63 -100 -101 -117 -118 -132 -134 -147 -148 -161 -162 -174 -175 -186 -187 0
-23 -42 -45 -62 -63 -100 -101 -117 -118 -132 -134 -147 -148 -161 -162 -174 -175 -186 -187 0
-22 -43 -44 -62 -64 -100 -101 -117 -118 -132 -134 -147 -148 -161 -162 -174 -175 -186 -187 0
-23 -43 -45 -62 -64 -100 -101 -117 -118 -132 -134 -147 -148 -161 -162 -174 -175 -186 -187 0
-23 -44 -45 -62 -65 -100 -101 -117 -118 -132 -134 -147 -148 -161 -162 -174 -175 -186 -187 0
-22 -43 -44 -63 -64 -100 -102 -117 -118 -132 -134 -147 -148 -161 -162 -174 -175 -186 -187 0
-23 -43 -45 -63 -64 -100 -102 -117 -118 -132 -134 -147 -148 -161 -162 -174 -175 -186 -187 0
-23 -44 -45 -63 -65 -100 -102 -117 -118 -132 -134 -147 -148 -161 -162 -174 -175 -186 -187 0
-23 -44 -45 -64 -65 -100 -103 -117 -118 -132 -134 -147 -148 -161 -162 -174 -175 -186 -187 0
-22 -43 -44 -63 -64 -101 -102 -117 -119 -132 -134 -147 -148 -161 -162 -174 -175 -186 -187 0
-23 -43 -45 -63 -64 -101 -102 -117 -119 -132 -134 -147 -148 -161 -162 -174 -175 -186 -187 0
-23 -44 -45 -63 -65 -101 -102 -117 -119 -132 -134 -147 -148 -161 -162 -174 -175 -186 -187 0
-23 -44 -45 -64 -65 -101 -103 -117 -119 -132 -134 -147 -148 -161 -162 -174 -175 -186 -187 0
-23 -44 -45 -64 -65 -102 -103 -117 -120 -132 -134 -147 -148 -161 -162 -174 -175 -186 -187 0
-22 -43 -44 -63 -64 -101 -102 -118 -119 -132 -135 -147 -148 -161 -162 -174 -175 -186 -187 0
-23 -43 -45 -63 -64 -101 -102 -118 -119 -132 -135 -147 -148 -161 -162 -174 -175 -186 -187 0
-23 -44 -45 -63 -65 -101 -102 -118 -119 -132 -135 -147 -148 -161 -162 -174 -175 -186 -187 0
-23 -44 -45 -64 -65 -101 -103 -118 -119 -132 -135 -147 -148 -161 -162 -174 -175 -186 -187 0
-23 -44 -45 -64 -65 -102 -103 -118 -120 -132 -135 -147 -148 -161 -162 -174 -175 -186 -187 0
-23 -44 -45 -64 -65 -102 -103 -119 -120 -132 -136 -147 -148 -161 -162 -174 -175 -186 -187 0
-21 -42 -43 -62 -63 -100 -101 -117 -118 -133 -134 -147 -149 -161 -162 -174 -175 -186 -187 0
-22 -42 -44 -62 -63 -100 -101 -117 -118 -133 -134 -147 -149 -161 -162 -174 -175 -186 -187 0
-23 -42 -45 -62 -63 -100 -101 -117 -118 -133 -134 -147 -149 -161 -162 -174 -175 -186 -187 0
-22 -43 -44 -62 -64 -100 -101 -117 -118 -133 -134 -147 -149 -161 -162 -174 -175 -186 -187 0
-23 -43 -45 -62 -64 -100 -101 -117 -118 -133 -134 -147 -149 -161 -162 -174 -175 -186 -187 0
-23 -44 -45 -62 -65 -100 -101 -117 -118 -133 -134 -147 -149 -161 -162 -174 -175 -186 -187 0
-22 -43 -44 -63 -64 -100 -102 -117 -118 -133 -134 -147 -149 -161 -162 -174 -175 -186 -187 0
-23 -43 -45 -63 -64 -100 -102 -117 -118 -133 -134 -147 -149 -161 -162 -174 -175 -186 -187 0
-23 -44 -45 -63 -65 -100 -102 -117 -118 -133 -134 -147 -149 -161 -162 -174 -175 -186 -187 0
-23 -44 -45 -64 -65 -100 -103 -117 -118 -133 -134 -147 -149 -161 -162 -174 -175 -186 -187 0
-22 -43 -44 -63 -64 -101 -102 -117 -119 -133 -134 -147 -149 -161 -162 -174 -175 -186 -187 0
-23 -43 -45 -63 -64 -101 -102 -117 -119 -133 -134 -147 -149 -161 -162 -174 -175 -186 -187 0
-23 -44 -45 -63 -65 -101 -102 -117 -119 -133 -134 -147 -149 -161 -162 -174 -175 -186 -187 0
-23 -44 -45 -64 -65 -101 -103 -117 -119 -133 -134 -147 -149 -161 -162 -174 -175 -186 -187 0
-23 -44 -45 -64 -65 -102 -103 -117 -120 -133 -134 -147 -149 -161 -162 -174 -175 -186 -187 0
-22 -43 -44 -63 -64 -101 -102 -118 -119 -133 -135 -147 -149 -161 -162 -174 -175 -186 -187 0
-23 -43 -45 -63 -64 -101 -102 -118 -119 -133 -135 -147 -149 -161 -162 -174 -175 -186 -187 0
-23 -44 -45 -63 -65 -101 -102 -118 -119 -133 -135 -147 -149 -161 -162 -174 -175 -186 -187 0
-23 -44 -45 -64 -65 -101 -103 -118 -119 -133 -135 -147 -149 -161 -162 -174 -175 -186 -187 0
-23 -44 -45 -64 -65 -102 -103 -118 -120 -133 -135 -147 -149 -161 -162 -174 -175 -186 -187 0
-23 -44 -45 -64 -65 -102 -103 -119 -120 -133 -136 -147 -149 -161 -162 -174 -175 -186 -187 0
-22 -43 -44 -63 -64 -101 -102 -118 -119 -134 -135 -147 -150 -161 -162 -174 -175 -186 -187 0
-23 -43 -45 -63 -64 -101 -102 -118 -119 -134 -135 -147 -150 -161 -162 -174 -175 -186 -187 0
-23 -44 -45 -63 -65 -101 -102 -118 -119 -134 -135 -147 -150 -161 -162 -174 -175 -186 -187 0
-23 -44 -45 -64 -65 -101 -103 -118 -119 -134 -135 -147 -150 -161 -162 -174 -175 -186 -187 0
-23 -44 -45 -64 -65 -102 -103 -118 -120 -134 -135 -147 -150 -161 -162 -174 -175 -186 -187 0
-23 -44 -45 -64 -65 -102 -103 -119 -120 -134 -136 -147 -150 -161 -162 -174 -175 -186 -187 0
-23 -44 -45 -64 -65 -102 -103 -119 -120 -135 -136 -147 -151 -161 -162 -174 -175 -186 -187 0
-21 -42 -43 -62 -63 -100 -101 -117 -118 -133 -134 -148 -149 -161 -163 -174 -175 -186 -187 0
-22 -42 -44 -62 -63 -100 -101 -117 -118 -133 -134 -148 -149 -161 -163 -174 -175 -186 -187 0
-23 -42 -45 -62 -63 -100 -101 -117 -118 -133 -134 -148 -149 -161 -163 -174 -175 -186 -187 0
-22 -43 -44 -62 -64 -100 -101 -117 -118 -133 -134 -148 -149 -161 -163 -174 -175 -186 -187 0
-23 -43 -45 -62 -64 -100 -101 -117 -118 -133 -134 -148 -149 -161 -163 -174 -175 -186 -187 0
-23 -44 -45 -62 -65 -100 -101 -117 -118 -133 -134 -148 -149 -161 -163 -174 -175 -186 -187 0
-22 -43 -44 -63 -64 -100 -102 -117 -118 -133 -134 -148 -149 -161 -163 -174 -175 -186 -187 0
-23 -43 -45 -63 -64 -100 -102 -117 -118 -133 -134 -148 -149 -161 -163 -174 -175 -186 -187 0
-23 -44 -45 -63 -65 -100 -102 -117 -118 -133 -134 -148 -149 -161 -163 -174 -175 -186 -187 0
-23 -44 -45 -64 -65 -100 -103 -117 -118 -133 -134 -148 -149 -161 -163 -174 -175 -186 -187 0
-22 -43 -44 -63 -64 -101 -102 -117 -119 -133 -134 -148 -149 -161 -163 -174 -175 -186 -187 0
-23 -43 -45 -63 -64 -101 -102 -117 -119 -133 -134 -148 -149 -161 -163 -174 -175 -186 -187 0
-23 -44 -45 -63 -65 -101 -102 -117 -119 -133 -134 -148 -149 -161 -163 -174 -175 -186 -187 0
-23 -44 -45 -64 -65 -101 -103 -117 -119 -133 -134 -148 -149 -161 -163 -174 -175 -186 -187 0
-23 -44 -45 -64 -65 -102 -103 -117 -120 -133 -134 -148 -149 -161 -163 -174 -175 -186 -187 0
-22 -43 -44 -63 -64 -101 -102 -118 -119 -133 -135 -148 -149 -161 -163 -174 -175 -186 -187 0
-23 -43 -45 -63 -64 -101 -102 -118 -119 -133 -135 -148 -149 -161 -163 -174 -175 -186 -187 0
-23 -44 -45 -63 -65 -101 -102 -118 -119 -133 -135 -148 -149 -161 -163 -174 -175 -186 -187 0
-23 -44 -45 -64 -65 -101 -103 -118 -119 -133 -135 -148 -149 -161 -163 -174 -175 -186 -187 0
-23 -44 -45 -64 -65 -102 -103 -118 -120 -133 -135 -148 -149 -161 -163 -174 -175 -186 -187 0
-23 -44 -45 -64 -65 -102 -103 -119 -120 -133 -136 -148 -149 -161 -163 -174 -175 -186 -187 0
-22 -43 -44 -63 -64 -101 -102 -118 -119 -134 -135 -148 -150 -161 -163 -174 -175 -186 -187 0
-23 -43 -45 -63 -64 -101 -102 -118 -119 -134 -135 -148 -150 -161 -163 -174 -175 -186 -187 0
-23 -44 -45 -63 -65 -101 -102 -118 -119 -134 -135 -148 -150 -161 -163 -174 -175 -186 -187 0
-23 -44 -45 -64 -65 -101 -103 -118 -119 -134 -135 -148 -150 -161 -163 -174 -175 -186 -187 0
-23 -44 -45 -64 -65 -102 -103 -118 -120 -134 -135 -148 -150 -161 -163 -174 -175 -186 -187 0
-23 -44 -45 -64 -65 -102 -103 -119 -120 -134 -136 -148 -150 -161 -163 -174 -175 -186 -187 0
-23 -44 -45 -64 -65 -102 -103 -119 -120 -135 -136 -148 -151 -161 -163 -174 -175 -186 -187 0
-22 -43 -44 -63 -64 -101 -102 -118 -119 -134 -135 -149 -150 -161 -164 -174 -175 -186 -187 0
-23 -43 -45 -63 -64 -101 -102 -118 -119 -134 -135 -149 -150 -161 -164 -174 -175 -186 -187 0
-23 -44 -45 -63 -65 -101 -102 -118 -119 -134 -135 -149 -150 -161 -164 -174 -175 -186 -187 0
-23 -44 -45 -64 -65 -101 -103 -118 -119 -134 -135 -149 -150 -161 -164 -174 -175 -186 -187 0
-23 -44 -45 -64 -65 -102 -103 -118 -120 -134 -135 -149 -150 -161 -164 -174 -175 -186 -187 0
-23 -44 -45 -64 -65 -102 -103 -119 -120 -134 -136 -149 -150 -161 -164 -174 -175 -186 -187 0
-23 -44 -45 -64 -65 -102 -103 -119 -120 -135 -136 -149 -151 -161 -164 -174 -175 -186 -187 0
-23 -44 -45 -64 -65 -102 -103 -119 -120 -135 -136 -150 -151 -161 -165 -174 -175 -186 -187 0
-21 -42 -43 -62 -63 -100 -101 -117 -118 -133 -134 -148 -149 -162 -163 -174 -176 -186 -187 0
-22 -42 -44 -62 -63 -100 -101 -117 -118 -133 -134 -148 -149 -162 -163 -174 -176 -186 -187 0
-23 -42 -45 -62 -63 -100 -101 -117 -118 -133 -134 -148 -149 -162 -163 -174 -176 -186 -187 0
-22 -43 -44 -62 -64 -100 -101 -117 -118 -133 -134 -148 -149 -162 -163 -174 -176 -186 -187 0
-23 -43 -45 -62 -64 -100 -101 -117 -118 -133 -134 -148 -149 -162 -163 -174 -176 -186 -187 0
-23 -44 -45 -62 -65 -100 -101 -117 -118 -133 -134 -148 -149 -162 -163 -174 -176 -186 -187 0
-22 -43 -44 -63 -64 -100 -102 -117 -118 -133 -134 -148 -149 -162 -163 -174 -176 -186 -187 0
-23 -43 -45 -63 -64 -100 -102 -117 -118 -133 -134 -148 -149 -162 -163 -174 -176 -186 -187 0
-23 -44 -45 -63 -65 -100 -102 -117 -118 -133 -134 -148 -149 -162 -163 -174 -176 -186 -187 0
-23 -44 -45 -64 -65 -100 -103 -117 -118 -133 -134 -148 -149 -162 -163 -174 -176 -186 -187 0
-22 -43 -44 -63 -64 -101 -102 -117 -119 -133 -134 -148 -149 -162 -163 -174 -176 -186 -187 0
-23 -43 -45 -63 -64 -101 -102 -117 -119 -133 -134 -148 -149 -162 -163 -174 -176 -186 -187 0
-23 -44 -45 -63 -65 -101 -102 -117 -119 -133 -134 -148 -149 -162 -163 -174 -176 -186 -187 0
-23 -44 -45 -64 -65 -101 -103 -117 -119 -133 -134 -148 -149 -162 -163 -174 -176 -186 -187 0
-23 -44 -45 -64 -65 -102 -103 -117 -120 -133 -134 -148 -149 -162 -163 -174 -176 -186 -187 0
-22 -43 -44 -63 -64 -101 -102 -118 -119 -133 -135 -148 -149 -162 -163 -174 -176 -186 -187 0
-23 -43 -45 -63 -64 -101 -102 -118 -119 -133 -135 -148 -149 -162 -163 -174 -176 -186 -187 0
-23 -44 -45 -63 -65 -101 -102 -118 -119 -133 -135 -148 -149 -162 -163 -174 -176 -186 -187 0
-23 -44 -45 -64 -65 -101 -103 -118 -119 -133 -135 -148 -149 -162 -163 -174 -176 -186 -187 0
-23 -44 -45 -64 -65 -102 -103 -118 -120 -133 -135 -148 -149 -162 -163 -174 -176 -186 -187 0
-23 -44 -45 -64 -65 -102 -103 -119 -120 -133 -136 -148 -149 -162 -163 -174 -176 -186 -187 0
-22 -43 -44 -63 -64 -101 -102 -118 -119 -134 -135 -148 -150 -162 -163 -174 -176 -186 -187 0
-23 -43 -45 -63 -64 -101 -102 -118 -119 -134 -135 -148 -150 -162 -163 -174 -176 -186 -187 0
-23 -44 -45 -63 -65 -101 -102 -118 -119 -134 -135 -148 -150 -162 -163 -174 -176 -186 -187 0
-23 -44 -45 -64 -65 -101 -103 -118 -119 -134 -135 -148 -150 -162 -163 -174 -176 -186 -187 0
-23 -44 -45 -64 -65 -102 -103 -118 -120 -134 -135 -148 -150 -162 -163 -174 -176 -186 -187 0
-23 -44 -45 -64 -65 -102 -103 -119 -120 -134 -136 -148 -150 -162 -163 -174 -176 -186 -187 0
-23 -44 -45 -64 -65 -102 -103 -119 -120 -135 -136 -148 -151 -162 -163 -174 -176 -186 -187 0
-22 -43 -44 -63 -64 -101 -102 -118 -119 -134 -135 -149 -150 -162 -164 -174 -176 -186 -187 0
-23 -43 -45 -63 -64 -101 -102 -118 -119 -134 -135 -149 -150 -162 -164 -174 -176 -186 -187 0
-23 -44 -45 -63 -65 -101 -102 -118 -119 -134 -135 -149 -150 -162 -164 -174 -176 -186 -187 0
-23 -44 -45 -64 -65 -101 -103 -118 -119 -134 -135 -149 -150 -162 -164 -174 -176 -186 -187 0
-23 -44 -45 -64 -65 -102 -103 -118 -120 -134 -135 -149 -150 -162 -164 -174 -176 -186 -187 0
-23 -44 -45 -64 -65 -102 -103 -119 -120 -134 -136 -149 -150 -162 -164 -174 -176 -186 -187 0
-23 -44 -45 -64 -65 -102 -103 -119 -120 -135 -136 -149 -151 -162 -164 -174 -176 -186 -187 0
-23 -44 -45 -64 -65 -102 -103 -119 -120 -135 -136 -150 -151 -162 -165 -174 -176 -186 -187 0
-22 -43 -44 -63 -64 -101 -102 -118 -119 -134 -135 -149 -150 -163 -164 -174 -177 -186 -187 0
-23 -43 -45 -63 -64 -101 -102 -118 -119 -134 -135 -149 -150 -163 -164 -174 -177 -186 -187 0
-23 -44 -45 -63 -65 -101 -102 -118 -119 -134 -135 -149 -150 -163 -164 -174 -177 -186 -187 0
-23 -44 -45 -64 -65 -101 -103 -118 -119 -134 -135 -149 -150 -163 -164 -174 -177 -186 -187 0
-23 -44 -45 -64 -65 -102 -103 -118 -120 -134 -135 -149 -150 -163 -164 -174 -177 -186 -187 0
-23 -44 -45 -64 -65 -102 -103 -119 -120 -134 -136 -149 -150 -163 -164 -174 -177 -186 -187 0
-23 -44 -45 -64 -65 -102 -103 -119 -120 -135 -136 -149 -151 -163 -164 -174 -177 -186 -187 0
-23 -44 -45 -64 -65 -102 -103 -119 -120 -135 -136 -150 -151 -163 -165 -174 -177 -186 -187 0
-23 -44 -45 -64 -65 -102 -103 -119 -120 -135 -136 -150 -151 -164 -165 -174 -178 -186 -187 0
-21 -42 -43 -62 -63 -100 -101 -117 -118 -133 -134 -148 -149 -162 -163 -175 -176 -186 -188 0
-22 -42 -44 -62 -63 -100 -101 -117 -118 -133 -134 -148 -149 -162 -163 -175 -176 -186 -188 0
-23 -42 -45 -62 -63 -100 -101 -117 -118 -133 -134 -148 -149 -162 -163 -175 -176 -186 -188 0
-22 -43 -44 -62 -64 -100 -101 -117 -118 -133 -134 -148 -149 -162 -163 -175 -176 -186 -188 0
-23 -43 -45 -62 -64 -100 -101 -117 -118 -133 -134 -148 -149 -162 -163 -175 -176 -186 -188 0
-23 -44 -45 -62 -65 -100 -101 -117 -118 -133 -134 -148 -149 -162 -163 -175 -176 -186 -188 0
-22 -43 -44 -63 -64 -100 -102 -117 -118 -133 -134 -148 -149 -162 -163 -175 -176 -186 -188 0
-23 -43 -45 -63 -64 -100 -102 -117 -118 -133 -134 -148 -149 -162 -163 -175 -176 -186 -188 0
-23 -44 -45 -63 -65 -100 -102 -117 -118 -133 -134 -148 -149 -162 -163 -175 -176 -186 -188 0
-23 -44 -45 -64 -65 -100 -103 -117 -118 -133 -134 -148 -149 -162 -163 -175 -176 -186 -188 0
-22 -43 -44 -63 -64 -101 -102 -117 -119 -133 -134 -148 -149 -162 -163 -175 -176 -186 -188 0
-23 -43 -45 -63 -64 -101 -102 -117 -119 -133 -134 -148 -149 -162 -163 -175 -176 -186 -188 0
-23 -44 -45 -63 -65 -101 -102 -117 -119 -133 -134 -148 -149 -162 -163 -175 -176 -186 -188 0
-23 -44 -45 -64 -65 -101 -103 -117 -119 -133 -134 -148 -149 -162 -163 -175 -176 -186 -188 0
-23 -44 -45 -64 -65 -102 -103 -117 -120 -133 -134 -148 -149 -162 -163 -175 -176 -186 -188 0
-22 -43 -44 -63 -64 -101 -102 -118 -119 -133 -135 -148 -149 -162 -163 -175 -176 -186 -188 0
-23 -43 -45 -63 -64 -101 -102 -118 -119 -133 -135 -148 -149 -162 -163 -175 -176 -186 -188 0
-23 -44 -45 -63 -65 -101 -102 -118 -119 -133 -135 -148 -149 -162 -163 -175 -176 -186 -188 0
-23 -44 -45 -64 -65 -101 -103 -118 -119 -133 -135 -148 -149 -162 -163 -175 -176 -186 -188 0
-23 -44 -45 -64 -65 -102 -103 -118 -120 -133 -135 -148 -149 -162 -163 -175 -176 -186 -188 0
-23 -44 -45 -64 -65 -102 -103 -119 -120 -133 -136 -148 -149 -162 -163 -175 -176 -186 -188 0
-22 -43 -44 -63 -64 -101 -102 -118 -119 -134 -135 -148 -150 -162 -163 -175 -176 -186 -188 0
-23 -43 -45 -63 -64 -101 -102 -118 -119 -134 -135 -148 -150 -162 -163 -175 -176 -186 -188 0
-23 -44 -45 -63 -65 -101 -102 -118 -119 -134 -135 -148 -150 -162 -163 -175 -176 -186 -188 0
-23 -44 -45 -64 -65 -101 -103 -118 -119 -134 -135 -148 -150 -162 -163 -175 -176 -186 -188 0
-23 -44 -45 -64 -65 -102 -103 -118 -120 -134 -135 -148 -150 -162 -163 -175 -176 -186 -188 0
-23 -44 -45 -64 -65 -102 -103 -119 -120 -134 -136 -148 -150 -162 -163 -175 -176 -186 -188 0
-23 -44 -45 -64 -65 -102 -103 -119 -120 -135 -136 -148 -151 -162 -163 -175 -176 -186 -188 0
-22 -43 -44 -63 -64 -101 -102 -118 -119 -134 -135 -149 -150 -162 -164 -175 -176 -186 -188 0
-23 -43 -45 -63 -64 -101 -102 -118 -119 -134 -135 -149 -150 -162 -164 -175 -176 -186 -188 0
-23 -44 -45 -63 -65 -101 -102 -118 -119 -134 -135 -149 -150 -162 -164 -175 -176 -186 -188 0
-23 -44 -45 -64 -65 -101 -103 -118 -119 -134 -135 -149 -150 -162 -164 -175 -176 -186 -188 0
-23 -44 -45 -64 -65 -102 -103 -118 -120 -134 -135 -149 -150 -162 -164 -175 -176 -186 -188 0
-23 -44 -45 -64 -65 -102 -103 -119 -120 -134 -136 -149 -150 -162 -164 -175 -176 -186 -188 0
-23 -44 -45 -64 -65 -102 -103 -119 -120 -135 -136 -149 -151 -162 -164 -175 -176 -186 -188 0
-23 -44 -45 -64 -65 -102 -103 -119 -120 -135 -136 -150 -151 -162 -165 -175 -176 -186 -188 0
-22 -43 -44 -63 -64 -101 -102 -118 -119 -134 -135 -149 -150 -163 -164 -175 -177 -186 -188 0
-23 -43 -45 -63 -64 -101 -102 -118 -119 -134 -135 -149 -150 -163 -164 -175 -177 -186 -188 0
-23 -44 -45 -63 -65 -101 -102 -118 -119 -134 -135 -149 -150 -163 -164 -175 -177 -186 -188 0
-23 -44 -45 -64 -65 -101 -103 -118 -119 -134 -135 -149 -150 -163 -164 -175 -177 -186 -188 0
-23 -44 -45 -64 -65 -102 -103 -118 -120 -134 -135 -149 -150 -163 -164 -175 -177 -186 -188 0
-23 -44 -45 -64 -65 -102 -103 -119 -120 -134 -136 -149 -150 -163 -164 -175 -177 -186 -188 0
-23 -44 -45 -64 -65 -102 -103 -119 -120 -135 -136 -149 -151 -163 -164 -175 -177 -186 -188 0
-23 -44 -45 -64 -65 -102 -103 -119 -120 -135 -136 -150 -151 -163 -165 -175 -177 -186 -188 0
-23 -44 -45 -64 -65 -102 -103 -119 -120 -135 -136 -150 -151 -164 -165 -175 -178 -186 -188 0
-22 -43 -44 -63 -64 -101 -102 -118 -119 -134 -135 -149 -150 -163 -164 -176 -177 -186 -189 0
-23 -43 -45 -63 -64 -101 -102 -118 -119 -134 -135 -149 -150 -163 -164 -176 -177 -186 -189 0
-23 -44 -45 -63 -65 -101 -102 -118 -119 -134 -135 -149 -150 -163 -164 -176 -177 -186 -189 0
-23 -44 -45 -64 -65 -101 -103 -118 -119 -134 -135 -149 -150 -163 -164 -176 -177 -186 -189 0
-23 -44 -45 -64 -65 -102 -103 -118 -120 -134 -135 -149 -150 -163 -164 -176 -177 -186 -189 0
-23 -44 -45 -64 -65 -102 -103 -119 -120 -134 -136 -149 -150 -163 -164 -176 -177 -186 -189 0
-23 -44 -45 -64 -65 -102 -103 -119 -120 -135 -136 -149 -151 -163 -164 -176 -177 -186 -189 0
-23 -44 -45 -64 -65 -102 -103 -119 -120 -135 -136 -150 -151 -163 -165 -176 -177 -186 -189 0
-23 -44 -45 -64 -65 -102 -103 -119 -120 -135 -136 -150 -151 -164 -165 -176 -178 -186 -189 0
-23 -44 -45 -64 -65 -102 -103 -119 -120 -135 -136 -150 -151 -164 -165 -177 -178 -186 -190 0
-21 -42 -43 -62 -63 -100 -101 -117 -118 -133 -134 -148 -149 -162 -163 -175 -176 -187 -188 0
-22 -42 -44 -62 -63 -100 -101 -117 -118 -133 -134 -148 -149 -162 -163 -175 -176 -187 -188 0
-23 -42 -45 -62 -63 -100 -101 -117 -118 -133 -134 -148 -149 -162 -163 -175 -176 -187 -188 0
-22 -43 -44 -62 -64 -100 -101 -117 -118 -133 -134 -148 -149 -162 -163 -175 -176 -187 -188 0
-23 -43 -45 -62 -64 -100 -101 -117 -118 -133 -134 -148 -149 -162 -163 -175 -176 -187 -188 0
-23 -44 -45 -62 -65 -100 -101 -117 -118 -133 -134 -148 -149 -162 -163 -175 -176 -187 -188 0
-22 -43 -44 -63 -64 -100 -102 -117 -118 -133 -134 -148 -149 -162 -163 -175 -176 -187 -188 0
-23 -43 -45 -63 -64 -100 -102 -117 -118 -133 -134 -148 -149 -162 -163 -175 -176 -187 -188 0
-23 -44 -45 -63 -65 -100 -102 -117 -118 -133 -134 -148 -149 -162 -163 -175 -176 -187 -188 0
-23 -44 -45 -64 -65 -100 -103 -117 -118 -133 -134 -148 -149 -162 -163 -175 -176 -187 -188 0
-22 -43 -44 -63 -64 -101 -102 -117 -119 -133 -134 -148 -149 -162 -163 -175 -176 -187 -188 0
-23 -43 -45 -63 -64 -101 -102 -117 -119 -133 -134 -148 -149 -162 -163 -175 -176 -187 -188 0
-23 -44 -45 -63 -65 -101 -102 -117 -119 -133 -134 -148 -149 -162 -163 -175 -176 -187 -188 0
-23 -44 -45 -64 -65 -101 -103 -117 -119 -133 -134 -148 -149 -162 -163 -175 -176 -187 -188 0
-23 -44 -45 -64 -65 -102 -103 -117 -120 -133 -134 -148 -149 -162 -163 -175 -176 -187 -188 0
-22 -43 -44 -63 -64 -101 -102 -118 -119 -133 -135 -148 -149 -162 -163 -175 -176 -187 -188 0
-23 -43 -45 -63 -64 -101 -102 -118 -119 -133 -135 -148 -149 -162 -163 -175 -176 -187 -188 0
-23 -44 -45 -63 -65 -101 -102 -118 -119 -133 -135 -148 -149 -162 -163 -175 -176 -187 -188 0
-23 -44 -45 -64 -65 -101 -103 -118 -119 -133 -135 -148 -149 -162 -163 -175 -176 -187 -188 0
-23 -44 -45 -64 -65 -102 -103 -118 -120 -133 -135 -148 -149 -162 -163 -175 -176 -187 -188 0
-23 -44 -45 -64 -65 -102 -103 -119 -120 -133 -136 -148 -149 -162 -163 -175 -176 -187 -188 0
-22 -43 -44 -63 -64 -101 -102 -118 -119 -134 -135 -148 -150 -162 -163 -175 -176 -187 -188 0
-23 -43 -45 -63 -64 -101 -102 -118 -119 -134 -135 -148 -150 -162 -163 -175 -176 -187 -188 0
-23 -44 -45 -63 -65 -101 -102 -118 -119 -134 -135 -148 -150 -162 -163 -175 -176 -187 -188 0
-23 -44 -45 -64 -65 -101 -103 -118 -119 -134 -135 -148 -150 -162 -163 -175 -176 -187 -188 0
-23 -44 -45 -64 -65 -102 -103 -118 -120 -134 -135 -148 -150 -162 -163 -175 -176 -187 -188 0
-23 -44 -45 -64 -65 -102 -103 -119 -120 -134 -136 -148 -150 -162 -163 -175 -176 -187 -188 0
-23 -44 -45 -64 -65 -102 -103 -119 -120 -135 -136 -148 -151 -162 -163 -175 -176 -187 -188 0
-22 -43 -44 -63 -64 -101 -102 -118 -119 -134 -135 -149 -150 -162 -164 -175 -176 -187 -188 0
-23 -43 -45 -63 -64 -101 -102 -118 -119 -134 -135 -149 -150 -162 -164 -175 -176 -187 -188 0
-23 -44 -45 -63 -65 -101 -102 -118 -119 -134 -135 -149 -150 -162 -164 -175 -176 -187 -188 0
-23 -44 -45 -64 -65 -101 -103 -118 -119 -134 -135 -149 -150 -162 -164 -175 -176 -187 -188 0
-23 -44 -45 -64 -65 -102 -103 -118 -120 -134 -135 -149 -150 -162 -164 -175 -176 -187 -188 0
-23 -44 -45 -64 -65 -102 -103 -119 -120 -134 -136 -149 -150 -162 -164 -175 -176 -187 -188 0
-23 -44 -45 -64 -65 -102 -103 -119 -120 -135 -136 -149 -151 -162 -164 -175 -176 -187 -188 0
-23 -44 -45 -64 -65 -102 -103 -119 -120 -135 -136 -150 -151 -162 -165 -175 -176 -187 -188 0
-22 -43 -44 -63 -64 -101 -102 -118 -119 -134 -135 -149 -150 -163 -164 -175 -177 -187 -188 0
-23 -43 -45 -63 -64 -101 -102 -118 -119 -134 -135 -149 -150 -163 -164 -175 -177 -187 -188 0
-23 -44 -45 -63 -65 -101 -102 -118 -119 -134 -135 -149 -150 -163 -164 -175 -177 -187 -188 0
-23 -44 -45 -64 -65 -101 -103 -118 -119 -134 -135 -149 -150 -163 -164 -175 -177 -187 -188 0
-23 -44 -45 -64 -65 -102 -103 -118 -120 -134 -135 -149 -150 -163 -164 -175 -177 -187 -188 0
-23 -44 -45 -64 -65 -102 -103 -119 -120 -134 -136 -149 -150 -163 -164 -175 -177 -187 -188 0
-23 -44 -45 -64 -65 -102 -103 -119 -120 -135 -136 -149 -151 -163 -164 -175 -177 -187 -188 0
-23 -44 -45 -64 -65 -102 -103 -119 -120 -135 -136 -150 -151 -163 -165 -175 -177 -187 -188 0
-23 -44 -45 -64 -65 -102 -103 -119 -120 -135 -136 -150 -151 -164 -165 -175 -178 -187 -188 0
-22 -43 -44 -63 -64 -101 -102 -118 -119 -134 -135 -149 -150 -163 -164 -176 -177 -187 -189 0
-23 -43 -45 -63 -64 -101 -102 -118 -119 -134 -135 -149 -150 -163 -164 -176 -177 -187 -189 0
-23 -44 -45 -63 -65 -101 -102 -118 -119 -134 -135 -149 -150 -163 -164 -176 -177 -187 -189 0
-23 -44 -45 -64 -65 -101 -103 -118 -119 -134 -135 -149 -150 -163 -164 -176 -177 -187 -189 0
-23 -44 -45 -64 -65 -102 -103 -118 -120 -134 -135 -149 -150 -163 -164 -176 -177 -187 -189 0
-23 -44 -45 -64 -65 -102 -103 -119 -120 -134 -136 -149 -150 -163 -164 -176 -177 -187 -189 0
-23 -44 -45 -64 -65 -102 -103 -119 -120 -135 -136 -149 -151 -163 -164 -176 -177 -187 -189 0
-23 -44 -45 -64 -65 -102 -103 -119 -120 -135 -136 -150 -151 -163 -165 -176 -177 -187 -189 0
-23 -44 -45 -64 -65 -102 -103 -119 -120 -135 -136 -150 -151 -164 -165 -176 -178 -187 -189 0
-23 -44 -45 -64 -65 -102 -103 -119 -120 -135 -136 -150 -151 -164 -165 -177 -178 -187 -190 0
-22 -43 -44 -63 -64 -101 -102 -118 -119 -134 -135 -149 -150 -163 -164 -176 -177 -188 -189 0
-23 -43 -45 -63 -64 -101 -102 -118 -119 -134 -135 -149 -150 -163 -164 -176 -177 -188 -189 0
-23 -44 -45 -63 -65 -101 -102 -118 -119 -134 -135 -149 -150 -163 -164 -176 -177 -188 -189 0
-23 -44 -45 -64 -65 -101 -103 -118 -119 -134 -135 -149 -150 -163 -164 -176 -177 -188 -189 0
-23 -44 -45 -64 -65 -102 -103 -118 -120 -134 -135 -149 -150 -163 -164 -176 -177 -188 -189 0
-23 -44 -45 -64 -65 -102 -103 -119 -120 -134 -136 -149 -150 -163 -164 -176 -177 -188 -189 0
-23 -44 -45 -64 -65 -102 -103 -119 -120 -135 -136 -149 -151 -163 -164 -176 -177 -188 -189 0
-23 -44 -45 -64 -65 -102 -103 -119 -120 -135 -136 -150 -151 -163 -165 -176 -177 -188 -189 0
-23 -44 -45 -64 -65 -102 -103 -119 -120 -135 -136 -150 -151 -164 -165 -176 -178 -188 -189 0
-23 -44 -45 -64 -65 -102 -103 -119 -120 -135 -136 -150 -151 -164 -165 -177 -178 -188 -190 0
-23 -44 -45 -64 -65 -102 -103 -119 -120 -135 -136 -150 -151 -164 -165 -177 -178 -189 -190 0
-21 -42 -43 -62 -63 -100 -101 -117 -118 -133 -134 -148 -149 -162 -163 -175 -176 -199 -200 0
-22 -42 -44 -62 -63 -100 -101 -117 -118 -133 -134 -148 -149 -162 -163 -175 -176 -199 -200 0
-23 -42 -45 -62 -63 -100 -101 -117 -118 -133 -134 -148 -149 -162 -163 -175 -176 -199 -200 0
-22 -43 -44 -62 -64 -100 -101 -117 -118 -133 -134 -148 -149 -162 -163 -175 -176 -199 -200 0
-23 -43 -45 -62 -64 -100 -101 -117 -118 -133 -134 -148 -149 -162 -163 -175 -176 -199 -200 0
-23 -44 -45 -62 -65 -100 -101 -117 -118 -133 -134 -148 -149 -162 -163 -175 -176 -199 -200 0
-22 -43 -44 -63 -64 -100 -102 -117 -118 -133 -134 -148 -149 -162 -163 -175 -176 -199 -200 0
-23 -43 -45 -63 -64 -100 -102 -117 -118 -133 -134 -148 -149 -162 -163 -175 -176 -199 -200 0
-23 -44 -45 -63 -65 -100 -102 -117 -118 -133 -134 -148 -149 -162 -163 -175 -176 -199 -200 0
-23 -44 -45 -64 -65 -100 -103 -117 -118 -133 -134 -148 -149 -162 -163 -175 -176 -199 -200 0
-22 -43 -44 -63 -64 -101 -102 -117 -119 -133 -134 -148 -149 -162 -163 -175 -176 -199 -200 0
-23 -43 -45 -63 -64 -101 -102 -117 -119 -133 -134 -148 -149 -162 -163 -175 -176 -199 -200 0
-23 -44 -45 -63 -65 -101 -102 -117 -119 -133 -134 -148 -149 -162 -163 -175 -176 -199 -200 0
-23 -44 -45 -64 -65 -101 -103 -117 -119 -133 -134 -148 -149 -162 -163 -175 -176 -199 -200 0
-23 -44 -45 -64 -65 -102 -103 -117 -120 -133 -134 -148 -149 -162 -163 -175 -176 -199 -200 0
-22 -43 -44 -63 -64 -101 -102 -118 -119 -133 -135 -148 -149 -162 -163 -175 -176 -199 -200 0
-23 -43 -45 -63 -64 -101 -102 -118 -119 -133 -135 -148 -149 -162 -163 -175 -176 -199 -200 0
-23 -44 -45 -63 -65 -101 -102 -118 -119 -133 -135 -148 -149 -162 -163 -175 -176 -199 -200 0
-23 -44 -45 -64 -65 -101 -103 -118 -119 -133 -135 -148 -149 -162 -163 -175 -176 -199 -200 0
-23 -44 -45 -64 -65 -102 -103 -118 -120 -133 -135 -148 -149 -162 -163 -175 -176 -199 -200 0
-23 -44 -45 -64 -65 -102 -103 -119 -120 -133 -136 -148 -149 -162 -163 -175 -176 -199 -200 0
-22 -43 -44 -63 -64 -101 -102 -118 -119 -134 -135 -148 -150 -162 -163 -175 -176 -199 -200 0
-23 -43 -45 -63 -64 -101 -102 -118 -119 -134 -135 -148 -150 -162 -163 -175 -176 -199 -200 0
-23 -44 -45 -63 -65 -101 -102 -118 -119 -134 -135 -148 -150 -162 -163 -175 -176 -199 -200 0
-23 -44 -45 -64 -65 -101 -103 -118 -119 -134 -135 -148 -150 -162 -163 -175 -176 -199 -200 0
-23 -44 -45 -64 -65 -102 -103 -118 -120 -134 -135 -148 -150 -162 -163 -175 -176 -199 -200 0
-23 -44 -45 -64 -65 -102 -103 -119 -120 -134 -136 -148 -150 -162 -163 -175 -176 -199 -200 0
-23 -44 -45 -64 -65 -102 -103 -119 -120 -135 -136 -148 -151 -162 -163 -175 -176 -199 -200 0
-22 -43 -44 -63 -64 -101 -102 -118 -119 -134 -135 -149 -150 -162 -164 -175 -176 -199 -200 0
-23 -43 -45 -63 -64 -101 -102 -118 -119 -134 -135 -149 -150 -162 -164 -175 -176 -199 -200 0
-23 -44 -45 -63 -65 -101 -102 -118 -119 -134 -135 -149 -150 -162 -164 -175 -176 -199 -200 0
-23 -44 -45 -64 -65 -101 -103 -118 -119 -134 -135 -149 -150 -162 -164 -175 -176 -199 -200 0
-23 -44 -45 -64 -65 -102 -103 -118 -120 -134 -135 -149 -150 -162 -164 -175 -176 -199 -200 0
-23 -44 -45 -64 -65 -102 -103 -119 -120 -134 -136 -149 -150 -162 -164 -175 -176 -199 -200 0
-23 -44 -45 -64 -65 -102 -103 -119 -120 -135 -136 -149 -151 -162 -164 -175 -176 -199 -200 0
-23 -44 -45 -64 -65 -102 -103 -119 -120 -135 -136 -150 -151 -162 -165 -175 -176 -199 -200 0
-22 -43 -44 -63 -64 -101 -102 -118 -119 -134 -135 -149 -150 -163 -164 -175 -177 -199 -200 0
-23 -43 -45 -63 -64 -101 -102 -118 -119 -134 -135 -149 -150 -163 -164 -175 -177 -199 -200 0
-23 -44 -45 -63 -65 -101 -102 -118 -119 -134 -135 -149 -150 -163 -164 -175 -177 -199 -200 0
-23 -44 -45 -64 -65 -101 -103 -118 -119 -134 -135 -149 -150 -163 -164 -175 -177 -199 -200 0
-23 -44 -45 -64 -65 -102 -103 -118 -120 -134 -135 -149 -150 -163 -164 -175 -177 -199 -200 0
-23 -44 -45 -64 -65 -102 -103 -119 -120 -134 -136 -149 -150 -163 -164 -175 -177 -199 -200 0
-23 -44 -45 -64 -65 -102 -103 -119 -120 -135 -136 -149 -151 -163 -164 -175 -177 -199 -200 0
-23 -44 -45 -64 -65 -102 -103 -119 -120 -135 -136 -150 -151 -163 -165 -175 -177 -199 -200 0
-23 -44 -45 -64 -65 -102 -103 -119 -120 -135 -136 -150 -151 -164 -165 -175 -178 -199 -200 0
-22 -43 -44 -63 -64 -101 -102 -118 -119 -134 -135 -149 -150 -163 -164 -176 -177 -199 -201 0
-23 -43 -45 -63 -64 -101 -102 -118 -119 -134 -135 -149 -150 -163 -164 -176 -177 -199 -201 0
-23 -44 -45 -63 -65 -101 -102 -118 -119 -134 -135 -149 -150 -163 -164 -176 -177 -199 -201 0
-23 -44 -45 -64 -65 -101 -103 -118 -119 -134 -135 -149 -150 -163 -164 -176 -177 -199 -201 0
-23 -44 -45 -64 -65 -102 -103 -118 -120 -134 -135 -149 -150 -163 -164 -176 -177 -199 -201 0
-23 -44 -45 -64 -65 -102 -103 -119 -120 -134 -136 -149 -150 -163 -164 -176 -177 -199 -201 0
-23 -44 -45 -64 -65 -102 -103 -119 -120 -135 -136 -149 -151 -163 -164 -176 -177 -199 -201 0
-23 -44 -45 -64 -65 -102 -103 -119 -120 -135 -136 -150 -151 -163 -165 -176 -177 -199 -201 0
-23 -44 -45 -64 -65 -102 -103 -119 -120 -135 -136 -150 -151 -164 -165 -176 -178 -199 -201 0
-23 -44 -45 -64 -65 -102 -103 -119 -120 -135 -136 -150 -151 -164 -165 -177 -178 -199 -202 0
-22 -43 -44 -63 -64 -101 -102 -118 -119 -134 -135 -149 -150 -163 -164 -176 -177 -200 -201 0
-23 -43 -45 -63 -64 -101 -102 -118 -119 -134 -135 -149 -150 -163 -164 -176 -177 -200 -201 0
-23 -44 -45 -63 -65 -101 -102 -118 -119 -134 -135 -149 -150 -163 -164 -176 -177 -200 -201 0
-23 -44 -45 -64 -65 -101 -103 -118 -119 -134 -135 -149 -150 -163 -164 -176 -177 -200 -201 0
-23 -44 -45 -64 -65 -102 -103 -118 -120 -134 -135 -149 -150 -163 -164 -176 -177 -200 -201 0
-23 -44 -45 -64 -65 -102 -103 -119 -120 -134 -136 -149 -150 -163 -164 -176 -177 -200 -201 0
-23 -44 -45 -64 -65 -102 -103 -119 -120 -135 -136 -149 -151 -163 -164 -176 -177 -200 -201 0
-23 -44 -45 -64 -65 -102 -103 -119 -120 -135 -136 -150 -151 -163 -165 -176 -177 -200 -201 0
-23 -44 -45 -64 -65 -102 -103 -119 -120 -135 -136 -150 -151 -164 -165 -176 -178 -200 -201 0
-23 -44 -45 -64 -65 -102 -103 -119 -120 -135 -136 -150 -151 -164 -165 -177 -178 -200 -202 0
-23 -44 -45 -64 -65 -102 -103 -119 -120 -135 -136 -150 -151 -164 -165 -177 -178 -201 -202 0
-22 -43 -44 -63 -64 -101 -102 -118 -119 -134 -135 -149 -150 -163 -164 -176 -177 -211 -212 0
-23 -43 -45 -63 -64 -101 -102 -118 -119 -134 -135 -149 -150 -163 -164 -176 -177 -211 -212 0
-23 -44 -45 -63 -65 -101 -102 -118 -119 -134 -135 -149 -150 -163 -164 -176 -177 -211 -212 0
-23 -44 -45 -64 -65 -101 -103 -118 -119 -134 -135 -149 -150 -163 -164 -176 -177 -211 -212 0
-23 -44 -45 -64 -65 -102 -103 -118 -120 -134 -135 -149 -150 -163 -164 -176 -177 -211 -212 0
-23 -44 -45 -64 -65 -102 -103 -119 -120 -134 -136 -149 -150 -163 -164 -176 -177 -211 -212 0
-23 -44 -45 -64 -65 -102 -103 -119 -120 -135 -136 -149 -151 -163 -164 -176 -177 -211 -212 0
-23 -44 -45 -64 -65 -102 -103 -119 -120 -135 -136 -150 -151 -163 -165 -176 -177 -211 -212 0
-23 -44 -45 -64 -65 -102 -103 -119 -120 -135 -136 -150 -151 -164 -165 -176 -178 -211 -212 0
-23 -44 -45 -64 -65 -102 -103 -119 -120 -135 -136 -150 -151 -164 -165 -177 -178 -211 -213 0
-23 -44 -45 -64 -65 -102 -103 -119 -120 -135 -136 -150 -151 -164 -165 -177 -178 -212 -213 0
-23 -44 -45 -64 -65 -102 -103 -119 -120 -135 -136 -150 -151 -164 -165 -177 -178 -222 -223 0
-21 -42 -43 -62 -63 -100 -101 -117 -118 -133 -134 -148 -149 -162 -163 -188 -189 -199 -200 0
-22 -42 -44 -62 -63 -100 -101 -117 -118 -133 -134 -148 -149 -162 -163 -188 -189 -199 -200 0
-23 -42 -45 -62 -63 -100 -101 -117 -118 -133 -134 -148 -149 -162 -163 -188 -189 -199 -200 0
-22 -43 -44 -62 -64 -100 -101 -117 -118 -133 -134 -148 -149 -162 -163 -188 -189 -199 -200 0
-23 -43 -45 -62 -64 -100 -101 -117 -118 -133 -134 -148 -149 -162 -163 -188 -189 -199 -200 0
-23 -44 -45 -62 -65 -100 -101 -117 -118 -133 -134 -148 -149 -162 -163 -188 -189 -199 -200 0
-22 -43 -44 -63 -64 -100 -102 -117 -118 -133 -134 -148 -149 -162 -163 -188 -189 -199 -200 0
-23 -43 -45 -63 -64 -100 -102 -117 -118 -133 -134 -148 -149 -162 -163 -188 -189 -199 -200 0
-23 -44 -45 -63 -65 -100 -102 -117 -118 -133 -134 -148 -149 -162 -163 -188 -189 -199 -200 0
-23 -44 -45 -64 -65 -100 -103 -117 -118 -133 -134 -148 -149 -162 -163 -188 -189 -199 -200 0
-22 -43 -44 -63 -64 -101 -102 -117 -119 -133 -134 -148 -149 -162 -163 -188 -189 -199 -200 0
-23 -43 -45 -63 -64 -101 -102 -117 -119 -133 -134 -148 -149 -162 -163 -188 -189 -199 -200 0
-23 -44 -45 -63 -65 -101 -102 -117 -119 -133 -134 -148 -149 -162 -163 -188 -189 -199 -200 0
-23 -44 -45 -64 -65 -101 -103 -117 -119 -133 -134 -148 -149 -162 -163 -188 -189 -199 -200 0
-23 -44 -45 -64 -65 -102 -103 -117 -120 -133 -134 -148 -149 -162 -163 -188 -189 -199 -200 0
-22 -43 -44 -63 -64 -101 -102 -118 -119 -133 -135 -148 -149 -162 -163 -188 -189 -199 -200 0
-23 -43 -45 -63 -64 -101 -102 -118 -119 -133 -135 -148 -149 -162 -163 -188 -189 -199 -200 0
-23 -44 -45 -63 -65 -101 -102 -118 -119 -133 -135 -148 -149 -162 -163 -188 -189 -199 -200 0
-23 -44 -45 -64 -65 -101 -103 -118 -119 -133 -135 -148 -149 -162 -163 -188 -189 -199 -200 0
-23 -44 -45 -64 -65 -102 -103 -118 -120 -133 -135 -148 -149 -162 -163 -188 -189 -199 -200 0
-23 -44 -45 -64 -65 -102 -103 -119 -120 -133 -136 -148 -149 -162 -163 -188 -189 -199 -200 0
-22 -43 -44 -63 -64 -101 -102 -118 -119 -134 -135 -148 -150 -162 -163 -188 -189 -199 -200 0
-23 -43 -45 -63 -64 -101 -102 -118 -119 -134 -135 -148 -150 -162 -163 -188 -189 -199 -200 0
-23 -44 -45 -63 -65 -101 -102 -118 -119 -134 -135 -148 -150 -162 -163 -188 -189 -199 -200 0
-23 -44 -45 -64 -65 -101 -103 -118 -119 -134 -135 -148 -150 -162 -163 -188 -189 -199 -200 0
-23 -44 -45 -64 -65 -102 -103 -118 -120 -134 -135 -148 -150 -162 -163 -188 -189 -199 -200 0
-23 -44 -45 -64 -65 -102 -103 -119 -120 -134 -136 -148 -150 -162 -163 -188 -189 -199 -200 0
-23 -44 -45 -64 -65 -102 -103 -119 -120 -135 -136 -148 -151 -162 -163 -188 -189 -199 -200 0
-22 -43 -44 -63 -64 -101 -102 -118 -119 -134 -135 -149 -150 -162 -164 -188 -189 -199 -200 0
-23 -43 -45 -63 -64 -101 -102 -118 -119 -134 -135 -149 -150 -162 -164 -188 -189 -199 -200 0
-23 -44 -45 -63 -65 -101 -102 -118 -119 -134 -135 -149 -150 -162 -164 -188 -189 -199 -200 0
-23 -44 -45 -64 -65 -101 -103 -118 -119 -134 -135 -149 -150 -162 -164 -188 -189 -199 -200 0
-23 -44 -45 -64 -65 -102 -103 -118 -120 -134 -135 -149 -150 -162 -164 -188 -189 -199 -200 0
-23 -44 -45 -64 -65 -102 -103 -119 -120 -134 -136 -149 -150 -162 -164 -188 -189 -199 -200 0
-23 -44 -45 -64 -65 -102 -103 -119 -120 -135 -136 -149 -151 -162 -164 -188 -189 -199 -200 0
-23 -44 -45 -64 -65 -102 -103 -119 -120 -135 -136 -150 -151 -162 -165 -188 -189 -199 -200 0
-22 -43 -44 -63 -64 -101 -102 -118 -119 -134 -135 -149 -150 -163 -164 -188 -190 -199 -200 0
-23 -43 -45 -63 -64 -101 -102 -118 -119 -134 -135 -149 -150 -163 -164 -188 -190 -199 -200 0
-23 -44 -45 -63 -65 -101 -102 -118 -119 -134 -135 -149 -150 -163 -164 -188 -190 -199 -200 0
-23 -44 -45 -64 -65 -101 -103 -118 -119 -134 -135 -149 -150 -163 -164 -188 -190 -199 -200 0
-23 -44 -45 -64 -65 -102 -103 -118 -120 -134 -135 -149 -150 -163 -164 -188 -190 -199 -200 0
-23 -44 -45 -64 -65 -102 -103 -119 -120 -134 -136 -149 -150 -163 -164 -188 -190 -199 -200 0
-23 -44 -45 -64 -65 -102 -103 -119 -120 -135 -136 -149 -151 -163 -164 -188 -190 -199 -200 0
-23 -44 -45 -64 -65 -102 -103 -119 -120 -135 -136 -150 -151 -163 -165 -188 -190 -199 -200 0
-23 -44 -45 -64 -65 -102 -103 -119 -120 -135 -136 -150 -151 -164 -165 -188 -191 -199 -200 0
-22 -43 -44 -63 -64 -101 -102 -118 -119 -134 -135 -149 -150 -163 -164 -189 -190 -199 -201 0
-23 -43 -45 -63 -64 -101 -102 -118 -119 -134 -135 -149 -150 -163 -164 -189 -190 -199 -201 0
-23 -44 -45 -63 -65 -101 -102 -118 -119 -134 -135 -149 -150 -163 -164 -189 -190 -199 -201 0
-23 -44 -45 -64 -65 -101 -103 -118 -119 -134 -135 -149 -150 -163 -164 -189 -190 -199 -201 0
-23 -44 -45 -64 -65 -102 -103 -118 -120 -134 -135 -149 -150 -163 -164 -189 -190 -199 -201 0
-23 -44 -45 -64 -65 -102 -103 -119 -120 -134 -136 -149 -150 -163 -164 -189 -190 -199 -201 0
-23 -44 -45 -64 -65 -102 -103 -119 -120 -135 -136 -149 -151 -163 -164 -189 -190 -199 -201 0
-23 -44 -45 -64 -65 -102 -103 -119 -120 -135 -136 -150 -151 -163 -165 -189 -190 -199 -201 0
-23 -44 -45 -64 -65 -102 -103 -119 -120 -135 -136 -150 -151 -164 -165 -189 -191 -199 -201 0
-23 -44 -45 -64 -65 -102 -103 -119 -120 -135 -136 -150 -151 -164 -165 -190 -191 -199 -202 0
-22 -43 -44 -63 -64 -101 -102 -118 -119 -134 -135 -149 -150 -163 -164 -189 -190 -200 -201 0
-23 -43 -45 -63 -64 -101 -102 -118 -119 -134 -135 -149 -150 -163 -164 -189 -190 -200 -201 0
-23 -44 -45 -63 -65 -101 -102 -118 -119 -134 -135 -149 -150 -163 -164 -189 -190 -200 -201 0
-23 -44 -45 -64 -65 -101 -103 -118 -119 -134 -135 -149 -150 -163 -164 -189 -190 -200 -201 0
-23 -44 -45 -64 -65 -102 -103 -118 -120 -134 -135 -149 -150 -163 -164 -189 -190 -200 -201 0
-23 -44 -45 -64 -65 -102 -103 -119 -120 -134 -136 -149 -150 -163 -164 -189 -190 -200 -201 0
-23 -44 -45 -64 -65 -102 -103 -119 -120 -135 -136 -149 -151 -163 -164 -189 -190 -200 -201 0
-23 -44 -45 -64 -65 -102 -103 -119 -120 -135 -136 -150 -151 -163 -165 -189 -190 -200 -201 0
-23 -44 -45 -64 -65 -102 -103 -119 -120 -135 -136 -150 -151 -164 -165 -189 -191 -200 -201 0
-23 -44 -45 -64 -65 -102 -103 -119 -120 -135 -136 -150 -151 -164 -165 -190 -191 -200 -202 0
-23 -44 -45 -64 -65 -102 -103 -119 -120 -135 -136 -150 -151 -164 -165 -190 -191 -201 -202 0
-22 -43 -44 -63 -64 -101 -102 -118 -119 -134 -135 -149 -150 -163 -164 -189 -190 -211 -212 0
-23 -43 -45 -63 -64 -101 -102 -118 -119 -134 -135 -149 -150 -163 -164 -189 -190 -211 -212 0
-23 -44 -45 -63 -65 -101 -102 -118 -119 -134 -135 -149 -150 -163 -164 -189 -190 -211 -212 0
-23 -44 -45 -64 -65 -101 -103 -118 -119 -134 -135 -149 -150 -163 -164 -189 -190 -211 -212 0
-23 -44 -45 -64 -65 -102 -103 -118 -120 -134 -135 -149 -150 -163 -164 -189 -190 -211 -212 0
-23 -44 -45 -64 -65 -102 -103 -119 -120 -134 -136 -149 -150 -163 -164 -189 -190 -211 -212 0
-23 -44 -45 -64 -65 -102 -103 -119 -120 -135 -136 -149 -151 -163 -164 -189 -190 -211 -212 0
-23 -44 -45 -64 -65 -102 -103 -119 -120 -135 -136 -150 -151 -163 -165 -189 -190 -211 -212 0
-23 -44 -45 -64 -65 -102 -103 -119 -120 -135 -136 -150 -151 -164 -165 -189 -191 -211 -212 0
-23 -44 -45 -64 -65 -102 -103 -119 -120 -135 -136 -150 -151 -164 -165 -190 -191 -211 -213 0
-23 -44 -45 -64 -65 -102 -103 -119 -120 -135 -136 -150 -151 -164 -165 -190 -191 -212 -213 0
-23 -44 -45 -64 -65 -102 -103 -119 -120 -135 -136 -150 -151 -164 -165 -190 -191 -222 -223 0
-22 -43 -44 -63 -64 -101 -102 -118 -119 -134 -135 -149 -150 -163 -164 -201 -202 -211 -212 0
-23 -43 -45 -63 -64 -101 -102 -118 -119 -134 -135 -149 -150 -163 -164 -201 -202 -211 -212 0
-23 -44 -45 -63 -65 -101 -102 -118 -119 -134 -135 -149 -150 -163 -164 -201 -202 -211 -212 0
-23 -44 -45 -64 -65 -101 -103 -118 -119 -134 -135 -149 -150 -163 -164 -201 -202 -211 -212 0
-23 -44 -45 -64 -65 -102 -103 -118 -120 -134 -135 -149 -150 -163 -164 -201 -202 -211 -212 0
-23 -44 -45 -64 -65 -102 -103 -119 -120 -134 -136 -149 -150 -163 -164 -201 -202 -211 -212 0
-23 -44 -45 -64 -65 -102 -103 -119 -120 -135 -136 -149 -151 -163 -164 -201 -202 -211 -212 0
-23 -44 -45 -64 -65 -102 -103 -119 -120 -135 -136 -150 -151 -163 -165 -201 -202 -211 -212 0
-23 -44 -45 -64 -65 -102 -103 -119 -120 -135 -136 -150 -151 -164 -165 -201 -203 -211 -212 0
-23 -44 -45 -64 -65 -102 -103 -119 -120 -135 -136 -150 -151 -164 -165 -202 -203 -211 -213 0
-23 -44 -45 -64 -65 -102 -103 -119 -120 -135 -136 -150 -151 -164 -165 -202 -203 -212 -213 0
-23 -44 -45 -64 -65 -102 -103 -119 -120 -135 -136 -150 -151 -164 -165 -202 -203 -222 -223 0
-23 -44 -45 -64 -65 -102 -103 -119 -120 -135 -136 -150 -151 -164 -165 -213 -214 -222 -223 0
-21 -42 -43 -62 -63 -100 -101 -117 -118 -133 -134 -148 -149 -176 -177 -188 -189 -199 -200 0
-22 -42 -44 -62 -63 -100 -101 -117 -118 -133 -134 -148 -149 -176 -177 -188 -189 -199 -200 0
-23 -42 -45 -62 -63 -100 -101 -117 -118 -133 -134 -148 -149 -176 -177 -188 -189 -199 -200 0
-22 -43 -44 -62 -64 -100 -101 -117 -118 -133 -134 -148 -149 -176 -177 -188 -189 -199 -200 0
-23 -43 -45 -62 -64 -100 -101 -117 -118 -133 -134 -148 -149 -176 -177 -188 -189 -199 -200 0
-23 -44 -45 -62 -65 -100 -101 -117 -118 -133 -134 -148 -149 -176 -177 -188 -189 -199 -200 0
-22 -43 -44 -63 -64 -100 -102 -117 -118 -133 -134 -148 -149 -176 -177 -188 -189 -199 -200 0
-23 -43 -45 -63 -64 -100 -102 -117 -118 -133 -134 -148 -149 -176 -177 -188 -189 -199 -200 0
-23 -44 -45 -63 -65 -100 -102 -117 -118 -133 -134 -148 -149 -176 -177 -188 -189 -199 -200 0
-23 -44 -45 -64 -65 -100 -103 -117 -118 -133 -134 -148 -149 -176 -177 -188 -189 -199 -200 0
-22 -43 -44 -63 -64 -101 -102 -117 -119 -133 -134 -148 -149 -176 -177 -188 -189 -199 -200 0
-23 -43 -45 -63 -64 -101 -102 -117 -119 -133 -134 -148 -149 -176 -177 -188 -189 -199 -200 0
-23 -44 -45 -63 -65 -101 -102 -117 -119 -133 -134 -148 -149 -176 -177 -188 -189 -199 -200 0
-23 -44 -45 -64 -65 -101 -103 -117 -119 -133 -134 -148 -149 -176 -177 -188 -189 -199 -200 0
-23 -44 -45 -64 -65 -102 -103 -117 -120 -133 -134 -148 -149 -176 -177 -188 -189 -199 -200 0
-22 -43 -44 -63 -64 -101 -102 -118 -119 -133 -135 -148 -149 -176 -177 -188 -189 -199 -200 0
-23 -43 -45 -63 -64 -101 -102 -118 -119 -133 -135 -148 -149 -176 -177 -188 -189 -199 -200 0
-23 -44 -45 -63 -65 -101 -102 -118 -119 -133 -135 -148 -149 -176 -177 -188 -189 -199 -200 0
-23 -44 -45 -64 -65 -101 -103 -118 -119 -133 -135 -148 -149 -176 -177 -188 -189 -199 -200 0
-23 -44 -45 -64 -65 -102 -103 -118 -120 -133 -135 -148 -149 -176 -177 -188 -189 -199 -200 0
-23 -44 -45 -64 -65 -102 -103 -119 -120 -133 -136 -148 -149 -176 -177 -188 -189 -199 -200 0
-22 -43 -44 -63 -64 -101 -102 -118 -119 -134 -135 -148 -150 -176 -177 -188 -189 -199 -200 0
-23 -43 -45 -63 -64 -101 -102 -118 -119 -134 -135 -148 -150 -176 -177 -188 -189 -199 -200 0
-23 -44 -45 -63 -65 -101 -102 -118 -119 -134 -135 -148 -150 -176 -177 -188 -189 -199 -200 0
-23 -44 -45 -64 -65 -101 -103 -118 -119 -134 -135 -148 -150 -176 -177 -188 -189 -199 -200 0
-23 -44 -45 -64 -65 -102 -103 -118 -120 -134 -135 -148 -150 -176 -177 -188 -189 -199 -200 0
-23 -44 -45 -64 -65 -102 -103 -119 -120 -134 -136 -148 -150 -176 -177 -188 -189 -199 -200 0
-23 -44 -45 -64 -65 -102 -103 -119 -120 -135 -136 -148 -151 -176 -177 -188 -189 -199 -200 0
-22 -43 -44 -63 -64 -101 -102 -118 -119 -134 -135 -149 -150 -176 -178 -188 -189 -199 -200 0
-23 -43 -45 -63 -64 -101 -102 -118 -119 -134 -135 -149 -150 -176 -178 -188 -189 -199 -200 0
-23 -44 -45 -63 -65 -101 -102 -118 -119 -134 -135 -149 -150 -176 -178 -188 -189 -199 -200 0
-23 -44 -45 -64 -65 -101 -103 -118 -119 -134 -135 -149 -150 -176 -178 -188 -189 -199 -200 0
-23 -44 -45 -64 -65 -102 -103 -118 -120 -134 -135 -149 -150 -176 -178 -188 -189 -199 -200 0
-23 -44 -45 -64 -65 -102 -103 -119 -120 -134 -136 -149 -150 -176 -178 -188 -189 -199 -200 0
-23 -44 -45 -64 -65 -102 -103 -119 -120 -135 -136 -149 -151 -176 -178 -188 -189 -199 -200 0
-23 -44 -45 -64 -65 -102 -103 -119 -120 -135 -136 -150 -151 -176 -179 -188 -189 -199 -200 0
-22 -43 -44 -63 -64 -101 -102 -118 -119 -134 -135 -149 -150 -177 -178 -188 -190 -199 -200 0
-23 -43 -45 -63 -64 -101 -102 -118 -119 -134 -135 -149 -150 -177 -178 -188 -190 -199 -200 0
-23 -44 -45 -63 -65 -101 -102 -118 -119 -134 -135 -149 -150 -177 -178 -188 -190 -199 -200 0
-23 -44 -45 -64 -65 -101 -103 -118 -119 -134 -135 -149 -150 -177 -178 -188 -190 -199 -200 0
-23 -44 -45 -64 -65 -102 -103 -118 -120 -134 -135 -149 -150 -177 -178 -188 -190 -199 -200 0
-23 -44 -45 -64 -65 -102 -103 -119 -120 -134 -136 -149 -150 -177 -178 -188 -190 -199 -200 0
-23 -44 -45 -64 -65 -102 -103 -119 -120 -135 -136 -149 -151 -177 -178 -188 -190 -199 -200 0
-23 -44 -45 -64 -65 -102 -103 -119 -120 -135 -136 -150 -151 -177 -179 -188 -190 -199 -200 0
-23 -44 -45 -64 -65 -102 -103 -119 -120 -135 -136 -150 -151 -178 -179 -188 -191 -199 -200 0
-22 -43 -44 -63 -64 -101 -102 -118 -119 -134 -135 -149 -150 -177 -178 -189 -190 -199 -201 0
-23 -43 -45 -63 -64 -101 -102 -118 -119 -134 -135 -149 -150 -177 -178 -189 -190 -199 -201 0
-23 -44 -45 -63 -65 -101 -102 -118 -119 -134 -135 -149 -150 -177 -178 -189 -190 -199 -201 0
-23 -44 -45 -64 -65 -101 -103 -118 -119 -134 -135 -149 -150 -177 -178 -189 -190 -199 -201 0
-23 -44 -45 -64 -65 -102 -103 -118 -120 -134 -135 -149 -150 -177 -178 -189 -190 -199 -201 0
-23 -44 -45 -64 -65 -102 -103 -119 -120 -134 -136 -149 -150 -177 -178 -189 -190 -199 -201 0
-23 -44 -45 -64 -65 -102 -103 -119 -120 -135 -136 -149 -151 -177 -178 -189 -190 -199 -201 0
-23 -44 -45 -64 -65 -102 -103 -119 -120 -135 -136 -150 -151 -177 -179 -189 -190 -199 -201 0
-23 -44 -45 -64 -65 -102 -103 -119 -120 -135 -136 -150 -151 -178 -179 -189 -191 -199 -201 0
-23 -44 -45 -64 -65 -102 -103 -119 -120 -135 -136 -150 -151 -178 -179 -190 -191 -199 -202 0
-22 -43 -44 -63 -64 -101 -102 -118 -119 -134 -135 -149 -150 -177 -178 -189 -190 -200 -201 0
-23 -43 -45 -63 -64 -101 -102 -118 -119 -134 -135 -149 -150 -177 -178 -189 -190 -200 -201 0
-23 -44 -45 -63 -65 -101 -102 -118 -119 -134 -135 -149 -150 -177 -178 -189 -190 -200 -201 0
-23 -44 -45 -64 -65 -101 -103 -118 -119 -134 -135 -149 -150 -177 -178 -189 -190 -200 -201 0
-23 -44 -45 -64 -65 -102 -103 -118 -120 -134 -135 -149 -150 -177 -178 -189 -190 -200 -201 0
-23 -44 -45 -64 -65 -102 -103 -119 -120 -134 -136 -149 -150 -177 -178 -189 -190 -200 -201 0
-23 -44 -45 -64 -65 -102 -103 -119 -120 -135 -136 -149 -151 -177 -178 -189 -190 -200 -201 0
-23 -44 -45 -64 -65 -102 -103 -119 -120 -135 -136 -150 -151 -177 -179 -189 -190 -200 -201 0
-23 -44 -45 -64 -65 -102 -103 -119 -120 -135 -136 -150 -151 -178 -179 -189 -191 -200 -201 0
-23 -44 -45 -64 -65 -102 -103 -119 -120 -135 -136 -150 -151 -178 -179 -190 -191 -200 -202 0
-23 -44 -45 -64 -65 -102 -103 -119 -120 -135 -136 -150 -151 -178 -179 -190 -191 -201 -202 0
-22 -43 -44 -63 -64 -101 -102 -118 -119 -134 -135 -149 -150 -177 -178 -189 -190 -211 -212 0
-23 -43 -45 -63 -64 -101 -102 -118 -119 -134 -135 -149 -150 -177 -178 -189 -190 -211 -212 0
-23 -44 -45 -63 -65 -101 -102 -118 -119 -134 -135 -149 -150 -177 -178 -189 -190 -211 -212 0
-23 -44 -45 -64 -65 -101 -103 -118 -119 -134 -135 -149 -150 -177 -178 -189 -190 -211 -212 0
-23 -44 -45 -64 -65 -102 -103 -118 -120 -134 -135 -149 -150 -177 -178 -189 -190 -211 -212 0
-23 -44 -45 -64 -65 -102 -103 -119 -120 -134 -136 -149 -150 -177 -178 -189 -190 -211 -212 0
-23 -44 -45 -64 -65 -102 -103 -119 -120 -135 -136 -149 -151 -177 -178 -189 -190 -211 -212 0
-23 -44 -45 -64 -65 -102 -103 -119 -120 -135 -136 -150 -151 -177 -179 -189 -190 -211 -212 0
-23 -44 -45 -64 -65 -102 -103 -119 -120 -135 -136 -150 -151 -178 -179 -189 -191 -211 -212 0
-23 -44 -45 -64 -65 -102 -103 -119 -120 -135 -136 -150 -151 -178 -179 -190 -191 -211 -213 0
-23 -44 -45 -64 -65 -102 -103 -119 -120 -135 -136 -150 -151 -178 -179 -190 -191 -212 -213 0
-23 -44 -45 -64 -65 -102 -103 -119 -120 -135 -136 -150 -151 -178 -179 -190 -191 -222 -223 0
-22 -43 -44 -63 -64 -101 -102 -118 -119 -134 -135 -149 -150 -177 -178 -201 -202 -211 -212 0
-23 -43 -45 -63 -64 -101 -102 -118 -119 -134 -135 -149 -150 -177 -178 -201 -202 -211 -212 0
-23 -44 -45 -63 -65 -101 -102 -118 -119 -134 -135 -149 -150 -177 -178 -201 -202 -211 -212 0
-23 -44 -45 -64 -65 -101 -103 -118 -119 -134 -135 -149 -150 -177 -178 -201 -202 -211 -212 0
-23 -44 -45 -64 -65 -102 -103 -118 -120 -134 -135 -149 -150 -177 -178 -201 -202 -211 -212 0
-23 -44 -45 -64 -65 -102 -103 -119 -120 -134 -136 -149 -150 -177 -178 -201 -202 -211 -212 0
-23 -44 -45 -64 -65 -102 -103 -119 -120 -135 -136 -149 -151 -177 -178 -201 -202 -211 -212 0
-23 -44 -45 -64 -65 -102 -103 -119 -120 -135 -136 -150 -151 -177 -179 -201 -202 -211 -212 0
-23 -44 -45 -64 -65 -102 -103 -119 -120 -135 -136 -150 -151 -178 -179 -201 -203 -211 -212 0
-23 -44 -45 -64 -65 -102 -103 -119 -120 -135 -136 -150 -151 -178 -179 -202 -203 -211 -213 0
-23 -44 -45 -64 -65 -102 -103 -119 -120 -135 -136 -150 -151 -178 -179 -202 -203 -212 -213 0
-23 -44 -45 -64 -65 -102 -103 -119 -120 -135 -136 -150 -151 -178 -179 -202 -203 -222 -223 0
-23 -44 -45 -64 -65 -102 -103 -119 -120 -135 -136 -150 -151 -178 -179 -213 -214 -222 -223 0
-22 -43 -44 -63 -64 -101 -102 -118 -119 -134 -135 -149 -150 -190 -191 -201 -202 -211 -212 0
-23 -43 -45 -63 -64 -101 -102 -118 -119 -134 -135 -149 -150 -190 -191 -201 -202 -211 -212 0
-23 -44 -45 -63 -65 -101 -102 -118 -119 -134 -135 -149 -150 -190 -191 -201 -202 -211 -212 0
-23 -44 -45 -64 -65 -101 -103 -118 -119 -134 -135 -149 -150 -190 -191 -201 -202 -211 -212 0
-23 -44 -45 -64 -65 -102 -103 -118 -120 -134 -135 -149 -150 -190 -191 -201 -202 -211 -212 0
-23 -44 -45 -64 -65 -102 -103 -119 -120 -134 -136 -149 -150 -190 -191 -201 -202 -211 -212 0
-23 -44 -45 -64 -65 -102 -103 -119 -120 -135 -136 -149 -151 -190 -191 -201 -202 -211 -212 0
-23 -44 -45 -64 -65 -102 -103 -119 -120 -135 -136 -150 -151 -190 -192 -201 -202 -211 -212 0
-23 -44 -45 -64 -65 -102 -103 -119 -120 -135 -136 -150 -151 -191 -192 -201 -203 -211 -212 0
-23 -44 -45 -64 -65 -102 -103 -119 -120 -135 -136 -150 -151 -191 -192 -202 -203 -211 -213 0
-23 -44 -45 -64 -65 -102 -103 -119 -120 -135 -136 -150 -151 -191 -192 -202 -203 -212 -213 0
-23 -44 -45 -64 -65 -102 -103 -119 -120 -135 -136 -150 -151 -191 -192 -202 -203 -222 -223 0
-23 -44 -45 -64 -65 -102 -103 -119 -120 -135 -136 -150 -151 -191 -192 -213 -214 -222 -223 0
-23 -44 -45 -64 -65 -102 -103 -119 -120 -135 -136 -150 -151 -203 -204 -213 -214 -222 -223 0
-21 -42 -43 -62 -63 -100 -101 -117 -118 -133 -134 -163 -164 -176 -177 -188 -189 -199 -200 0
-22 -42 -44 -62 -63 -100 -101 -117 -118 -133 -134 -163 -164 -176 -177 -188 -189 -199 -200 0
-23 -42 -45 -62 -63 -100 -101 -117 -118 -133 -134 -163 -164 -176 -177 -188 -189 -199 -200 0
-22 -43 -44 -62 -64 -100 -101 -117 -118 -133 -134 -163 -164 -176 -177 -188 -189 -199 -200 0
-23 -43 -45 -62 -64 -100 -101 -117 -118 -133 -134 -163 -164 -176 -177 -188 -189 -199 -200 0
-23 -44 -45 -62 -65 -100 -101 -117 -118 -133 -134 -163 -164 -176 -177 -188 -189 -199 -200 0
-22 -43 -44 -63 -64 -100 -102 -117 -118 -133 -134 -163 -164 -176 -177 -188 -189 -199 -200 0
-23 -43 -45 -63 -64 -100 -102 -117 -118 -133 -134 -163 -164 -176 -177 -188 -189 -199 -200 0
-23 -44 -45 -63 -65 -100 -102 -117 -118 -133 -134 -163 -164 -176 -177 -188 -189 -199 -200 0
-23 -44 -45 -64 -65 -100 -103 -117 -118 -133 -134 -163 -164 -176 -177 -188 -189 -199 -200 0
-22 -43 -44 -63 -64 -101 -102 -117 -119 -133 -134 -163 -164 -176 -177 -188 -189 -199 -200 0
-23 -43 -45 -63 -64 -101 -102 -117 -119 -133 -134 -163 -164 -176 -177 -188 -189 -199 -200 0
-23 -44 -45 -63 -65 -101 -102 -117 -119 -133 -134 -163 -164 -176 -177 -188 -189 -199 -200 0
-23 -44 -45 -64 -65 -101 -103 -117 -119 -133 -134 -163 -164 -176 -177 -188 -189 -199 -200 0
-23 -44 -45 -64 -65 -102 -103 -117 -120 -133 -134 -163 -164 -176 -177 -188 -189 -199 -200 0
-22 -43 -44 -63 -64 -101 -102 -118 -119 -133 -135 -163 -164 -176 -177 -188 -189 -199 -200 0
-23 -43 -45 -63 -64 -101 -102 -118 -119 -133 -135 -163 -164 -176 -177 -188 -189 -199 -200 0
-23 -44 -45 -63 -65 -101 -102 -118 -119 -133 -135 -163 -164 -176 -177 -188 -189 -199 -200 0
-23 -44 -45 -64 -65 -101 -103 -118 -119 -133 -135 -163 -164 -176 -177 -188 -189 -199 -200 0
-23 -44 -45 -64 -65 -102 -103 -118 -120 -133 -135 -163 -164 -176 -177 -188 -189 -199 -200 0
-23 -44 -45 -64 -65 -102 -103 -119 -120 -133 -136 -163 -164 -176 -177 -188 -189 -199 -200 0
-22 -43 -44 -63 -64 -101 -102 -118 -119 -134 -135 -163 -165 -176 -177 -188 -189 -199 -200 0
-23 -43 -45 -63 -64 -101 -102 -118 -119 -134 -135 -163 -165 -176 -177 -188 -189 -199 -200 0
-23 -44 -45 -63 -65 -101 -102 -118 -119 -134 -135 -163 -165 -176 -177 -188 -189 -199 -200 0
-23 -44 -45 -64 -65 -101 -103 -118 -119 -134 -135 -163 -165 -176 -177 -188 -189 -199 -200 0
-23 -44 -45 -64 -65 -102 -103 -118 -120 -134 -135 -163 -165 -176 -177 -188 -189 -199 -200 0
-23 -44 -45 -64 -65 -102 -103 -119 -120 -134 -136 -163 -165 -176 -177 -188 -189 -199 -200 0
-23 -44 -45 -64 -65 -102 -103 -119 -120 -135 -136 -163 -166 -176 -177 -188 -189 -199 -200 0
-22 -43 -44 -63 -64 -101 -102 -118 -119 -134 -135 -164 -165 -176 -178 -188 -189 -199 -200 0
-23 -43 -45 -63 -64 -101 -102 -118 -119 -134 -135 -164 -165 -176 -178 -188 -189 -199 -200 0
-23 -44 -45 -63 -65 -101 -102 -118 -119 -134 -135 -164 -165 -176 -178 -188 -189 -199 -200 0
-23 -44 -45 -64 -65 -101 -103 -118 -119 -134 -135 -164 -165 -176 -178 -188 -189 -199 -200 0
-23 -44 -45 -64 -65 -102 -103 -118 -120 -134 -135 -164 -165 -176 -178 -188 -189 -199 -200 0
-23 -44 -45 -64 -65 -102 -103 -119 -120 -134 -136 -164 -165 -176 -178 -188 -189 -199 -200 0
-23 -44 -45 -64 -65 -102 -103 -119 -120 -135 -136 -164 -166 -176 -178 -188 -189 -199 -200 0
-23 -44 -45 -64 -65 -102 -103 -119 -120 -135 -136 -165 -166 -176 -179 -188 -189 -199 -200 0
-22 -43 -44 -63 -64 -101 -102 -118 -119 -134 -135 -164 -165 -177 -178 -188 -190 -199 -200 0
-23 -43 -45 -63 -64 -101 -102 -118 -119 -134 -135 -164 -165 -177 -178 -188 -190 -199 -200 0
-23 -44 -45 -63 -65 -101 -102 -118 -119 -134 -135 -164 -165 -177 -178 -188 -190 -199 -200 0
-23 -44 -45 -64 -65 -101 -103 -118 -119 -134 -135 -164 -165 -177 -178 -188 -190 -199 -200 0
-23 -44 -45 -64 -65 -102 -103 -118 -120 -134 -135 -164 -165 -177 -178 -188 -190 -199 -200 0
-23 -44 -45 -64 -65 -102 -103 -119 -120 -134 -136 -164 -165 -177 -178 -188 -190 -199 -200 0
-23 -44 -45 -64 -65 -102 -103 -119 -120 -135 -136 -164 -166 -177 -178 -188 -190 -199 -200 0
-23 -44 -45 -64 -65 -102 -103 -119 -120 -135 -136 -165 -166 -177 -179 -188 -190 -199 -200 0
-23 -44 -45 -64 -65 -102 -103 -119 -120 -135 -136 -165 -166 -178 -179 -188 -191 -199 -200 0
-22 -43 -44 -63 -64 -101 -102 -118 -119 -134 -135 -164 -165 -177 -178 -189 -190 -199 -201 0
-23 -43 -45 -63 -64 -101 -102 -118 -119 -134 -135 -164 -165 -177 -178 -189 -190 -199 -201 0
-23 -44 -45 -63 -65 -101 -102 -118 -119 -134 -135 -164 -165 -177 -178 -189 -190 -199 -201 0
-23 -44 -45 -64 -65 -101 -103 -118 -119 -134 -135 -164 -165 -177 -178 -189 -190 -199 -201 0
-23 -44 -45 -64 -65 -102 -103 -118 -120 -134 -135 -164 -165 -177 -178 -189 -190 -199 -201 0
-23 -44 -45 -64 -65 -102 -103 -119 -120 -134 -136 -164 -165 -177 -178 -189 -190 -199 -201 0
-23 -44 -45 -64 -65 -102 -103 -119 -120 -135 -136 -164 -166 -177 -178 -189 -190 -199 -201 0
-23 -44 -45 -64 -65 -102 -103 -119 -120 -135 -136 -165 -166 -177 -179 -189 -190 -199 -201 0
-23 -44 -45 -64 -65 -102 -103 -119 -120 -135 -136 -165 -166 -178 -179 -189 -191 -199 -201 0
-23 -44 -45 -64 -65 -102 -103 -119 -120 -135 -136 -165 -166 -178 -179 -190 -191 -199 -202 0
-22 -43 -44 -63 -64 -101 -102 -118 -119 -134 -135 -164 -165 -177 -178 -189 -190 -200 -201 0
-23 -43 -45 -63 -64 -101 -102 -118 -119 -134 -135 -164 -165 -177 -178 -189 -190 -200 -201 0
-23 -44 -45 -63 -65 -101 -102 -118 -119 -134 -135 -164 -165 -177 -178 -189 -190 -200 -201 0
-23 -44 -45 -64 -65 -101 -103 -118 -119 -134 -135 -164 -165 -177 -178 -189 -190 -200 -201 0
-23 -44 -45 -64 -65 -102 -103 -118 -120 -134 -135 -164 -165 -177 -178 -189 -190 -200 -201 0
-23 -44 -45 -64 -65 -102 -103 -119 -120 -134 -136 -164 -165 -177 -178 -189 -190 -200 -201 0
-23 -44 -45 -64 -65 -102 -103 -119 -120 -135 -136 -164 -166 -177 -178 -189 -190 -200 -201 0
-23 -44 -45 -64 -65 -102 -103 -119 -120 -135 -136 -165 -166 -177 -179 -189 -190 -200 -201 0
-23 -44 -45 -64 -65 -102 -103 -119 -120 -135 -136 -165 -166 -178 -179 -189 -191 -200 -201 0
-23 -44 -45 -64 -65 -102 -103 -119 -120 -135 -136 -165 -166 -178 -179 -190 -191 -200 -202 0
-23 -44 -45 -64 -65 -102 -103 -119 -120 -135 -136 -165 -166 -178 -179 -190 -191 -201 -202 0
-22 -43 -44 -63 -64 -101 -102 -118 -119 -134 -135 -164 -165 -177 -178 -189 -190 -211 -212 0
-23 -43 -45 -63 -64 -101 -102 -118 -119 -134 -135 -164 -165 -177 -178 -189 -190 -211 -212 0
-23 -44 -45 -63 -65 -101 -102 -118 -119 -134 -135 -164 -165 -177 -178 -189 -190 -211 -212 0
-23 -44 -45 -64 -65 -101 -103 -118 -119 -134 -135 -164 -165 -177 -178 -189 -190 -211 -212 0
-23 -44 -45 -64 -65 -102 -103 -118 -120 -134 -135 -164 -165 -177 -178 -189 -190 -211 -212 0
-23 -44 -45 -64 -65 -102 -103 -119 -120 -134 -136 -164 -165 -177 -178 -189 -190 -211 -212 0
-23 -44 -45 -64 -65 -102 -103 -119 -120 -135 -136 -164 -166 -177 -178 -189 -190 -211 -212 0
-23 -44 -45 -64 -65 -102 -103 -119 -120 -135 -136 -165 -166 -177 -179 -189 -190 -211 -212 0
-23 -44 -45 -64 -65 -102 -103 -119 -120 -135 -136 -165 -166 -178 -179 -189 -191 -211 -212 0
-23 -44 -45 -64 -65 -102 -103 -119 -120 -135 -136 -165 -166 -178 -179 -190 -191 -211 -213 0
-23 -44 -45 -64 -65 -102 -103 -119 -120 -135 -136 -165 -166 -178 -179 -190 -191 -212 -213 0
-23 -44 -45 -64 -65 -102 -103 -119 -120 -135 -136 -165 -166 -178 -179 -190 -191 -222 -223 0
-22 -43 -44 -63 -64 -101 -102 -118 -119 -134 -135 -164 -165 -177 -178 -201 -202 -211 -212 0
-23 -43 -45 -63 -64 -101 -102 -118 -119 -134 -135 -164 -165 -177 -178 -201 -202 -211 -212 0
-23 -44 -45 -63 -65 -101 -102 -118 -119 -134 -135 -164 -165 -177 -178 -201 -202 -211 -212 0
-23 -44 -45 -64 -65 -101 -103 -118 -119 -134 -135 -164 -165 -177 -178 -201 -202 -211 -212 0
-23 -44 -45 -64 -65 -102 -103 -118 -120 -134 -135 -164 -165 -177 -178 -201 -202 -211 -212 0
-23 -44 -45 -64 -65 -102 -103 -119 -120 -134 -136 -164 -165 -177 -178 -201 -202 -211 -212 0
-23 -44 -45 -64 -65 -102 -103 -119 -120 -135 -136 -164 -166 -177 -178 -201 -202 -211 -212 0
-23 -44 -45 -64 -65 -102 -103 -119 -120 -135 -136 -165 -166 -177 -179 -201 -202 -211 -212 0
-23 -44 -45 -64 -65 -102 -103 -119 -120 -135 -136 -165 -166 -178 -179 -201 -203 -211 -212 0
-23 -44 -45 -64 -65 -102 -103 -119 -120 -135 -136 -165 -166 -178 -179 -202 -203 -211 -213 0
-23 -44 -45 -64 -65 -102 -103 -119 -120 -135 -136 -165 -166 -178 -179 -202 -203 -212 -213 0
-23 -44 -45 -64 -65 -102 -103 -119 -120 -135 -136 -165 -166 -178 -179 -202 -203 -222 -223 0
-23 -44 -45 -64 -65 -102 -103 -119 -120 -135 -136 -165 -166 -178 -179 -213 -214 -222 -223 0
-22 -43 -44 -63 -64 -101 -102 -118 -119 -134 -135 -164 -165 -190 -191 -201 -202 -211 -212 0
-23 -43 -45 -63 -64 -101 -102 -118 -119 -134 -135 -164 -165 -190 -191 -201 -202 -211 -212 0
-23 -44 -45 -63 -65 -101 -102 -118 -119 -134 -135 -164 -165 -190 -191 -201 -202 -211 -212 0
-23 -44 -45 -64 -65 -101 -103 -118 -119 -134 -135 -164 -165 -190 -191 -201 -202 -211 -212 0
-23 -44 -45 -64 -65 -102 -103 -118 -120 -134 -135 -164 -165 -190 -191 -201 -202 -211 -212 0
-23 -44 -45 -64 -65 -102 -103 -119 -120 -134 -136 -164 -165 -190 -191 -201 -202 -211 -212 0
-23 -44 -45 -64 -65 -102 -103 -119 -120 -135 -136 -164 -166 -190 -191 -201 -202 -211 -212 0
-23 -44 -45 -64 -65 -102 -103 -119 -120 -135 -136 -165 -166 -190 -192 -201 -202 -211 -212 0
-23 -44 -45 -64 -65 -102 -103 -119 -120 -135 -136 -165 -166 -191 -192 -201 -203 -211 -212 0
-23 -44 -45 -64 -65 -102 -103 -119 -120 -135 -136 -165 -166 -191 -192 -202 -203 -211 -213 0
-23 -44 -45 -64 -65 -102 -103 -119 -120 -135 -136 -165 -166 -191 -192 -202 -203 -212 -213 0
-23 -44 -45 -64 -65 -102 -103 -119 -120 -135 -136 -165 -166 -191 -192 -202 -203 -222 -223 0
-23 -44 -45 -64 -65 -102 -103 -119 -120 -135 -136 -165 -166 -191 -192 -213 -214 -222 -223 0
-23 -44 -45 -64 -65 -102 -103 -119 -120 -135 -136 -165 -166 -203 -204 -213 -214 -222 -223 0
-22 -43 -44 -63 -64 -101 -102 -118 -119 -134 -135 -178 -179 -190 -191 -201 -202 -211 -212 0
-23 -43 -45 -63 -64 -101 -102 -118 -119 -134 -135 -178 -179 -190 -191 -201 -202 -211 -212 0
-23 -44 -45 -63 -65 -101 -102 -118 -119 -134 -135 -178 -179 -190 -191 -201 -202 -211 -212 0
-23 -44 -45 -64 -65 -101 -103 -118 -119 -134 -135 -178 -179 -190 -191 -201 -202 -211 -212 0
-23 -44 -45 -64 -65 -102 -103 -118 -120 -134 -135 -178 -179 -190 -191 -201 -202 -211 -212 0
-23 -44 -45 -64 -65 -102 -103 -119 -120 -134 -136 -178 -179 -190 -191 -201 -202 -211 -212 0
-23 -44 -45 -64 -65 -102 -103 -119 -120 -135 -136 -178 -180 -190 -191 -201 -202 -211 -212 0
-23 -44 -45 -64 -65 -102 -103 -119 -120 -135 -136 -179 -180 -190 -192 -201 -202 -211 -212 0
-23 -44 -45 -64 -65 -102 -103 -119 -120 -135 -136 -179 -180 -191 -192 -201 -203 -211 -212 0
-23 -44 -45 -64 -65 -102 -103 -119 -120 -135 -136 -179 -180 -191 -192 -202 -203 -211 -213 0
-23 -44 -45 -64 -65 -102 -103 -119 -120 -135 -136 -179 -180 -191 -192 -202 -203 -212 -213 0
-23 -44 -45 -64 -65 -102 -103 -119 -120 -135 -136 -179 -180 -191 -192 -202 -203 -222 -223 0
-23 -44 -45 -64 -65 -102 -103 -119 -120 -135 -136 -179 -180 -191 -192 -213 -214 -222 -223 0
-23 -44 -45 -64 -65 -102 -103 -119 -120 -135 -136 -179 -180 -203 -204 -213 -214 -222 -223 0
-23 -44 -45 -64 -65 -102 -103 -119 -120 -135 -136 -192 -193 -203 -204 -213 -214 -222 -223 0
-21 -42 -43 -62 -63 -100 -101 -117 -118 -149 -150 -163 -164 -176 -177 -188 -189 -199 -200 0
-22 -42 -44 -62 -63 -100 -101 -117 -118 -149 -150 -163 -164 -176 -177 -188 -189 -199 -200 0
-23 -42 -45 -62 -63 -100 -101 -117 -118 -149 -150 -163 -164 -176 -177 -188 -189 -199 -200 0
-22 -43 -44 -62 -64 -100 -101 -117 -118 -149 -150 -163 -164 -176 -177 -188 -189 -199 -200 0
-23 -43 -45 -62 -64 -100 -101 -117 -118 -149 -150 -163 -164 -176 -177 -188 -189 -199 -200 0
-23 -44 -45 -62 -65 -100 -101 -117 -118 -149 -150 -163 -164 -176 -177 -188 -189 -199 -200 0
-22 -43 -44 -63 -64 -100 -102 -117 -118 -149 -150 -163 -164 -176 -177 -188 -189 -199 -200 0
-23 -43 -45 -63 -64 -100 -102 -117 -118 -149 -150 -163 -164 -176 -177 -188 -189 -199 -200 0
-23 -44 -45 -63 -65 -100 -102 -117 -118 -149 -150 -163 -164 -176 -177 -188 -189 -199 -200 0
-23 -44 -45 -64 -65 -100 -103 -117 -118 -149 -150 -163 -164 -176 -177 -188 -189 -199 -200 0
-22 -43 -44 -63 -64 -101 -102 -117 -119 -149 -150 -163 -164 -176 -177 -188 -189 -199 -200 0
-23 -43 -45 -63 -64 -101 -102 -117 -119 -149 -150 -163 -164 -176 -177 -188 -189 -199 -200 0
-23 -44 -45 -63 -65 -101 -102 -117 -119 -149 -150 -163 -164 -176 -177 -188 -189 -199 -200 0
-23 -44 -45 -64 -65 -101 -103 -117 -119 -149 -150 -163 -164 -176 -177 -188 -189 -199 -200 0
-23 -44 -45 -64 -65 -102 -103 -117 -120 -149 -150 -163 -164 -176 -177 -188 -189 -199 -200 0
-22 -43 -44 -63 -64 -101 -102 -118 -119 -149 -151 -163 -164 -176 -177 -188 -189 -199 -200 0
-23 -43 -45 -63 -64 -101 -102 -118 -119 -149 -151 -163 -164 -176 -177 -188 -189 -199 -200 0
-23 -44 -45 -63 -65 -101 -102 -118 -119 -149 -151 -163 -164 -176 -177 -188 -189 -199 -200 0
-23 -44 -45 -64 -65 -101 -103 -118 -119 -149 -151 -163 -164 -176 -177 -188 -189 -199 -200 0
-23 -44 -45 -64 -65 -102 -103 -118 -120 -149 -151 -163 -164 -176 -177 -188 -189 -199 -200 0
-23 -44 -45 -64 -65 -102 -103 -119 -120 -149 -152 -163 -164 -176 -177 -188 -189 -199 -200 0
-22 -43 -44 -63 -64 -101 -102 -118 -119 -150 -151 -163 -165 -176 -177 -188 -189 -199 -200 0
-23 -43 -45 -63 -64 -101 -102 -118 -119 -150 -151 -163 -165 -176 -177 -188 -189 -199 -200 0
-23 -44 -45 -63 -65 -101 -102 -118 -119 -150 -151 -163 -165 -176 -177 -188 -189 -199 -200 0
-23 -44 -45 -64 -65 -101 -103 -118 -119 -150 -151 -163 -165 -176 -177 -188 -189 -199 -200 0
-23 -44 -45 -64 -65 -102 -103 -118 -120 -150 -151 -163 -165 -176 -177 -188 -189 -199 -200 0
-23 -44 -45 -64 -65 -102 -103 -119 -120 -150 -152 -163 -165 -176 -177 -188 -189 -199 -200 0
-23 -44 -45 -64 -65 -102 -103 -119 -120 -151 -152 -163 -166 -176 -177 -188 -189 -199 -200 0
-22 -43 -44 -63 -64 -101 -102 -118 -119 -150 -151 -164 -165 -176 -178 -188 -189 -199 -200 0
-23 -43 -45 -63 -64 -101 -102 -118 -119 -150 -151 -164 -165 -176 -178 -188 -189 -199 -200 0
-23 -44 -45 -63 -65 -101 -102 -118 -119 -150 -151 -164 -165 -176 -178 -188 -189 -199 -200 0
-23 -44 -45 -64 -65 -101 -103 -118 -119 -150 -151 -164 -165 -176 -178 -188 -189 -199 -200 0
-23 -44 -45 -64 -65 -102 -103 -118 -120 -150 -151 -164 -165 -176 -178 -188 -189 -199 -200 0
-23 -44 -45 -64 -65 -102 -103 -119 -120 -150 -152 -164 -165 -176 -178 -188 -189 -199 -200 0
-23 -44 -45 -64 -65 -102 -103 -119 -120 -151 -152 -164 -166 -176 -178 -188 -189 -199 -200 0
-23 -44 -45 -64 -65 -102 -103 -119 -120 -151 -152 -165 -166 -176 -179 -188 -189 -199 -200 0
-22 -43 -44 -63 -64 -101 -102 -118 -119 -150 -151 -164 -165 -177 -178 -188 -190 -199 -200 0
-23 -43 -45 -63 -64 -101 -102 -118 -119 -150 -151 -164 -165 -177 -178 -188 -190 -199 -200 0
-23 -44 -45 -63 -65 -101 -102 -118 -119 -150 -151 -164 -165 -177 -178 -188 -190 -199 -200 0
-23 -44 -45 -64 -65 -101 -103 -118 -119 -150 -151 -164 -165 -177 -178 -188 -190 -199 -200 0
-23 -44 -45 -64 -65 -102 -103 -118 -120 -150 -151 -164 -165 -177 -178 -188 -190 -199 -200 0
-23 -44 -45 -64 -65 -102 -103 -119 -120 -150 -152 -164 -165 -177 -178 -188 -190 -199 -200 0
-23 -44 -45 -64 -65 -102 -103 -119 -120 -151 -152 -164 -166 -177 -178 -188 -190 -199 -200 0
-23 -44 -45 -64 -65 -102 -103 -119 -120 -151 -152 -165 -166 -177 -179 -188 -190 -199 -200 0
-23 -44 -45 -64 -65 -102 -103 -119 -120 -151 -152 -165 -166 -178 -179 -188 -191 -199 -200 0
-22 -43 -44 -63 -64 -101 -102 -118 -119 -150 -151 -164 -165 -177 -178 -189 -190 -199 -201 0
-23 -43 -45 -63 -64 -101 -102 -118 -119 -150 -151 -164 -165 -177 -178 -189 -190 -199 -201 0
-23 -44 -45 -63 -65 -101 -102 -118 -119 -150 -151 -164 -165 -177 -178 -189 -190 -199 -201 0
-23 -44 -45 -64 -65 -101 -103 -118 -119 -150 -151 -164 -165 -177 -178 -189 -190 -199 -201 0
-23 -44 -45 -64 -65 -102 -103 -118 -120 -150 -151 -164 -165 -177 -178 -189 -190 -199 -201 0
-23 -44 -45 -64 -65 -102 -103 -119 -120 -150 -152 -164 -165 -177 -178 -189 -190 -199 -201 0
-23 -44 -45 -64 -65 -102 -103 -119 -120 -151 -152 -164 -166 -177 -178 -189 -190 -199 -201 0
-23 -44 -45 -64 -65 -102 -103 -119 -120 -151 -152 -165 -166 -177 -179 -189 -190 -199 -201 0
-23 -44 -45 -64 -65 -102 -103 -119 -120 -151 -152 -165 -166 -178 -179 -189 -191 -199 -201 0
-23 -44 -45 -64 -65 -102 -103 -119 -120 -151 -152 -165 -166 -178 -179 -190 -191 -199 -202 0
-22 -43 -44 -63 -64 -101 -102 -118 -119 -150 -151 -164 -165 -177 -178 -189 -190 -200 -201 0
-23 -43 -45 -63 -64 -101 -102 -118 -119 -150 -151 -164 -165 -177 -178 -189 -190 -200 -201 0
-23 -44 -45 -63 -65 -101 -102 -118 -119 -150 -151 -164 -165 -177 -178 -189 -190 -200 -201 0
-23 -44 -45 -64 -65 -101 -103 -118 -119 -150 -151 -164 -165 -177 -178 -189 -190 -200 -201 0
-23 -44 -45 -64 -65 -102 -103 -118 -120 -150 -151 -164 -165 -177 -178 -189 -190 -200 -201 0
-23 -44 -45 -64 -65 -102 -103 -119 -120 -150 -152 -164 -165 -177 -178 -189 -190 -200 -201 0
-23 -44 -45 -64 -65 -102 -103 -119 -120 -151 -152 -164 -166 -177 -178 -189 -190 -200 -201 0
-23 -44 -45 -64 -65 -102 -103 -119 -120 -151 -152 -165 -166 -177 -179 -189 -190 -200 -201 0
-23 -44 -45 -64 -65 -102 -103 -119 -120 -151 -152 -165 -166 -178 -179 -189 -191 -200 -201 0
-23 -44 -45 -64 -65 -102 -103 -119 -120 -151 -152 -165 -166 -178 -179 -190 -191 -200 -202 0
-23 -44 -45 -64 -65 -102 -103 -119 -120 -151 -152 -165 -166 -178 -179 -190 -191 -201 -202 0
-22 -43 -44 -63 -64 -101 -102 -118 -119 -150 -151 -164 -165 -177 -178 -189 -190 -211 -212 0
-23 -43 -45 -63 -64 -101 -102 -118 -119 -150 -151 -164 -165 -177 -178 -189 -190 -211 -212 0
-23 -44 -45 -63 -65 -101 -102 -118 -119 -150 -151 -164 -165 -177 -178 -189 -190 -211 -212 0
-23 -44 -45 -64 -65 -101 -103 -118 -119 -150 -151 -164 -165 -177 -178 -189 -190 -211 -212 0
-23 -44 -45 -64 -65 -102 -103 -118 -120 -150 -151 -164 -165 -177 -178 -189 -190 -211 -212 0
-23 -44 -45 -64 -65 -102 -103 -119 -120 -150 -152 -164 -165 -177 -178 -189 -190 -211 -212 0
-23 -44 -45 -64 -65 -102 -103 -119 -120 -151 -152 -164 -166 -177 -178 -189 -190 -211 -212 0
-23 -44 -45 -64 -65 -102 -103 -119 -120 -151 -152 -165 -166 -177 -179 -189 -190 -211 -212 0
-23 -44 -45 -64 -65 -102 -103 -119 -120 -151 -152 -165 -166 -178 -179 -189 -191 -211 -212 0
-23 -44 -45 -64 -65 -102 -103 -119 -120 -151 -152 -165 -166 -178 -179 -190 -191 -211 -213 0
-23 -44 -45 -64 -65 -102 -103 -119 -120 -151 -152 -165 -166 -178 -179 -190 -191 -212 -213 0
-23 -44 -45 -64 -65 -102 -103 -119 -120 -151 -152 -165 -166 -178 -179 -190 -191 -222 -223 0
-22 -43 -44 -63 -64 -101 -102 -118 -119 -150 -151 -164 -165 -177 -178 -201 -202 -211 -212 0
-23 -43 -45 -63 -64 -101 -102 -118 -119 -150 -151 -164 -165 -177 -178 -201 -202 -211 -212 0
-23 -44 -45 -63 -65 -101 -102 -118 -119 -150 -151 -164 -165 -177 -178 -201 -202 -211 -212 0
-23 -44 -45 -64 -65 -101 -103 -118 -119 -150 -151 -164 -165 -177 -178 -201 -202 -211 -212 0
-23 -44 -45 -64 -65 -102 -103 -118 -120 -150 -151 -164 -165 -177 -178 -201 -202 -211 -212 0
-23 -44 -45 -64 -65 -102 -103 -119 -120 -150 -152 -164 -165 -177 -178 -201 -202 -211 -212 0
-23 -44 -45 -64 -65 -102 -103 -119 -120 -151 -152 -164 -166 -177 -178 -201 -202 -211 -212 0
-23 -44 -45 -64 -65 -102 -103 -119 -120 -151 -152 -165 -166 -177 -179 -201 -202 -211 -212 0
-23 -44 -45 -64 -65 -102 -103 -119 -120 -151 -152 -165 -166 -178 -179 -201 -203 -211 -212 0
-23 -44 -45 -64 -65 -102 -103 -119 -120 -151 -152 -165 -166 -178 -179 -202 -203 -211 -213 0
-23 -44 -45 -64 -65 -102 -103 -119 -120 -151 -152 -165 -166 -178 -179 -202 -203 -212 -213 0
-23 -44 -45 -64 -65 -102 -103 -119 -120 -151 -152 -165 -166 -178 -179 -202 -203 -222 -223 0
-23 -44 -45 -64 -65 -102 -103 -119 -120 -151 -152 -165 -166 -178 -179 -213 -214 -222 -223 0
-22 -43 -44 -63 -64 -101 -102 -118 -119 -150 -151 -164 -165 -190 -191 -201 -202 -211 -212 0
-23 -43 -45 -63 -64 -101 -102 -118 -119 -150 -151 -164 -165 -190 -191 -201 -202 -211 -212 0
-23 -44 -45 -63 -65 -101 -102 -118 -119 -150 -151 -164 -165 -190 -191 -201 -202 -211 -212 0
-23 -44 -45 -64 -65 -101 -103 -118 -119 -150 -151 -164 -165 -190 -191 -201 -202 -211 -212 0
-23 -44 -45 -64 -65 -102 -103 -118 -120 -150 -151 -164 -165 -190 -191 -201 -202 -211 -212 0
-23 -44 -45 -64 -65 -102 -103 -119 -120 -150 -152 -164 -165 -190 -191 -201 -202 -211 -212 0
-23 -44 -45 -64 -65 -102 -103 -119 -120 -151 -152 -164 -166 -190 -191 -201 -202 -211 -212 0
-23 -44 -45 -64 -65 -102 -103 -119 -120 -151 -152 -165 -166 -190 -192 -201 -202 -211 -212 0
-23 -44 -45 -64 -65 -102 -103 -119 -120 -151 -152 -165 -166 -191 -192 -201 -203 -211 -212 0
-23 -44 -45 -64 -65 -102 -103 -119 -120 -151 -152 -165 -166 -191 -192 -202 -203 -211 -213 0
-23 -44 -45 -64 -65 -102 -103 -119 -120 -151 -152 -165 -166 -191 -192 -202 -203 -212 -213 0
-23 -44 -45 -64 -65 -102 -103 -119 -120 -151 -152 -165 -166 -191 -192 -202 -203 -222 -223 0
-23 -44 -45 -64 -65 -102 -103 -119 -120 -151 -152 -165 -166 -191 -192 -213 -214 -222 -223 0
-23 -44 -45 -64 -65 -102 -103 -119 -120 -151 -152 -165 -166 -203 -204 -213 -214 -222 -223 0
-22 -43 -44 -63 -64 -101 -102 -118 -119 -150 -151 -178 -179 -190 -191 -201 -202 -211 -212 0
-23 -43 -45 -63 -64 -101 -102 -118 -119 -150 -151 -178 -179 -190 -191 -201 -202 -211 -212 0
-23 -44 -45 -63 -65 -101 -102 -118 -119 -150 -151 -178 -179 -190 -191 -201 -202 -211 -212 0
-23 -44 -45 -64 -65 -101 -103 -118 -119 -150 -151 -178 -179 -190 -191 -201 -202 -211 -212 0
-23 -44 -45 -64 -65 -102 -103 -118 -120 -150 -151 -178 -179 -190 -191 -201 -202 -211 -212 0
-23 -44 -45 -64 -65 -102 -103 -119 -120 -150 -152 -178 -179 -190 -191 -201 -202 -211 -212 0
-23 -44 -45 -64 -65 -102 -103 -119 -120 -151 -152 -178 -180 -190 -191 -201 -202 -211 -212 0
-23 -44 -45 -64 -65 -102 -103 -119 -120 -151 -152 -179 -180 -190 -192 -201 -202 -211 -212 0
-23 -44 -45 -64 -65 -102 -103 -119 -120 -151 -152 -179 -180 -191 -192 -201 -203 -211 -212 0
-23 -44 -45 -64 -65 -102 -103 -119 -120 -151 -152 -179 -180 -191 -192 -202 -203 -211 -213 0
-23 -44 -45 -64 -65 -102 -103 -119 -120 -151 -152 -179 -180 -191 -192 -202 -203 -212 -213 0
-23 -44 -45 -64 -65 -102 -103 -119 -120 -151 -152 -179 -180 -191 -192 -202 -203 -222 -223 0
-23 -44 -45 -64 -65 -102 -103 -119 -120 -151 -152 -179 -180 -191 -192 -213 -214 -222 -223 0
-23 -44 -45 -64 -65 -102 -103 -119 -120 -151 -152 -179 -180 -203 -204 -213 -214 -222 -223 0
-23 -44 -45 -64 -65 -102 -103 -119 -120 -151 -152 -192 -193 -203 -204 -213 -214 -222 -223 0
-22 -43 -44 -63 -64 -101 -102 -118 -119 -165 -166 -178 -179 -190 -191 -201 -202 -211 -212 0
-23 -43 -45 -63 -64 -101 -102 -118 -119 -165 -166 -178 -179 -190 -191 -201 -202 -211 -212 0
-23 -44 -45 -63 -65 -101 -102 -118 -119 -165 -166 -178 -179 -190 -191 -201 -202 -211 -212 0
-23 -44 -45 -64 -65 -101 -103 -118 -119 -165 -166 -178 -179 -190 -191 -201 -202 -211 -212 0
-23 -44 -45 -64 -65 -102 -103 -118 -120 -165 -166 -178 -179 -190 -191 -201 -202 -211 -212 0
-23 -44 -45 -64 -65 -102 -103 -119 -120 -165 -167 -178 -179 -190 -191 -201 -202 -211 -212 0
-23 -44 -45 -64 -65 -102 -103 -119 -120 -166 -167 -178 -180 -190 -191 -201 -202 -211 -212 0
-23 -44 -45 -64 -65 -102 -103 -119 -120 -166 -167 -179 -180 -190 -192 -201 -202 -211 -212 0
-23 -44 -45 -64 -65 -102 -103 -119 -120 -166 -167 -179 -180 -191 -192 -201 -203 -211 -212 0
-23 -44 -45 -64 -65 -102 -103 -119 -120 -166 -167 -179 -180 -191 -192 -202 -203 -211 -213 0
-23 -44 -45 -64 -65 -102 -103 -119 -120 -166 -167 -179 -180 -191 -192 -202 -203 -212 -213 0
-23 -44 -45 -64 -65 -102 -103 -119 -120 -166 -167 -179 -180 -191 -192 -202 -203 -222 -223 0
-23 -44 -45 -64 -65 -102 -103 -119 -120 -166 -167 -179 -180 -191 -192 -213 -214 -222 -223 0
-23 -44 -45 -64 -65 -102 -103 -119 -120 -166 -167 -179 -180 -203 -204 -213 -214 -222 -223 0
-23 -44 -45 -64 -65 -102 -103 -119 -120 -166 -167 -192 -193 -203 -204 -213 -214 -222 -223 0
-23 -44 -45 -64 -65 -102 -103 -119 -120 -180 -181 -192 -193 -203 -204 -213 -214 -222 -223 0
-21 -42 -43 -62 -63 -100 -101 -134 -135 -149 -150 -163 -164 -176 -177 -188 -189 -199 -200 0
-22 -42 -44 -62 -63 -100 -101 -134 -135 -149 -150 -163 -164 -176 -177 -188 -189 -199 -200 0
-23 -42 -45 -62 -63 -100 -101 -134 -135 -149 -150 -163 -164 -176 -177 -188 -189 -199 -200 0
-22 -43 -44 -62 -64 -100 -101 -134 -135 -149 -150 -163 -164 -176 -177 -188 -189 -199 -200 0
-23 -43 -45 -62 -64 -100 -101 -134 -135 -149 -150 -163 -164 -176 -177 -188 -189 -199 -200 0
-23 -44 -45 -62 -65 -100 -101 -134 -135 -149 -150 -163 -164 -176 -177 -188 -189 -199 -200 0
-22 -43 -44 -63 -64 -100 -102 -134 -135 -149 -150 -163 -164 -176 -177 -188 -189 -199 -200 0
-23 -43 -45 -63 -64 -100 -102 -134 -135 -149 -150 -163 -164 -176 -177 -188 -189 -199 -200 0
-23 -44 -45 -63 -65 -100 -102 -134 -135 -149 -150 -163 -164 -176 -177 -188 -189 -199 -200 0
-23 -44 -45 -64 -65 -100 -103 -134 -135 -149 -150 -163 -164 -176 -177 -188 -189 -199 -200 0
-22 -43 -44 -63 -64 -101 -102 -134 -136 -149 -150 -163 -164 -176 -177 -188 -189 -199 -200 0
-23 -43 -45 -63 -64 -101 -102 -134 -136 -149 -150 -163 -164 -176 -177 -188 -189 -199 -200 0
-23 -44 -45 -63 -65 -101 -102 -134 -136 -149 -150 -163 -164 -176 -177 -188 -189 -199 -200 0
-23 -44 -45 -64 -65 -101 -103 -134 -136 -149 -150 -163 -164 -176 -177 -188 -189 -199 -200 0
-23 -44 -45 -64 -65 -102 -103 -134 -137 -149 -150 -163 -164 -176 -177 -188 -189 -199 -200 0
-22 -43 -44 -63 -64 -101 -102 -135 -136 -149 -151 -163 -164 -176 -177 -188 -189 -199 -200 0
-23 -43 -45 -63 -64 -101 -102 -135 -136 -149 -151 -163 -164 -176 -177 -188 -189 -199 -200 0
-23 -44 -45 -63 -65 -101 -102 -135 -136 -149 -151 -163 -164 -176 -177 -188 -189 -199 -200 0
-23 -44 -45 -64 -65 -101 -103 -135 -136 -149 -151 -163 -164 -176 -177 -188 -189 -199 -200 0
-23 -44 -45 -64 -65 -102 -103 -135 -137 -149 -151 -163 -164 -176 -177 -188 -189 -199 -200 0
-23 -44 -45 -64 -65 -102 -103 -136 -137 -149 -152 -163 -164 -176 -177 -188 -189 -199 -200 0
-22 -43 -44 -63 -64 -101 -102 -135 -136 -150 -151 -163 -165 -176 -177 -188 -189 -199 -200 0
-23 -43 -45 -63 -64 -101 -102 -135 -136 -150 -151 -163 -165 -176 -177 -188 -189 -199 -200 0
-23 -44 -45 -63 -65 -101 -102 -135 -136 -150 -151 -163 -165 -176 -177 -188 -189 -199 -200 0
-23 -44 -45 -64 -65 -101 -103 -135 -136 -150 -151 -163 -165 -176 -177 -188 -189 -199 -200 0
-23 -44 -45 -64 -65 -102 -103 -135 -137 -150 -151 -163 -165 -176 -177 -188 -189 -199 -200 0
-23 -44 -45 -64 -65 -102 -103 -136 -137 -150 -152 -163 -165 -176 -177 -188 -189 -199 -200 0
-23 -44 -45 -64 -65 -102 -103 -136 -137 -151 -152 -163 -166 -176 -177 -188 -189 -199 -200 0
-22 -43 -44 -63 -64 -101 -102 -135 -136 -150 -151 -164 -165 -176 -178 -188 -189 -199 -200 0
-23 -43 -45 -63 -64 -101 -102 -135 -136 -150 -151 -164 -165 -176 -178 -188 -189 -199 -200 0
-23 -44 -45 -63 -65 -101 -102 -135 -136 -150 -151 -164 -165 -176 -178 -188 -189 -199 -200 0
-23 -44 -45 -64 -65 -101 -103 -135 -136 -150 -151 -164 -165 -176 -178 -188 -189 -199 -200 0
-23 -44 -45 -64 -65 -102 -103 -135 -137 -150 -151 -164 -165 -176 -178 -188 -189 -199 -200 0
-23 -44 -45 -64 -65 -102 -103 -136 -137 -150 -152 -164 -165 -176 -178 -188 -189 -199 -200 0
-23 -44 -45 -64 -65 -102 -103 -136 -137 -151 -152 -164 -166 -176 -178 -188 -189 -199 -200 0
-23 -44 -45 -64 -65 -102 -103 -136 -137 -151 -152 -165 -166 -176 -179 -188 -189 -199 -200 0
-22 -43 -44 -63 -64 -101 -102 -135 -136 -150 -151 -164 -165 -177 -178 -188 -190 -199 -200 0
-23 -43 -45 -63 -64 -101 -102 -135 -136 -150 -151 -164 -165 -177 -178 -188 -190 -199 -200 0
-23 -44 -45 -63 -65 -101 -102 -135 -136 -150 -151 -164 -165 -177 -178 -188 -190 -199 -200 0
-23 -44 -45 -64 -65 -101 -103 -135 -136 -150 -151 -164 -165 -177 -178 -188 -190 -199 -200 0
-23 -44 -45 -64 -65 -102 -103 -135 -137 -150 -151 -164 -165 -177 -178 -188 -190 -199 -200 0
-23 -44 -45 -64 -65 -102 -103 -136 -137 -150 -152 -164 -165 -177 -178 -188 -190 -199 -200 0
-23 -44 -45 -64 -65 -102 -103 -136 -137 -151 -152 -164 -166 -177 -178 -188 -190 -199 -200 0
-23 -44 -45 -64 -65 -102 -103 -136 -137 -151 -152 -165 -166 -177 -179 -188 -190 -199 -200 0
-23 -44 -45 -64 -65 -102 -103 -136 -137 -151 -152 -165 -166 -178 -179 -188 -191 -199 -200 0
-22 -43 -44 -63 -64 -101 -102 -135 -136 -150 -151 -164 -165 -177 -178 -189 -190 -199 -201 0
-23 -43 -45 -63 -64 -101 -102 -135 -136 -150 -151 -164 -165 -177 -178 -189 -190 -199 -201 0
-23 -44 -45 -63 -65 -101 -102 -135 -136 -150 -151 -164 -165 -177 -178 -189 -190 -199 -201 0
-23 -44 -45 -64 -65 -101 -103 -135 -136 -150 -151 -164 -165 -177 -178 -189 -190 -199 -201 0
-23 -44 -45 -64 -65 -102 -103 -135 -137 -150 -151 -164 -165 -177 -178 -189 -190 -199 -201 0
-23 -44 -45 -64 -65 -102 -103 -136 -137 -150 -152 -164 -165 -177 -178 -189 -190 -199 -201 0
-23 -44 -45 -64 -65 -102 -103 -136 -137 -151 -152 -164 -166 -177 -178 -189 -190 -199 -201 0
-23 -44 -45 -64 -65 -102 -103 -136 -137 -151 -152 -165 -166 -177 -179 -189 -190 -199 -201 0
-23 -44 -45 -64 -65 -102 -103 -136 -137 -151 -152 -165 -166 -178 -179 -189 -191 -199 -201 0
-23 -44 -45 -64 -65 -102 -103 -136 -137 -151 -152 -165 -166 -178 -179 -190 -191 -199 -202 0
-22 -43 -44 -63 -64 -101 -102 -135 -136 -150 -151 -164 -165 -177 -178 -189 -190 -200 -201 0
-23 -43 -45 -63 -64 -101 -102 -135 -136 -150 -151 -164 -165 -177 -178 -189 -190 -200 -201 0
-23 -44 -45 -63 -65 -101 -102 -135 -136 -150 -151 -164 -165 -177 -178 -189 -190 -200 -201 0
-23 -44 -45 -64 -65 -101 -103 -135 -136 -150 -151 -164 -165 -177 -178 -189 -190 -200 -201 0
-23 -44 -45 -64 -65 -102 -103 -135 -137 -150 -151 -164 -165 -177 -178 -189 -190 -200 -201 0
-23 -44 -45 -64 -65 -102 -103 -136 -137 -150 -152 -164 -165 -177 -178 -189 -190 -200 -201 0
-23 -44 -45 -64 -65 -102 -103 -136 -137 -151 -152 -164 -166 -177 -178 -189 -190 -200 -201 0
-23 -44 -45 -64 -65 -102 -103 -136 -137 -151 -152 -165 -166 -177 -179 -189 -190 -200 -201 0
-23 -44 -45 -64 -65 -102 -103 -136 -137 -151 -152 -165 -166 -178 -179 -189 -191 -200 -201 0
-23 -44 -45 -64 -65 -102 -103 -136 -137 -151 -152 -165 -166 -178 -179 -190 -191 -200 -202 0
-23 -44 -45 -64 -65 -102 -103 -136 -137 -151 -152 -165 -166 -178 -179 -190 -191 -201 -202 0
-22 -43 -44 -63 -64 -101 -102 -135 -136 -150 -151 -164 -165 -177 -178 -189 -190 -211 -212 0
-23 -43 -45 -63 -64 -101 -102 -135 -136 -150 -151 -164 -165 -177 -178 -189 -190 -211 -212 0
-23 -44 -45 -63 -65 -101 -102 -135 -136 -150 -151 -164 -165 -177 -178 -189 -190 -211 -212 0
-23 -44 -45 -64 -65 -101 -103 -135 -136 -150 -151 -164 -165 -177 -178 -189 -190 -211 -212 0
-23 -44 -45 -64 -65 -102 -103 -135 -137 -150 -151 -164 -165 -177 -178 -189 -190 -211 -212 0
-23 -44 -45 -64 -65 -102 -103 -136 -137 -150 -152 -164 -165 -177 -178 -189 -190 -211 -212 0
-23 -44 -45 -64 -65 -102 -103 -136 -137 -151 -152 -164 -166 -177 -178 -189 -190 -211 -212 0
-23 -44 -45 -64 -65 -102 -103 -136 -137 -151 -152 -165 -166 -177 -179 -189 -190 -211 -212 0
-23 -44 -45 -64 -65 -102 -103 -136 -137 -151 -152 -165 -166 -178 -179 -189 -191 -211 -212 0
-23 -44 -45 -64 -65 -102 -103 -136 -137 -151 -152 -165 -166 -178 -179 -190 -191 -211 -213 0
-23 -44 -45 -64 -65 -102 -103 -136 -137 -151 -152 -165 -166 -178 -179 -190 -191 -212 -213 0
-23 -44 -45 -64 -65 -102 -103 -136 -137 -151 -152 -165 -166 -178 -179 -190 -191 -222 -223 0
-22 -43 -44 -63 -64 -101 -102 -135 -136 -150 -151 -164 -165 -177 -178 -201 -202 -211 -212 0
-23 -43 -45 -63 -64 -101 -102 -135 -136 -150 -151 -164 -165 -177 -178 -201 -202 -211 -212 0
-23 -44 -45 -63 -65 -101 -102 -135 -136 -150 -151 -164 -165 -177 -178 -201 -202 -211 -212 0
-23 -44 -45 -64 -65 -101 -103 -135 -136 -150 -151 -164 -165 -177 -178 -201 -202 -211 -212 0
-23 -44 -45 -64 -65 -102 -103 -135 -137 -150 -151 -164 -165 -177 -178 -201 -202 -211 -212 0
-23 -44 -45 -64 -65 -102 -103 -136 -137 -150 -152 -164 -165 -177 -178 -201 -202 -211 -212 0
-23 -44 -45 -64 -65 -102 -103 -136 -137 -151 -152 -164 -166 -177 -178 -201 -202 -211 -212 0
-23 -44 -45 -64 -65 -102 -103 -136 -137 -151 -152 -165 -166 -177 -179 -201 -202 -211 -212 0
-23 -44 -45 -64 -65 -102 -103 -136 -137 -151 -152 -165 -166 -178 -179 -201 -203 -211 -212 0
-23 -44 -45 -64 -65 -102 -103 -136 -137 -151 -152 -165 -166 -178 -179 -202 -203 -211 -213 0
-23 -44 -45 -64 -65 -102 -103 -136 -137 -151 -152 -165 -166 -178 -179 -202 -203 -212 -213 0
-23 -44 -45 -64 -65 -102 -103 -136 -137 -151 -152 -165 -166 -178 -179 -202 -203 -222 -223 0
-23 -44 -45 -64 -65 -102 -103 -136 -137 -151 -152 -165 -166 -178 -179 -213 -214 -222 -223 0
-22 -43 -44 -63 -64 -101 -102 -135 -136 -150 -151 -164 -165 -190 -191 -201 -202 -211 -212 0
-23 -43 -45 -63 -64 -101 -102 -135 -136 -150 -151 -164 -165 -190 -191 -201 -202 -211 -212 0
-23 -44 -45 -63 -65 -101 -102 -135 -136 -150 -151 -164 -165 -190 -191 -201 -202 -211 -212 0
-23 -44 -45 -64 -65 -101 -103 -135 -136 -150 -151 -164 -165 -190 -191 -201 -202 -211 -212 0
-23 -44 -45 -64 -65 -102 -103 -135 -137 -150 -151 -164 -165 -190 -191 -201 -202 -211 -212 0
-23 -44 -45 -64 -65 -102 -103 -136 -137 -150 -152 -164 -165 -190 -191 -201 -202 -211 -212 0
-23 -44 -45 -64 -65 -102 -103 -136 -137 -151 -152 -164 -166 -190 -191 -201 -202 -211 -212 0
-23 -44 -45 -64 -65 -102 -103 -136 -137 -151 -152 -165 -166 -190 -192 -201 -202 -211 -212 0
-23 -44 -45 -64 -65 -102 -103 -136 -137 -151 -152 -165 -166 -191 -192 -201 -203 -211 -212 0
-23 -44 -45 -64 -65 -102 -103 -136 -137 -151 -152 -165 -166 -191 -192 -202 -203 -211 -213 0
-23 -44 -45 -64 -65 -102 -103 -136 -137 -151 -152 -165 -166 -191 -192 -202 -203 -212 -213 0
-23 -44 -45 -64 -65 -102 -103 -136 -137 -151 -152 -165 -166 -191 -192 -202 -203 -222 -223 0
-23 -44 -45 -64 -65 -102 -103 -136 -137 -151 -152 -165 -166 -191 -192 -213 -214 -222 -223 0
-23 -44 -45 -64 -65 -102 -103 -136 -137 -151 -152 -165 -166 -203 -204 -213 -214 -222 -223 0
-22 -43 -44 -63 -64 -101 -102 -135 -136 -150 -151 -178 -179 -190 -191 -201 -202 -211 -212 0
-23 -43 -45 -63 -64 -101 -102 -135 -136 -150 -151 -178 -179 -190 -191 -201 -202 -211 -212 0
-23 -44 -45 -63 -65 -101 -102 -135 -136 -150 -151 -178 -179 -190 -191 -201 -202 -211 -212 0
-23 -44 -45 -64 -65 -101 -103 -135 -136 -150 -151 -178 -179 -190 -191 -201 -202 -211 -212 0
-23 -44 -45 -64 -65 -102 -103 -135 -137 -150 -151 -178 -179 -190 -191 -201 -202 -211 -212 0
-23 -44 -45 -64 -65 -102 -103 -136 -137 -150 -152 -178 -179 -190 -191 -201 -202 -211 -212 0
-23 -44 -45 -64 -65 -102 -103 -136 -137 -151 -152 -178 -180 -190 -191 -201 -202 -211 -212 0
-23 -44 -45 -64 -65 -102 -103 -136 -137 -151 -152 -179 -180 -190 -192 -201 -202 -211 -212 0
-23 -44 -45 -64 -65 -102 -103 -136 -137 -151 -152 -179 -180 -191 -192 -201 -203 -211 -212 0
-23 -44 -45 -64 -65 -102 -103 -136 -137 -151 -152 -179 -180 -191 -192 -202 -203 -211 -213 0
-23 -44 -45 -64 -65 -102 -103 -136 -137 -151 -152 -179 -180 -191 -192 -202 -203 -212 -213 0
-23 -44 -45 -64 -65 -102 -103 -136 -137 -151 -152 -179 -180 -191 -192 -202 -203 -222 -223 0
-23 -44 -45 -64 -65 -102 -103 -136 -137 -151 -152 -179 -180 -191 -192 -213 -214 -222 -223 0
-23 -44 -45 -64 -65 -102 -103 -136 -137 -151 -152 -179 -180 -203 -204 -213 -214 -222 -223 0
-23 -44 -45 -64 -65 -102 -103 -136 -137 -151 -152 -192 -193 -203 -204 -213 -214 -222 -223 0
-22 -43 -44 -63 -64 -101 -102 -135 -136 -165 -166 -178 -179 -190 -191 -201 -202 -211 -212 0
-23 -43 -45 -63 -64 -101 -102 -135 -136 -165 -166 -178 -179 -190 -191 -201 -202 -211 -212 0
-23 -44 -45 -63 -65 -101 -102 -135 -136 -165 -166 -178 -179 -190 -191 -201 -202 -211 -212 0
-23 -44 -45 -64 -65 -101 -103 -135 -136 -165 -166 -178 -179 -190 -191 -201 -202 -211 -212 0
-23 -44 -45 -64 -65 -102 -103 -135 -137 -165 -166 -178 -179 -190 -191 -201 -202 -211 -212 0
-23 -44 -45 -64 -65 -102 -103 -136 -137 -165 -167 -178 -179 -190 -191 -201 -202 -211 -212 0
-23 -44 -45 -64 -65 -102 -103 -136 -137 -166 -167 -178 -180 -190 -191 -201 -202 -211 -212 0
-23 -44 -45 -64 -65 -102 -103 -136 -137 -166 -167 -179 -180 -190 -192 -201 -202 -211 -212 0
-23 -44 -45 -64 -65 -102 -103 -136 -137 -166 -167 -179 -180 -191 -192 -201 -203 -211 -212 0
-23 -44 -45 -64 -65 -102 -103 -136 -137 -166 -167 -179 -180 -191 -192 -202 -203 -211 -213 0
-23 -44 -45 -64 -65 -102 -103 -136 -137 -166 -167 -179 -180 -191 -192 -202 -203 -212 -213 0
-23 -44 -45 -64 -65 -102 -103 -136 -137 -166 -167 -179 -180 -191 -192 -202 -203 -222 -223 0
-23 -44 -45 -64 -65 -102 -103 -136 -137 -166 -167 -179 -180 -191 -192 -213 -214 -222 -223 0
-23 -44 -45 -64 -65 -102 -103 -136 -137 -166 -167 -179 -180 -203 -204 -213 -214 -222 -223 0
-23 -44 -45 -64 -65 -102 -103 -136 -137 -166 -167 -192 -193 -203 -204 -213 -214 -222 -223 0
-23 -44 -45 -64 -65 -102 -103 -136 -137 -180 -181 -192 -193 -203 -204 -213 -214 -222 -223 0
-22 -43 -44 -63 -64 -101 -102 -151 -152 -165 -166 -178 -179 -190 -191 -201 -202 -211 -212 0
-23 -43 -45 -63 -64 -101 -102 -151 -152 -165 -166 -178 -179 -190 -191 -201 -202 -211 -212 0
-23 -44 -45 -63 -65 -101 -102 -151 -152 -165 -166 -178 -179 -190 -191 -201 -202 -211 -212 0
-23 -44 -45 -64 -65 -101 -103 -151 -152 -165 -166 -178 -179 -190 -191 -201 -202 -211 -212 0
-23 -44 -45 -64 -65 -102 -103 -151 -153 -165 -166 -178 -179 -190 -191 -201 -202 -211 -212 0
-23 -44 -45 -64 -65 -102 -103 -152 -153 -165 -167 -178 -179 -190 -191 -201 -202 -211 -212 0
-23 -44 -45 -64 -65 -102 -103 -152 -153 -166 -167 -178 -180 -190 -191 -201 -202 -211 -212 0
-23 -44 -45 -64 -65 -102 -103 -152 -153 -166 -167 -179 -180 -190 -192 -201 -202 -211 -212 0
-23 -44 -45 -64 -65 -102 -103 -152 -153 -166 -167 -179 -180 -191 -192 -201 -203 -211 -212 0
-23 -44 -45 -64 -65 -102 -103 -152 -153 -166 -167 -179 -180 -191 -192 -202 -203 -211 -213 0
-23 -44 -45 -64 -65 -102 -103 -152 -153 -166 -167 -179 -180 -191 -192 -202 -203 -212 -213 0
-23 -44 -45 -64 -65 -102 -103 -152 -153 -166 -167 -179 -180 -191 -192 -202 -203 -222 -223 0
-23 -44 -45 -64 -65 -102 -103 -152 -153 -166 -167 -179 -180 -191 -192 -213 -214 -222 -223 0
-23 -44 -45 -64 -65 -102 -103 -152 -153 -166 -167 -179 -180 -203 -204 -213 -214 -222 -223 0
-23 -44 -45 -64 -65 -102 -103 -152 -153 -166 -167 -192 -193 -203 -204 -213 -214 -222 -223 0
-23 -44 -45 -64 -65 -102 -103 -152 -153 -180 -181 -192 -193 -203 -204 -213 -214 -222 -223 0
-23 -44 -45 -64 -65 -102 -103 -167 -168 -180 -181 -192 -193 -203 -204 -213 -214 -222 -223 0
-21 -42 -43 -62 -63 -118 -119 -134 -135 -149 -150 -163 -164 -176 -177 -188 -189 -199 -200 0
-22 -42 -44 -62 -63 -118 -119 -134 -135 -149 -150 -163 -164 -176 -177 -188 -189 -199 -200 0
-23 -42 -45 -62 -63 -118 -119 -134 -135 -149 -150 -163 -164 -176 -177 -188 -189 -199 -200 0
-22 -43 -44 -62 -64 -118 -119 -134 -135 -149 -150 -163 -164 -176 -177 -188 -189 -199 -200 0
-23 -43 -45 -62 -64 -118 -119 -134 -135 -149 -150 -163 -164 -176 -177 -188 -189 -199 -200 0
-23 -44 -45 -62 -65 -118 -119 -134 -135 -149 -150 -163 -164 -176 -177 -188 -189 -199 -200 0
-22 -43 -44 -63 -64 -118 -120 -134 -135 -149 -150 -163 -164 -176 -177 -188 -189 -199 -200 0
-23 -43 -45 -63 -64 -118 -120 -134 -135 -149 -150 -163 -164 -176 -177 -188 -189 -199 -200 0
-23 -44 -45 -63 -65 -118 -120 -134 -135 -149 -150 -163 -164 -176 -177 -188 -189 -199 -200 0
-23 -44 -45 -64 -65 -118 -121 -134 -135 -149 -150 -163 -164 -176 -177 -188 -189 -199 -200 0
-22 -43 -44 -63 -64 -119 -120 -134 -136 -149 -150 -163 -164 -176 -177 -188 -189 -199 -200 0
-23 -43 -45 -63 -64 -119 -120 -134 -136 -149 -150 -163 -164 -176 -177 -188 -189 -199 -200 0
-23 -44 -45 -63 -65 -119 -120 -134 -136 -149 -150 -163 -164 -176 -177 -188 -189 -199 -200 0
-23 -44 -45 -64 -65 -119 -121 -134 -136 -149 -150 -163 -164 -176 -177 -188 -189 -199 -200 0
-23 -44 -45 -64 -65 -120 -121 -134 -137 -149 -150 -163 -164 -176 -177 -188 -189 -199 -200 0
-22 -43 -44 -63 -64 -119 -120 -135 -136 -149 -151 -163 -164 -176 -177 -188 -189 -199 -200 0
-23 -43 -45 -63 -64 -119 -120 -135 -136 -149 -151 -163 -164 -176 -177 -188 -189 -199 -200 0
-23 -44 -45 -63 -65 -119 -120 -135 -136 -149 -151 -163 -164 -176 -177 -188 -189 -199 -200 0
-23 -44 -45 -64 -65 -119 -121 -135 -136 -149 -151 -163 -164 -176 -177 -188 -189 -199 -200 0
-23 -44 -45 -64 -65 -120 -121 -135 -137 -149 -151 -163 -164 -176 -177 -188 -189 -199 -200 0
-23 -44 -45 -64 -65 -120 -121 -136 -137 -149 -152 -163 -164 -176 -177 -188 -189 -199 -200 0
-22 -43 -44 -63 -64 -119 -120 -135 -136 -150 -151 -163 -165 -176 -177 -188 -189 -199 -200 0
-23 -43 -45 -63 -64 -119 -120 -135 -136 -150 -151 -163 -165 -176 -177 -188 -189 -199 -200 0
-23 -44 -45 -63 -65 -119 -120 -135 -136 -150 -151 -163 -165 -176 -177 -188 -189 -199 -200 0
-23 -44 -45 -64 -65 -119 -121 -135 -136 -150 -151 -163 -165 -176 -177 -188 -189 -199 -200 0
-23 -44 -45 -64 -65 -120 -121 -135 -137 -150 -151 -163 -165 -176 -177 -188 -189 -199 -200 0
-23 -44 -45 -64 -65 -120 -121 -136 -137 -150 -152 -163 -165 -176 -177 -188 -189 -199 -200 0
-23 -44 -45 -64 -65 -120 -121 -136 -137 -151 -152 -163 -166 -176 -177 -188 -189 -199 -200 0
-22 -43 -44 -63 -64 -119 -120 -135 -136 -150 -151 -164 -165 -176 -178 -188 -189 -199 -200 0
-23 -43 -45 -63 -64 -119 -120 -135 -136 -150 -151 -164 -165 -176 -178 -188 -189 -199 -200 0
-23 -44 -45 -63 -65 -119 -120 -135 -136 -150 -151 -164 -165 -176 -178 -188 -189 -199 -200 0
-23 -44 -45 -64 -65 -119 -121 -135 -136 -150 -151 -164 -165 -176 -178 -188 -189 -199 -200 0
-23 -44 -45 -64 -65 -120 -121 -135 -137 -150 -151 -164 -165 -176 -178 -188 -189 -199 -200 0
-23 -44 -45 -64 -65 -120 -121 -136 -137 -150 -152 -164 -165 -176 -178 -188 -189 -199 -200 0
-23 -44 -45 -64 -65 -120 -121 -136 -137 -151 -152 -164 -166 -176 -178 -188 -189 -199 -200 0
-23 -44 -45 -64 -65 -120 -121 -136 -137 -151 -152 -165 -166 -176 -179 -188 -189 -199 -200 0
-22 -43 -44 -63 -64 -119 -120 -135 -136 -150 -151 -164 -165 -177 -178 -188 -190 -199 -200 0
-23 -43 -45 -63 -64 -119 -120 -135 -136 -150 -151 -164 -165 -177 -178 -188 -190 -199 -200 0
-23 -44 -45 -63 -65 -119 -120 -135 -136 -150 -151 -164 -165 -177 -178 -188 -190 -199 -200 0
-23 -44 -45 -64 -65 -119 -121 -135 -136 -150 -151 -164 -165 -177 -178 -188 -190 -199 -200 0
-23 -44 -45 -64 -65 -120 -121 -135 -137 -150 -151 -164 -165 -177 -178 -188 -190 -199 -200 0
-23 -44 -45 -64 -65 -120 -121 -136 -137 -150 -152 -164 -165 -177 -178 -188 -190 -199 -200 0
-23 -44 -45 -64 -65 -120 -121 -136 -137 -151 -152 -164 -166 -177 -178 -188 -190 -199 -200 0
-23 -44 -45 -64 -65 -120 -121 -136 -137 -151 -152 -165 -166 -177 -179 -188 -190 -199 -200 0
-23 -44 -45 -64 -65 -120 -121 -136 -137 -151 -152 -165 -166 -178 -179 -188 -191 -199 -200 0
-22 -43 -44 -63 -64 -119 -120 -135 -136 -150 -151 -164 -165 -177 -178 -189 -190 -199 -201 0
-23 -43 -45 -63 -64 -119 -120 -135 -136 -150 -151 -164 -165 -177 -178 -189 -190 -199 -201 0
-23 -44 -45 -63 -65 -119 -120 -135 -136 -150 -151 -164 -165 -177 -178 -189 -190 -199 -201 0
-23 -44 -45 -64 -65 -119 -121 -135 -136 -150 -151 -164 -165 -177 -178 -189 -190 -199 -201 0
-23 -44 -45 -64 -65 -120 -121 -135 -137 -150 -151 -164 -165 -177 -178 -189 -190 -199 -201 0
-23 -44 -45 -64 -65 -120 -121 -136 -137 -150 -152 -164 -165 -177 -178 -189 -190 -199 -201 0
-23 -44 -45 -64 -65 -120 -121 -136 -137 -151 -152 -164 -166 -177 -178 -189 -190 -199 -201 0
-23 -44 -45 -64 -65 -120 -121 -136 -137 -151 -152 -165 -166 -177 -179 -189 -190 -199 -201 0
-23 -44 -45 -64 -65 -120 -121 -136 -137 -151 -152 -165 -166 -178 -179 -189 -191 -199 -201 0
-23 -44 -45 -64 -65 -120 -121 -136 -137 -151 -152 -165 -166 -178 -179 -190 -191 -199 -202 0
-22 -43 -44 -63 -64 -119 -120 -135 -136 -150 -151 -164 -165 -177 -178 -189 -190 -200 -201 0
-23 -43 -45 -63 -64 -119 -120 -135 -136 -150 -151 -164 -165 -177 -178 -189 -190 -200 -201 0
-23 -44 -45 -63 -65 -119 -120 -135 -136 -150 -151 -164 -165 -177 -178 -189 -190 -200 -201 0
-23 -44 -45 -64 -65 -119 -121 -135 -136 -150 -151 -164 -165 -177 -178 -189 -190 -200 -201 0
-23 -44 -45 -64 -65 -120 -121 -135 -137 -150 -151 -164 -165 -177 -178 -189 -190 -200 -201 0
-23 -44 -45 -64 -65 -120 -121 -136 -137 -150 -152 -164 -165 -177 -178 -189 -190 -200 -201 0
-23 -44 -45 -64 -65 -120 -121 -136 -137 -151 -152 -164 -166 -177 -178 -189 -190 -200 -201 0
-23 -44 -45 -64 -65 -120 -121 -136 -137 -151 -152 -165 -166 -177 -179 -189 -190 -200 -201 0
-23 -44 -45 -64 -65 -120 -121 -136 -137 -151 -152 -165 -166 -178 -179 -189 -191 -200 -201 0
-23 -44 -45 -64 -65 -120 -121 -136 -137 -151 -152 -165 -166 -178 -179 -190 -191 -200 -202 0
-23 -44 -45 -64 -65 -120 -121 -136 -137 -151 -152 -165 -166 -178 -179 -190 -191 -201 -202 0
-22 -43 -44 -63 -64 -119 -120 -135 -136 -150 -151 -164 -165 -177 -178 -189 -190 -211 -212 0
-23 -43 -45 -63 -64 -119 -120 -135 -136 -150 -151 -164 -165 -177 -178 -189 -190 -211 -212 0
-23 -44 -45 -63 -65 -119 -120 -135 -136 -150 -151 -164 -165 -177 -178 -189 -190 -211 -212 0
-23 -44 -45 -64 -65 -119 -121 -135 -136 -150 -151 -164 -165 -177 -178 -189 -190 -211 -212 0
-23 -44 -45 -64 -65 -120 -121 -135 -137 -150 -151 -164 -165 -177 -178 -189 -190 -211 -212 0
-23 -44 -45 -64 -65 -120 -121 -136 -137 -150 -152 -164 -165 -177 -178 -189 -190 -211 -212 0
-23 -44 -45 -64 -65 -120 -121 -136 -137 -151 -152 -164 -166 -177 -178 -189 -190 -211 -212 0
-23 -44 -45 -64 -65 -120 -121 -136 -137 -151 -152 -165 -166 -177 -179 -189 -190 -211 -212 0
-23 -44 -45 -64 -65 -120 -121 -136 -137 -151 -152 -165 -166 -178 -179 -189 -191 -211 -212 0
-23 -44 -45 -64 -65 -120 -121 -136 -137 -151 -152 -165 -166 -178 -179 -190 -191 -211 -213 0
-23 -44 -45 -64 -65 -120 -121 -136 -137 -151 -152 -165 -166 -178 -179 -190 -191 -212 -213 0
-23 -44 -45 -64 -65 -120 -121 -136 -137 -151 -152 -165 -166 -178 -179 -190 -191 -222 -223 0
-22 -43 -44 -63 -64 -119 -120 -135 -136 -150 -151 -164 -165 -177 -178 -201 -202 -211 -212 0
-23 -43 -45 -63 -64 -119 -120 -135 -136 -150 -151 -164 -165 -177 -178 -201 -202 -211 -212 0
-23 -44 -45 -63 -65 -119 -120 -135 -136 -150 -151 -164 -165 -177 -178 -201 -202 -211 -212 0
-23 -44 -45 -64 -65 -119 -121 -135 -136 -150 -151 -164 -165 -177 -178 -201 -202 -211 -212 0
-23 -44 -45 -64 -65 -120 -121 -135 -137 -150 -151 -164 -165 -177 -178 -201 -202 -211 -212 0
-23 -44 -45 -64 -65 -120 -121 -136 -137 -150 -152 -164 -165 -177 -178 -201 -202 -211 -212 0
-23 -44 -45 -64 -65 -120 -121 -136 -137 -151 -152 -164 -166 -177 -178 -201 -202 -211 -212 0
-23 -44 -45 -64 -65 -120 -121 -136 -137 -151 -152 -165 -166 -177 -179 -201 -202 -211 -212 0
-23 -44 -45 -64 -65 -120 -121 -136 -137 -151 -152 -165 -166 -178 -179 -201 -203 -211 -212 0
-23 -44 -45 -64 -65 -120 -121 -136 -137 -151 -152 -165 -166 -178 -179 -202 -203 -211 -213 0
-23 -44 -45 -64 -65 -120 -121 -136 -137 -151 -152 -165 -166 -178 -179 -202 -203 -212 -213 0
-23 -44 -45 -64 -65 -120 -121 -136 -137 -151 -152 -165 -166 -178 -179 -202 -203 -222 -223 0
-23 -44 -45 -64 -65 -120 -121 -136 -137 -151 -152 -165 -166 -178 -179 -213 -214 -222 -223 0
-22 -43 -44 -63 -64 -119 -120 -135 -136 -150 -151 -164 -165 -190 -191 -201 -202 -211 -212 0
-23 -43 -45 -63 -64 -119 -120 -135 -136 -150 -151 -164 -165 -190 -191 -201 -202 -211 -212 0
-23 -44 -45 -63 -65 -119 -120 -135 -136 -150 -151 -164 -165 -190 -191 -201 -202 -211 -212 0
-23 -44 -45 -64 -65 -119 -121 -135 -136 -150 -151 -164 -165 -190 -191 -201 -202 -211 -212 0
-23 -44 -45 -64 -65 -120 -121 -135 -137 -150 -151 -164 -165 -190 -191 -201 -202 -211 -212 0
-23 -44 -45 -64 -65 -120 -121 -136 -137 -150 -152 -164 -165 -190 -191 -201 -202 -211 -212 0
-23 -44 -45 -64 -65 -120 -121 -136 -137 -151 -152 -164 -166 -190 -191 -201 -202 -211 -212 0
-23 -44 -45 -64 -65 -120 -121 -136 -137 -151 -152 -165 -166 -190 -192 -201 -202 -211 -212 0
-23 -44 -45 -64 -65 -120 -121 -136 -137 -151 -152 -165 -166 -191 -192 -201 -203 -211 -212 0
-23 -44 -45 -64 -65 -120 -121 -136 -137 -151 -152 -165 -166 -191 -192 -202 -203 -211 -213 0
-23 -44 -45 -64 -65 -120 -121 -136 -137 -151 -152 -165 -166 -191 -192 -202 -203 -212 -213 0
-23 -44 -45 -64 -65 -120 -121 -136 -137 -151 -152 -165 -166 -191 -192 -202 -203 -222 -223 0
-23 -44 -45 -64 -65 -120 -121 -136 -137 -151 -152 -165 -166 -191 -192 -213 -214 -222 -223 0
-23 -44 -45 -64 -65 -120 -121 -136 -137 -151 -152 -165 -166 -203 -204 -213 -214 -222 -223 0
-22 -43 -44 -63 -64 -119 -120 -135 -136 -150 -151 -178 -179 -190 -191 -201 -202 -211 -212 0
-23 -43 -45 -63 -64 -119 -120 -135 -136 -150 -151 -178 -179 -190 -191 -201 -202 -211 -212 0
-23 -44 -45 -63 -65 -119 -120 -135 -136 -150 -151 -178 -179 -190 -191 -201 -202 -211 -212 0
-23 -44 -45 -64 -65 -119 -121 -135 -136 -150 -151 -178 -179 -190 -191 -201 -202 -211 -212 0
-23 -44 -45 -64 -65 -120 -121 -135 -137 -150 -151 -178 -179 -190 -191 -201 -202 -211 -212 0
-23 -44 -45 -64 -65 -120 -121 -136 -137 -150 -152 -178 -179 -190 -191 -201 -202 -211 -212 0
-23 -44 -45 -64 -65 -120 -121 -136 -137 -151 -152 -178 -180 -190 -191 -201 -202 -211 -212 0
-23 -44 -45 -64 -65 -120 -121 -136 -137 -151 -152 -179 -180 -190 -192 -201 -202 -211 -212 0
-23 -44 -45 -64 -65 -120 -121 -136 -137 -151 -152 -179 -180 -191 -192 -201 -203 -211 -212 0
-23 -44 -45 -64 -65 -120 -121 -136 -137 -151 -152 -179 -180 -191 -192 -202 -203 -211 -213 0
-23 -44 -45 -64 -65 -120 -121 -136 -137 -151 -152 -179 -180 -191 -192 -202 -203 -212 -213 0
-23 -44 -45 -64 -65 -120 -121 -136 -137 -151 -152 -179 -180 -191 -192 -202 -203 -222 -223 0
-23 -44 -45 -64 -65 -120 -121 -136 -137 -151 -152 -179 -180 -191 -192 -213 -214 -222 -223 0
-23 -44 -45 -64 -65 -120 -121 -136 -137 -151 -152 -179 -180 -203 -204 -213 -214 -222 -223 0
-23 -44 -45 -64 -65 -120 -121 -136 -137 -151 -152 -192 -193 -203 -204 -213 -214 -222 -223 0
-22 -43 -44 -63 -64 -119 -120 -135 -136 -165 -166 -178 -179 -190 -191 -201 -202 -211 -212 0
-23 -43 -45 -63 -64 -119 -120 -135 -136 -165 -166 -178 -179 -190 -191 -201 -202 -211 -212 0
-23 -44 -45 -63 -65 -119 -120 -135 -136 -165 -166 -178 -179 -190 -191 -201 -202 -211 -212 0
-23 -44 -45 -64 -65 -119 -121 -135 -136 -165 -166 -178 -179 -190 -191 -201 -202 -211 -212 0
-23 -44 -45 -64 -65 -120 -121 -135 -137 -165 -166 -178 -179 -190 -191 -201 -202 -211 -212 0
-23 -44 -45 -64 -65 -120 -121 -136 -137 -165 -167 -178 -179 -190 -191 -201 -202 -211 -212 0
-23 -44 -45 -64 -65 -120 -121 -136 -137 -166 -167 -178 -180 -190 -191 -201 -202 -211 -212 0
-23 -44 -45 -64 -65 -120 -121 -136 -137 -166 -167 -179 -180 -190 -192 -201 -202 -211 -212 0
-23 -44 -45 -64 -65 -120 -121 -136 -137 -166 -167 -179 -180 -191 -192 -201 -203 -211 -212 0
-23 -44 -45 -64 -65 -120 -121 -136 -137 -166 -167 -179 -180 -191 -192 -202 -203 -211 -213 0
-23 -44 -45 -64 -65 -120 -121 -136 -137 -166 -167 -179 -180 -191 -192 -202 -203 -212 -213 0
-23 -44 -45 -64 -65 -120 -121 -136 -137 -166 -167 -179 -180 -191 -192 -202 -203 -222 -223 0
-23 -44 -45 -64 -65 -120 -121 -136 -137 -166 -167 -179 -180 -191 -192 -213 -214 -222 -223 0
-23 -44 -45 -64 -65 -120 -121 -136 -137 -166 -167 -179 -180 -203 -204 -213 -214 -222 -223 0
-23 -44 -45 -64 -65 -120 -121 -136 -137 -166 -167 -192 -193 -203 -204 -213 -214 -222 -223 0
-23 -44 -45 -64 -65 -120 -121 -136 -137 -180 -181 -192 -193 -203 -204 -213 -214 -222 -223 0
-22 -43 -44 -63 -64 -119 -120 -151 -152 -165 -166 -178 -179 -190 -191 -201 -202 -211 -212 0
-23 -43 -45 -63 -64 -119 -120 -151 -152 -165 -166 -178 -179 -190 -191 -201 -202 -211 -212 0
-23 -44 -45 -63 -65 -119 -120 -151 -152 -165 -166 -178 -179 -190 -191 -201 -202 -211 -212 0
-23 -44 -45 -64 -65 -119 -121 -151 -152 -165 -166 -178 -179 -190 -191 -201 -202 -211 -212 0
-23 -44 -45 -64 -65 -120 -121 -151 -153 -165 -166 -178 -179 -190 -191 -201 -202 -211 -212 0
-23 -44 -45 -64 -65 -120 -121 -152 -153 -165 -167 -178 -179 -190 -191 -201 -202 -211 -212 0
-23 -44 -45 -64 -65 -120 -121 -152 -153 -166 -167 -178 -180 -190 -191 -201 -202 -211 -212 0
-23 -44 -45 -64 -65 -120 -121 -152 -153 -166 -167 -179 -180 -190 -192 -201 -202 -211 -212 0
-23 -44 -45 -64 -65 -120 -121 -152 -153 -166 -167 -179 -180 -191 -192 -201 -203 -211 -212 0
-23 -44 -45 -64 -65 -120 -121 -152 -153 -166 -167 -179 -180 -191 -192 -202 -203 -211 -213 0
-23 -44 -45 -64 -65 -120 -121 -152 -153 -166 -167 -179 -180 -191 -192 -202 -203 -212 -213 0
-23 -44 -45 -64 -65 -120 -121 -152 -153 -166 -167 -179 -180 -191 -192 -202 -203 -222 -223 0
-23 -44 -45 -64 -65 -120 -121 -152 -153 -166 -167 -179 -180 -191 -192 -213 -214 -222 -223 0
-23 -44 -45 -64 -65 -120 -121 -152 -153 -166 -167 -179 -180 -203 -204 -213 -214 -222 -223 0
-23 -44 -45 -64 -65 -120 -121 -152 -153 -166 -167 -192 -193 -203 -204 -213 -214 -222 -223 0
-23 -44 -45 -64 -65 -120 -121 -152 -153 -180 -181 -192 -193 -203 -204 -213 -214 -222 -223 0
-23 -44 -45 -64 -65 -120 -121 -167 -168 -180 -181 -192 -193 -203 -204 -213 -214 -222 -223 0
-22 -43 -44 -63 -64 -136 -137 -151 -152 -165 -166 -178 -179 -190 -191 -201 -202 -211 -212 0
-23 -43 -45 -63 -64 -136 -137 -151 -152 -165 -166 -178 -179 -190 -191 -201 -202 -211 -212 0
-23 -44 -45 -63 -65 -136 -137 -151 -152 -165 -166 -178 -179 -190 -191 -201 -202 -211 -212 0
-23 -44 -45 -64 -65 -136 -138 -151 -152 -165 -166 -178 -179 -190 -191 -201 -202 -211 -212 0
-23 -44 -45 -64 -65 -137 -138 -151 -153 -165 -166 -178 -179 -190 -191 -201 -202 -211 -212 0
-23 -44 -45 -64 -65 -137 -138 -152 -153 -165 -167 -178 -179 -190 -191 -201 -202 -211 -212 0
-23 -44 -45 -64 -65 -137 -138 -152 -153 -166 -167 -178 -180 -190 -191 -201 -202 -211 -212 0
-23 -44 -45 -64 -65 -137 -138 -152 -153 -166 -167 -179 -180 -190 -192 -201 -202 -211 -212 0
-23 -44 -45 -64 -65 -137 -138 -152 -153 -166 -167 -179 -180 -191 -192 -201 -203 -211 -212 0
-23 -44 -45 -64 -65 -137 -138 -152 -153 -166 -167 -179 -180 -191 -192 -202 -203 -211 -213 0
-23 -44 -45 -64 -65 -137 -138 -152 -153 -166 -167 -179 -180 -191 -192 -202 -203 -212 -213 0
-23 -44 -45 -64 -65 -137 -138 -152 -153 -166 -167 -179 -180 -191 -192 -202 -203 -222 -223 0
-23 -44 -45 -64 -65 -137 -138 -152 -153 -166 -167 -179 -180 -191 -192 -213 -214 -222 -223 0
-23 -44 -45 -64 -65 -137 -138 -152 -153 -166 -167 -179 -180 -203 -204 -213 -214 -222 -223 0
-23 -44 -45 -64 -65 -137 -138 -152 -153 -166 -167 -192 -193 -203 -204 -213 -214 -222 -223 0
-23 -44 -45 -64 -65 -137 -138 -152 -153 -180 -181 -192 -193 -203 -204 -213 -214 -222 -223 0
-23 -44 -45 -64 -65 -137 -138 -167 -168 -180 -181 -192 -193 -203 -204 -213 -214 -222 -223 0
-23 -44 -45 -64 -65 -153 -154 -167 -168 -180 -181 -192 -193 -203 -204 -213 -214 -222 -223 0
-20 -41 -42 -81 -82 -99 -100 -116 -117 -132 -133 -147 -148 -161 -162 -174 -175 -186 -187 0
-21 -41 -43 -81 -82 -99 -100 -116 -117 -132 -133 -147 -148 -161 -162 -174 -175 -186 -187 0
-22 -41 -44 -81 -82 -99 -100 -116 -117 -132 -133 -147 -148 -161 -162 -174 -175 -186 -187 0
-23 -41 -45 -81 -82 -99 -100 -116 -117 -132 -133 -147 -148 -161 -162 -174 -175 -186 -187 0
-21 -42 -43 -81 -83 -99 -100 -116 -117 -132 -133 -147 -148 -161 -162 -174 -175 -186 -187 0
-22 -42 -44 -81 -83 -99 -100 -116 -117 -132 -133 -147 -148 -161 -162 -174 -175 -186 -187 0
-23 -42 -45 -81 -83 -99 -100 -116 -117 -132 -133 -147 -148 -161 -162 -174 -175 -186 -187 0
-22 -43 -44 -81 -84 -99 -100 -116 -117 -132 -133 -147 -148 -161 -162 -174 -175 -186 -187 0
-23 -43 -45 -81 -84 -99 -100 -116 -117 -132 -133 -147 -148 -161 -162 -174 -175 -186 -187 0
-23 -44 -45 -81 -85 -99 -100 -116 -117 -132 -133 -147 -148 -161 -162 -174 -175 -186 -187 0
-21 -42 -43 -82 -83 -99 -101 -116 -117 -132 -133 -147 -148 -161 -162 -174 -175 -186 -187 0
-22 -42 -44 -82 -83 -99 -101 -116 -117 -132 -133 -147 -148 -161 -162 -174 -175 -186 -187 0
-23 -42 -45 -82 -83 -99 -101 -116 -117 -132 -133 -147 -148 -161 -162 -174 -175 -186 -187 0
-22 -43 -44 -82 -84 -99 -101 -116 -117 -132 -133 -147 -148 -161 -162 -174 -175 -186 -187 0
-23 -43 -45 -82 -84 -99 -101 -116 -117 -132 -133 -147 -148 -161 -162 -174 -175 -186 -187 0
-23 -44 -45 -82 -85 -99 -101 -116 -117 -132 -133 -147 -148 -161 -162 -174 -175 -186 -187 0
-22 -43 -44 -83 -84 -99 -102 -116 -117 -132 -133 -147 -148 -161 -162 -174 -175 -186 -187 0
-23 -43 -45 -83 -84 -99 -102 -116 -117 -132 -133 -147 -148 -161 -162 -174 -175 -186 -187 0
-23 -44 -45 -83 -85 -99 -102 -116 -117 -132 -133 -147 -148 -161 -162 -174 -175 -186 -187 0
-23 -44 -45 -84 -85 -99 -103 -116 -117 -132 -133 -147 -148 -161 -162 -174 -175 -186 -187 0
-21 -42 -43 -82 -83 -100 -101 -116 -118 -132 -133 -147 -148 -161 -162 -174 -175 -186 -187 0
-22 -42 -44 -82 -83 -100 -101 -116 -118 -132 -133 -147 -148 -161 -162 -174 -175 -186 -187 0
-23 -42 -45 -82 -83 -100 -101 -116 -118 -132 -133 -147 -148 -161 -162 -174 -175 -186 -187 0
-22 -43 -44 -82 -84 -100 -101 -116 -118 -132 -133 -147 -148 -161 -162 -174 -175 -186 -187 0
-23 -43 -45 -82 -84 -100 -101 -116 -118 -132 -133 -147 -148 -161 -162 -174 -175 -186 -187 0
-23 -44 -45 -82 -85 -100 -101 -116 -118 -132 -133 -147 -148 -161 -162 -174 -175 -186 -187 0
-22 -43 -44 -83 -84 -100 -102 -116 -118 -132 -133 -147 -148 -161 -162 -174 -175 -186 -187 0
-23 -43 -45 -83 -84 -100 -102 -116 -118 -132 -133 -147 -148 -161 -162 -174 -175 -186 -187 0
-23 -44 -45 -83 -85 -100 -102 -116 -118 -132 -133 -147 -148 -161 -162 -174 -175 -186 -187 0
-23 -44 -45 -84 -85 -100 -103 -116 -118 -132 -133 -147 -148 -161 -162 -174 -175 -186 -187 0
-22 -43 -44 -83 -84 -101 -102 -116 -119 -132 -133 -147 -148 -161 -162 -174 -175 -186 -187 0
-23 -43 -45 -83 -84 -101 -102 -116 -119 -132 -133 -147 -148 -161 -162 -174 -175 -186 -187 0
-23 -44 -45 -83 -85 -101 -102 -116 -119 -132 -133 -147 -148 -161 -162 -174 -175 -186 -187 0
-23 -44 -45 -84 -85 -101 -103 -116 -119 -132 -133 -147 -148 -161 -162 -174 -175 -186 -187 0
-23 -44 -45 -84 -85 -102 -103 -116 -120 -132 -133 -147 -148 -161 -162 -174 -175 -186 -187 0
-21 -42 -43 -82 -83 -100 -101 -117 -118 -132 -134 -147 -148 -161 -162 -174 -175 -186 -187 0
-22 -42 -44 -82 -83 -100 -101 -117 -118 -132 -134 -147 -148 -161 -162 -174 -175 -186 -187 0
-23 -42 -45 -82 -83 -100 -101 -117 -118 -132 -134 -147 -148 -161 -162 -174 -175 -186 -187 0
-22 -43 -44 -82 -84 -100 -101 -117 -118 -132 -134 -147 -148 -161 -162 -174 -175 -186 -187 0
-23 -43 -45 -82 -84 -100 -101 -117 -118 -132 -134 -147 -148 -161 -162 -174 -175 -186 -187 0
-23 -44 -45 -82 -85 -100 -101 -117 -118 -132 -134 -147 -148 -161 -162 -174 -175 -186 -187 0
-22 -43 -44 -83 -84 -100 -102 -117 -118 -132 -134 -147 -148 -161 -162 -174 -175 -186 -187 0
-23 -43 -45 -83 -84 -100 -102 -117 -118 -132 -134 -147 -148 -161 -162 -174 -175 -186 -187 0
-23 -44 -45 -83 -85 -100 -102 -117 -118 -132 -134 -147 -148 -161 -162 -174 -175 -186 -187 0
-23 -44 -45 -84 -85 -100 -103 -117 -118 -132 -134 -147 -148 -161 -162 -174 -175 -186 -187 0
-22 -43 -44 -83 -84 -101 -102 -117 -119 -132 -134 -147 -148 -161 -162 -174 -175 -186 -187 0
-23 -43 -45 -83 -84 -101 -102 -117 -119 -132 -134 -147 -148 -161 -162 -174 -175 -186 -187 0
-23 -44 -45 -83 -85 -101 -102 -117 -119 -132 -134 -147 -148 -161 -162 -174 -175 -186 -187 0
-23 -44 -45 -84 -85 -101 -103 -117 -119 -132 -134 -147 -148 -161 -162 -174 -175 -186 -187 0
-23 -44 -45 -84 -85 -102 -103 -117 -120 -132 -134 -147 -148 -161 -162 -174 -175 -186 -187 0
-22 -43 -44 -83 -84 -101 -102 -118 -119 -132 -135 -147 -148 -161 -162 -174 -175 -186 -187 0
-23 -43 -45 -83 -84 -101 -102 -118 -119 -132 -135 -147 -148 -161 -162 -174 -175 -186 -187 0
-23 -44 -45 -83 -85 -101 -102 -118 -119 -132 -135 -147 -148 -161 -162 -174 -175 -186 -187 0
-23 -44 -45 -84 -85 -101 -103 -118 -119 -132 -135 -147 -148 -161 -162 -174 -175 -186 -187 0
-23 -44 -45 -84 -85 -102 -103 -118 -120 -132 -135 -147 -148 -161 -162 -174 -175 -186 -187 0
-23 -44 -45 -84 -85 -102 -103 -119 -120 -132 -136 -147 -148 -161 -162 -174 -175 -186 -187 0
-21 -42 -43 -82 -83 -100 -101 -117 -118 -133 -134 -147 -149 -161 -162 -174 -175 -186 -187 0
-22 -42 -44 -82 -83 -100 -101 -117 -118 -133 -134 -147 -149 -161 -162 -174 -175 -186 -187 0
-23 -42 -45 -82 -83 -100 -101 -117 -118 -133 -134 -147 -149 -161 -162 -174 -175 -186 -187 0
-22 -43 -44 -82 -84 -100 -101 -117 -118 -133 -134 -147 -149 -161 -162 -174 -175 -186 -187 0
-23 -43 -45 -82 -84 -100 -101 -117 -118 -133 -134 -147 -149 -161 -162 -174 -175 -186 -187 0
-23 -44 -45 -82 -85 -100 -101 -117 -118 -133 -134 -147 -149 -161 -162 -174 -175 -186 -187 0
-22 -43 -44 -83 -84 -100 -102 -117 -118 -133 -134 -147 -149 -161 -162 -174 -175 -186 -187 0
-23 -43 -45 -83 -84 -100 -102 -117 -118 -133 -134 -147 -149 -161 -162 -174 -175 -186 -187 0
-23 -44 -45 -83 -85 -100 -102 -117 -118 -133 -134 -147 -149 -161 -162 -174 -175 -186 -187 0
-23 -44 -45 -84 -85 -100 -103 -117 -118 -133 -134 -147 -149 -161 -162 -174 -175 -186 -187 0
-22 -43 -44 -83 -84 -101 -102 -117 -119 -133 -134 -147 -149 -161 -162 -174 -175 -186 -187 0
-23 -43 -45 -83 -84 -101 -102 -117 -119 -133 -134 -147 -149 -161 -162 -174 -175 -186 -187 0
-23 -44 -45 -83 -85 -101 -102 -117 -119 -133 -134 -147 -149 -161 -162 -174 -175 -186 -187 0
-23 -44 -45 -84 -85 -101 -103 -117 -119 -133 -134 -147 -149 -161 -162 -174 -175 -186 -187 0
-23 -44 -45 -84 -85 -102 -103 -117 -120 -133 -134 -147 -149 -161 -162 -174 -175 -186 -187 0
-22 -43 -44 -83 -84 -101 -102 -118 -119 -133 -135 -147 -149 -161 -162 -174 -175 -186 -187 0
-23 -43 -45 -83 -84 -101 -102 -118 -119 -133 -135 -147 -149 -161 -162 -174 -175 -186 -187 0
-23 -44 -45 -83 -85 -101 -102 -118 -119 -133 -135 -147 -149 -161 -162 -174 -175 -186 -187 0
-23 -44 -45 -84 -85 -101 -103 -118 -119 -133 -135 -147 -149 -161 -162 -174 -175 -186 -187 0
-23 -44 -45 -84 -85 -102 -103 -118 -120 -133 -135 -147 -149 -161 -162 -174 -175 -186 -187 0
-23 -44 -45 -84 -85 -102 -103 -119 -120 -133 -136 -147 -149 -161 -162 -174 -175 -186 -187 0
-22 -43 -44 -83 -84 -101 -102 -118 -119 -134 -135 -147 -150 -161 -162 -174 -175 -186 -187 0
-23 -43 -45 -83 -84 -101 -102 -118 -119 -134 -135 -147 -150 -161 -162 -174 -175 -186 -187 0
-23 -44 -45 -83 -85 -101 -102 -118 -119 -134 -135 -147 -150 -161 -162 -174 -175 -186 -187 0
-23 -44 -45 -84 -85 -101 -103 -118 -119 -134 -135 -147 -150 -161 -162 -174 -175 -186 -187 0
-23 -44 -45 -84 -85 -102 -103 -118 -120 -134 -135 -147 -150 -161 -162 -174 -175 -186 -187 0
-23 -44 -45 -84 -85 -102 -103 -119 -120 -134 -136 -147 -150 -161 -162 -174 -175 -186 -187 0
-23 -44 -45 -84 -85 -102 -103 -119 -120 -135 -136 -147 -151 -161 -162 -174 -175 -186 -187 0
-21 -42 -43 -82 -83 -100 -101 -117 -118 -133 -134 -148 -149 -161 -163 -174 -175 -186 -187 0
-22 -42 -44 -82 -83 -100 -101 -117 -118 -133 -134 -148 -149 -161 -163 -174 -175 -186 -187 0
-23 -42 -45 -82 -83 -100 -101 -117 -118 -133 -134 -148 -149 -161 -163 -174 -175 -186 -187 0
-22 -43 -44 -82 -84 -100 -101 -117 -118 -133 -134 -148 -149 -161 -163 -174 -175 -186 -187 0
-23 -43 -45 -82 -84 -100 -101 -117 -118 -133 -134 -148 -149 -161 -163 -174 -175 -186 -187 0
-23 -44 -45 -82 -85 -100 -101 -117 -118 -133 -134 -148 -149 -161 -163 -174 -175 -186 -187 0
-22 -43 -44 -83 -84 -100 -102 -117 -118 -133 -134 -148 -149 -161 -163 -174 -175 -186 -187 0
-23 -43 -45 -83 -84 -100 -102 -117 -118 -133 -134 -148 -149 -161 -163 -174 -175 -186 -187 0
-23 -44 -45 -83 -85 -100 -102 -117 -118 -133 -134 -148 -149 -161 -163 -174 -175 -186 -187 0
-23 -44 -45 -84 -85 -100 -103 -117 -118 -133 -134 -148 -149 -161 -163 -174 -175 -186 -187 0
-22 -43 -44 -83 -84 -101 -102 -117 -119 -133 -134 -148 -149 -161 -163 -174 -175 -186 -187 0
-23 -43 -45 -83 -84 -101 -102 -117 -119 -133 -134 -148 -149 -161 -163 -174 -175 -186 -187 0
-23 -44 -45 -83 -85 -101 -102 -117 -119 -133 -134 -148 -149 -161 -163 -174 -175 -186 -187 0
-23 -44 -45 -84 -85 -101 -103 -117 -119 -133 -134 -148 -149 -161 -163 -174 -175 -186 -187 0
-23 -44 -45 -84 -85 -102 -103 -117 -120 -133 -134 -148 -149 -161 -163 -174 -175 -186 -187 0
-22 -43 -44 -83 -84 -101 -102 -118 -119 -133 -135 -148 -149 -161 -163 -174 -175 -186 -187 0
-23 -43 -45 -83 -84 -101 -102 -118 -119 -133 -135 -148 -149 -161 -163 -174 -175 -186 -187 0
-23 -44 -45 -83 -85 -101 -102 -118 -119 -133 -135 -148 -149 -161 -163 -174 -175 -186 -187 0
-23 -44 -45 -84 -85 -101 -103 -118 -119 -133 -135 -148 -149 -161 -163 -174 -175 -186 -187 0
-23 -44 -45 -84 -85 -102 -103 -118 -120 -133 -135 -148 -149 -161 -163 -174 -175 -186 -187 0
-23 -44 -45 -84 -85 -102 -103 -119 -120 -133 -136 -148 -149 -161 -163 -174 -175 -186 -187 0
-22 -43 -44 -83 -84 -101 -102 -118 -119 -134 -135 -148 -150 -161 -163 -174 -175 -186 -187 0
-23 -43 -45 -83 -84 -101 -102 -118 -119 -134 -135 -148 -150 -161 -163 -174 -175 -186 -187 0
-23 -44 -45 -83 -85 -101 -102 -118 -119 -134 -135 -148 -150 -161 -163 -174 -175 -186 -187 0
-23 -44 -45 -84 -85 -101 -103 -118 -119 -134 -135 -148 -150 -161 -163 -174 -175 -186 -187 0
-23 -44 -45 -84 -85 -102 -103 -118 -120 -134 -135 -148 -150 -161 -163 -174 -175 -186 -187 0
-23 -44 -45 -84 -85 -102 -103 -119 -120 -134 -136 -148 -150 -161 -163 -174 -175 -186 -187 0
-23 -44 -45 -84 -85 -102 -103 -119 -120 -135 -136 -148 -151 -161 -163 -174 -175 -186 -187 0
-22 -43 -44 -83 -84 -101 -102 -118 -119 -134 -135 -149 -150 -161 -164 -174 -175 -186 -187 0
-23 -43 -45 -83 -84 -101 -102 -118 -119 -134 -135 -149 -150 -161 -164 -174 -175 -186 -187 0
-23 -44 -45 -83 -85 -101 -102 -118 -119 -134 -135 -149 -150 -161 -164 -174 -175 -186 -187 0
-23 -44 -45 -84 -85 -101 -103 -118 -119 -134 -135 -149 -150 -161 -164 -174 -175 -186 -187 0
-23 -44 -45 -84 -85 -102 -103 -118 -120 -134 -135 -149 -150 -161 -164 -174 -175 -186 -187 0
-23 -44 -45 -84 -85 -102 -103 -119 -120 -134 -136 -149 -150 -161 -164 -174 -175 -186 -187 0
-23 -44 -45 -84 -85 -102 -103 -119 -120 -135 -136 -149 -151 -161 -164 -174 -175 -186 -187 0
-23 -44 -45 -84 -85 -102 -103 -119 -120 -135 -136 -150 -151 -161 -165 -174 -175 -186 -187 0
-21 -42 -43 -82 -83 -100 -101 -117 -118 -133 -134 -148 -149 -162 -163 -174 -176 -186 -187 0
-22 -42 -44 -82 -83 -100 -101 -117 -118 -133 -134 -148 -149 -162 -163 -174 -176 -186 -187 0
-23 -42 -45 -82 -83 -100 -101 -117 -118 -133 -134 -148 -149 -162 -163 -174 -176 -186 -187 0
-22 -43 -44 -82 -84 -100 -101 -117 -118 -133 -134 -148 -149 -162 -163 -174 -176 -186 -187 0
-23 -43 -45 -82 -84 -100 -101 -117 -118 -133 -134 -148 -149 -162 -163 -174 -176 -186 -187 0
-23 -44 -45 -82 -85 -100 -101 -117 -118 -133 -134 -148 -149 -162 -163 -174 -176 -186 -187 0
-22 -43 -44 -83 -84 -100 -102 -117 -118 -133 -134 -148 -149 -162 -163 -174 -176 -186 -187 0
-23 -43 -45 -83 -84 -100 -102 -117 -118 -133 -134 -148 -149 -162 -163 -174 -176 -186 -187 0
-23 -44 -45 -83 -85 -100 -102 -117 -118 -133 -134 -148 -149 -162 -163 -174 -176 -186 -187 0
-23 -44 -45 -84 -85 -100 -103 -117 -118 -133 -134 -148 -149 -162 -163 -174 -176 -186 -187 0
-22 -43 -44 -83 -84 -101 -102 -117 -119 -133 -134 -148 -149 -162 -163 -174 -176 -186 -187 0
-23 -43 -45 -83 -84 -101 -102 -117 -119 -133 -134 -148 -149 -162 -163 -174 -176 -186 -187 0
-23 -44 -45 -83 -85 -101 -102 -117 -119 -133 -134 -148 -149 -162 -163 -174 -176 -186 -187 0
-23 -44 -45 -84 -85 -101 -103 -117 -119 -133 -134 -148 -149 -162 -163 -174 -176 -186 -187 0
-23 -44 -45 -84 -85 -102 -103 -117 -120 -133 -134 -148 -149 -162 -163 -174 -176 -186 -187 0
-22 -43 -44 -83 -84 -101 -102 -118 -119 -133 -135 -148 -149 -162 -163 -174 -176 -186 -187 0
-23 -43 -45 -83 -84 -101 -102 -118 -119 -133 -135 -148 -149 -162 -163 -174 -176 -186 -187 0
-23 -44 -45 -83 -85 -101 -102 -118 -119 -133 -135 -148 -149 -162 -163 -174 -176 -186 -187 0
-23 -44 -45 -84 -85 -101 -103 -118 -119 -133 -135 -148 -149 -162 -163 -174 -176 -186 -187 0
-23 -44 -45 -84 -85 -102 -103 -118 -120 -133 -135 -148 -149 -162 -163 -174 -176 -186 -187 0
-23 -44 -45 -84 -85 -102 -103 -119 -120 -133 -136 -148 -149 -162 -163 -174 -176 -186 -187 0
-22 -43 -44 -83 -84 -101 -102 -118 -119 -134 -135 -148 -150 -162 -163 -174 -176 -186 -187 0
-23 -43 -45 -83 -84 -101 -102 -118 -119 -134 -135 -148 -150 -162 -163 -174 -176 -186 -187 0
-23 -44 -45 -83 -85 -101 -102 -118 -119 -134 -135 -148 -150 -162 -163 -174 -176 -186 -187 0
-23 -44 -45 -84 -85 -101 -103 -118 -119 -134 -135 -148 -150 -162 -163 -174 -176 -186 -187 0
-23 -44 -45 -84 -85 -102 -103 -118 -120 -134 -135 -148 -150 -162 -163 -174 -176 -186 -187 0
-23 -44 -45 -84 -85 -102 -103 -119 -120 -134 -136 -148 -150 -162 -163 -174 -176 -186 -187 0
-23 -44 -45 -84 -85 -102 -103 -119 -120 -135 -136 -148 -151 -162 -163 -174 -176 -186 -187 0
-22 -43 -44 -83 -84 -101 -102 -118 -119 -134 -135 -149 -150 -162 -164 -174 -176 -186 -187 0
-23 -43 -45 -83 -84 -101 -102 -118 -119 -134 -135 -149 -150 -162 -164 -174 -176 -186 -187 0
-23 -44 -45 -83 -85 -101 -102 -118 -119 -134 -135 -149 -150 -162 -164 -174 -176 -186 -187 0
-23 -44 -45 -84 -85 -101 -103 -118 -119 -134 -135 -149 -150 -162 -164 -174 -176 -186 -187 0
-23 -44 -45 -84 -85 -102 -103 -118 -120 -134 -135 -149 -150 -162 -164 -174 -176 -186 -187 0
-23 -44 -45 -84 -85 -102 -103 -119 -120 -134 -136 -149 -150 -162 -164 -174 -176 -186 -187 0
-23 -44 -45 -84 -85 -102 -103 -119 -120 -135 -136 -149 -151 -162 -164 -174 -176 -186 -187 0
-23 -44 -45 -84 -85 -102 -103 -119 -120 -135 -136 -150 -151 -162 -165 -174 -176 -186 -187 0
-22 -43 -44 -83 -84 -101 -102 -118 -119 -134 -135 -149 -150 -163 -164 -174 -177 -186 -187 0
-23 -43 -45 -83 -84 -101 -102 -118 -119 -134 -135 -149 -150 -163 -164 -174 -177 -186 -187 0
-23 -44 -45 -83 -85 -101 -102 -118 -119 -134 -135 -149 -150 -163 -164 -174 -177 -186 -187 0
-23 -44 -45 -84 -85 -101 -103 -118 -119 -134 -135 -149 -150 -163 -164 -174 -177 -186 -187 0
-23 -44 -45 -84 -85 -102 -103 -118 -120 -134 -135 -149 -150 -163 -164 -174 -177 -186 -187 0
-23 -44 -45 -84 -85 -102 -103 -119 -120 -134 -136 -149 -150 -163 -164 -174 -177 -186 -187 0
-23 -44 -45 -84 -85 -102 -103 -119 -120 -135 -136 -149 -151 -163 -164 -174 -177 -186 -187 0
-23 -44 -45 -84 -85 -102 -103 -119 -120 -135 -136 -150 -151 -163 -165 -174 -177 -186 -187 0
-23 -44 -45 -84 -85 -102 -103 -119 -120 -135 -136 -150 -151 -164 -165 -174 -178 -186 -187 0
-21 -42 -43 -82 -83 -100 -101 -117 -118 -133 -134 -148 -149 -162 -163 -175 -176 -186 -188 0
-22 -42 -44 -82 -83 -100 -101 -117 -118 -133 -134 -148 -149 -162 -163 -175 -176 -186 -188 0
-23 -42 -45 -82 -83 -100 -101 -117 -118 -133 -134 -148 -149 -162 -163 -175 -176 -186 -188 0
-22 -43 -44 -82 -84 -100 -101 -117 -118 -133 -134 -148 -149 -162 -163 -175 -176 -186 -188 0
-23 -43 -45 -82 -84 -100 -101 -117 -118 -133 -134 -148 -149 -162 -163 -175 -176 -186 -188 0
-23 -44 -45 -82 -85 -100 -101 -117 -118 -133 -134 -148 -149 -162 -163 -175 -176 -186 -188 0
-22 -43 -44 -83 -84 -100 -102 -117 -118 -133 -134 -148 -149 -162 -163 -175 -176 -186 -188 0
-23 -43 -45 -83 -84 -100 -102 -117 -118 -133 -134 -148 -149 -162 -163 -175 -176 -186 -188 0
-23 -44 -45 -83 -85 -100 -102 -117 -118 -133 -134 -148 -149 -162 -163 -175 -176 -186 -188 0
-23 -44 -45 -84 -85 -100 -103 -117 -118 -133 -134 -148 -149 -162 -163 -175 -176 -186 -188 0
-22 -43 -44 -83 -84 -101 -102 -117 -119 -133 -134 -148 -149 -162 -163 -175 -176 -186 -188 0
-23 -43 -45 -83 -84 -101 -102 -117 -119 -133 -134 -148 -149 -162 -163 -175 -176 -186 -188 0
-23 -44 -45 -83 -85 -101 -102 -117 -119 -133 -134 -148 -149 -162 -163 -175 -176 -186 -188 0
-23 -44 -45 -84 -85 -101 -103 -117 -119 -133 -134 -148 -149 -162 -163 -175 -176 -186 -188 0
-23 -44 -45 -84 -85 -102 -103 -117 -120 -133 -134 -148 -149 -162 -163 -175 -176 -186 -188 0
-22 -43 -44 -83 -84 -101 -102 -118 -119 -133 -135 -148 -149 -162 -163 -175 -176 -186 -188 0
-23 -43 -45 -83 -84 -101 -102 -118 -119 -133 -135 -148 -149 -162 -163 -175 -176 -186 -188 0
-23 -44 -45 -83 -85 -101 -102 -118 -119 -133 -135 -148 -149 -162 -163 -175 -176 -186 -188 0
-23 -44 -45 -84 -85 -101 -103 -118 -119 -133 -135 -148 -149 -162 -163 -175 -176 -186 -188 0
-23 -44 -45 -84 -85 -102 -103 -118 -120 -133 -135 -148 -149 -162 -163 -175 -176 -186 -188 0
-23 -44 -45 -84 -85 -102 -103 -119 -120 -133 -136 -148 -149 -162 -163 -175 -176 -186 -188 0
-22 -43 -44 -83 -84 -101 -102 -118 -119 -134 -135 -148 -150 -162 -163 -175 -176 -186 -188 0
-23 -43 -45 -83 -84 -101 -102 -118 -119 -134 -135 -148 -150 -162 -163 -175 -176 -186 -188 0
-23 -44 -45 -83 -85 -101 -102 -118 -119 -134 -135 -148 -150 -162 -163 -175 -176 -186 -188 0
-23 -44 -45 -84 -85 -101 -103 -118 -119 -134 -135 -148 -150 -162 -163 -175 -176 -186 -188 0
-23 -44 -45 -84 -85 -102 -103 -118 -120 -134 -135 -148 -150 -162 -163 -175 -176 -186 -188 0
-23 -44 -45 -84 -85 -102 -103 -119 -120 -134 -136 -148 -150 -162 -163 -175 -176 -186 -188 0
-23 -44 -45 -84 -85 -102 -103 -119 -120 -135 -136 -148 -151 -162 -163 -175 -176 -186 -188 0
-22 -43 -44 -83 -84 -101 -102 -118 -119 -134 -135 -149 -150 -162 -164 -175 -176 -186 -188 0
-23 -43 -45 -83 -84 -101 -102 -118 -119 -134 -135 -149 -150 -162 -164 -175 -176 -186 -188 0
-23 -44 -45 -83 -85 -101 -102 -118 -119 -134 -135 -149 -150 -162 -164 -175 -176 -186 -188 0
-23 -44 -45 -84 -85 -101 -103 -118 -119 -134 -135 -149 -150 -162 -164 -175 -176 -186 -188 0
-23 -44 -45 -84 -85 -102 -103 -118 -120 -134 -135 -149 -150 -162 -164 -175 -176 -186 -188 0
-23 -44 -45 -84 -85 -102 -103 -119 -120 -134 -136 -149 -150 -162 -164 -175 -176 -186 -188 0
-23 -44 -45 -84 -85 -102 -103 -119 -120 -135 -136 -149 -151 -162 -164 -175 -176 -186 -188 0
-23 -44 -45 -84 -85 -102 -103 -119 -120 -135 -136 -150 -151 -162 -165 -175 -176 -186 -188 0
-22 -43 -44 -83 -84 -101 -102 -118 -119 -134 -135 -149 -150 -163 -164 -175 -177 -186 -188 0
-23 -43 -45 -83 -84 -101 -102 -118 -119 -134 -135 -149 -150 -163 -164 -175 -177 -186 -188 0
-23 -44 -45 -83 -85 -101 -102 -118 -119 -134 -135 -149 -150 -163 -164 -175 -177 -186 -188 0
-23 -44 -45 -84 -85 -101 -103 -118 -119 -134 -135 -149 -150 -163 -164 -175 -177 -186 -188 0
-23 -44 -45 -84 -85 -102 -103 -118 -120 -134 -135 -149 -150 -163 -164 -175 -177 -186 -188 0
-23 -44 -45 -84 -85 -102 -103 -119 -120 -134 -136 -149 -150 -163 -164 -175 -177 -186 -188 0
-23 -44 -45 -84 -85 -102 -103 -119 -120 -135 -136 -149 -151 -163 -164 -175 -177 -186 -188 0
-23 -44 -45 -84 -85 -102 -103 -119 -120 -135 -136 -150 -151 -163 -165 -175 -177 -186 -188 0
-23 -44 -45 -84 -85 -102 -103 -119 -120 -135 -136 -150 -151 -164 -165 -175 -178 -186 -188 0
-22 -43 -44 -83 -84 -101 -102 -118 -119 -134 -135 -149 -150 -163 -164 -176 -177 -186 -189 0
-23 -43 -45 -83 -84 -101 -102 -118 -119 -134 -135 -149 -150 -163 -164 -176 -177 -186 -189 0
-23 -44 -45 -83 -85 -101 -102 -118 -119 -134 -135 -149 -150 -163 -164 -176 -177 -186 -189 0
-23 -44 -45 -84 -85 -101 -103 -118 -119 -134 -135 -149 -150 -163 -164 -176 -177 -186 -189 0
-23 -44 -45 -84 -85 -102 -103 -118 -120 -134 -135 -149 -150 -163 -164 -176 -177 -186 -189 0
-23 -44 -45 -84 -85 -102 -103 -119 -120 -134 -136 -149 -150 -163 -164 -176 -177 -186 -189 0
-23 -44 -45 -84 -85 -102 -103 -119 -120 -135 -136 -149 -151 -163 -164 -176 -177 -186 -189 0
-23 -44 -45 -84 -85 -102 -103 -119 -120 -135 -136 -150 -151 -163 -165 -176 -177 -186 -189 0
-23 -44 -45 -84 -85 -102 -103 -119 -120 -135 -136 -150 -151 -164 -165 -176 -178 -186 -189 0
-23 -44 -45 -84 -85 -102 -103 -119 -120 -135 -136 -150 -151 -164 -165 -177 -178 -186 -190 0
-21 -42 -43 -82 -83 -100 -101 -117 -118 -133 -134 -148 -149 -162 -163 -175 -176 -187 -188 0
-22 -42 -44 -82 -83 -100 -101 -117 -118 -133 -134 -148 -149 -162 -163 -175 -176 -187 -188 0
-23 -42 -45 -82 -83 -100 -101 -117 -118 -133 -134 -148 -149 -162 -163 -175 -176 -187 -188 0
-22 -43 -44 -82 -84 -100 -101 -117 -118 -133 -134 -148 -149 -162 -163 -175 -176 -187 -188 0
-23 -43 -45 -82 -84 -100 -101 -117 -118 -133 -134 -148 -149 -162 -163 -175 -176 -187 -188 0
-23 -44 -45 -82 -85 -100 -101 -117 -118 -133 -134 -148 -149 -162 -163 -175 -176 -187 -188 0
-22 -43 -44 -83 -84 -100 -102 -117 -118 -133 -134 -148 -149 -162 -163 -175 -176 -187 -188 0
-23 -43 -45 -83 -84 -100 -102 -117 -118 -133 -134 -148 -149 -162 -163 -175 -176 -187 -188 0
-23 -44 -45 -83 -85 -100 -102 -117 -118 -133 -134 -148 -149 -162 -163 -175 -176 -187 -188 0
-23 -44 -45 -84 -85 -100 -103 -117 -118 -133 -134 -148 -149 -162 -163 -175 -176 -187 -188 0
-22 -43 -44 -83 -84 -101 -102 -117 -119 -133 -134 -148 -149 -162 -163 -175 -176 -187 -188 0
-23 -43 -45 -83 -84 -101 -102 -117 -119 -133 -134 -148 -149 -162 -163 -175 -176 -187 -188 0
-23 -44 -45 -83 -85 -101 -102 -117 -119 -133 -134 -148 -149 -162 -163 -175 -176 -187 -188 0
-23 -44 -45 -84 -85 -101 -103 -117 -119 -133 -134 -148 -149 -162 -163 -175 -176 -187 -188 0
-23 -44 -45 -84 -85 -102 -103 -117 -120 -133 -134 -148 -149 -162 -163 -175 -176 -187 -188 0
-22 -43 -44 -83 -84 -101 -102 -118 -119 -133 -135 -148 -149 -162 -163 -175 -176 -187 -188 0
-23 -43 -45 -83 -84 -101 -102 -118 -119 -133 -135 -148 -149 -162 -163 -175 -176 -187 -188 0
-23 -44 -45 -83 -85 -101 -102 -118 -119 -133 -135 -148 -149 -162 -163 -175 -176 -187 -188 0
-23 -44 -45 -84 -85 -101 -103 -118 -119 -133 -135 -148 -149 -162 -163 -175 -176 -187 -188 0
-23 -44 -45 -84 -85 -102 -103 -118 -120 -133 -135 -148 -149 -162 -163 -175 -176 -187 -188 0
-23 -44 -45 -84 -85 -102 -103 -119 -120 -133 -136 -148 -149 -162 -163 -175 -176 -187 -188 0
-22 -43 -44 -83 -84 -101 -102 -118 -119 -134 -135 -148 -150 -162 -163 -175 -176 -187 -188 0
-23 -43 -45 -83 -84 -101 -102 -118 -119 -134 -135 -148 -150 -162 -163 -175 -176 -187 -188 0
-23 -44 -45 -83 -85 -101 -102 -118 -119 -134 -135 -148 -150 -162 -163 -175 -176 -187 -188 0
-23 -44 -45 -84 -85 -101 -103 -118 -119 -134 -135 -148 -150 -162 -163 -175 -176 -187 -188 0
-23 -44 -45 -84 -85 -102 -103 -118 -120 -134 -135 -148 -150 -162 -163 -175 -176 -187 -188 0
-23 -44 -45 -84 -85 -102 -103 -119 -120 -134 -136 -148 -150 -162 -163 -175 -176 -187 -188 0
-23 -44 -45 -84 -85 -102 -103 -119 -120 -135 -136 -148 -151 -162 -163 -175 -176 -187 -188 0
-22 -43 -44 -83 -84 -101 -102 -118 -119 -134 -135 -149 -150 -162 -164 -175 -176 -187 -188 0
-23 -43 -45 -83 -84 -101 -102 -118 -119 -134 -135 -149 -150 -162 -164 -175 -176 -187 -188 0
-23 -44 -45 -83 -85 -101 -102 -118 -119 -134 -135 -149 -150 -162 -164 -175 -176 -187 -188 0
-23 -44 -45 -84 -85 -101 -103 -118 -119 -134 -135 -149 -150 -162 -164 -175 -176 -187 -188 0
-23 -44 -45 -84 -85 -102 -103 -118 -120 -134 -135 -149 -150 -162 -164 -175 -176 -187 -188 0
-23 -44 -45 -84 -85 -102 -103 -119 -120 -134 -136 -149 -150 -162 -164 -175 -176 -187 -188 0
-23 -44 -45 -84 -85 -102 -103 -119 -120 -135 -136 -149 -151 -162 -164 -175 -176 -187 -188 0
-23 -44 -45 -84 -85 -102 -103 -119 -120 -135 -136 -150 -151 -162 -165 -175 -176 -187 -188 0
-22 -43 -44 -83 -84 -101 -102 -118 -119 -134 -135 -149 -150 -163 -164 -175 -177 -187 -188 0
-23 -43 -45 -83 -84 -101 -102 -118 -119 -134 -135 -149 -150 -163 -164 -175 -177 -187 -188 0
-23 -44 -45 -83 -85 -101 -102 -118 -119 -134 -135 -149 -150 -163 -164 -175 -177 -187 -188 0
-23 -44 -45 -84 -85 -101 -103 -118 -119 -134 -135 -149 -150 -163 -164 -175 -177 -187 -188 0
-23 -44 -45 -84 -85 -102 -103 -118 -120 -134 -135 -149 -150 -163 -164 -175 -177 -187 -188 0
-23 -44 -45 -84 -85 -102 -103 -119 -120 -134 -136 -149 -150 -163 -164 -175 -177 -187 -188 0
-23 -44 -45 -84 -85 -102 -103 -119 -120 -135 -136 -149 -151 -163 -164 -175 -177 -187 -188 0
-23 -44 -45 -84 -85 -102 -103 -119 -120 -135 -136 -150 -151 -163 -165 -175 -177 -187 -188 0
-23 -44 -45 -84 -85 -102 -103 -119 -120 -135 -136 -150 -151 -164 -165 -175 -178 -187 -188 0
-22 -43 -44 -83 -84 -101 -102 -118 -119 -134 -135 -149 -150 -163 -164 -176 -177 -187 -189 0
-23 -43 -45 -83 -84 -101 -102 -118 -119 -134 -135 -149 -150 -163 -164 -176 -177 -187 -189 0
-23 -44 -45 -83 -85 -101 -102 -118 -119 -134 -135 -149 -150 -163 -164 -176 -177 -187 -189 0
-23 -44 -45 -84 -85 -101 -103 -118 -119 -134 -135 -149 -150 -163 -164 -176 -177 -187 -189 0
-23 -44 -45 -84 -85 -102 -103 -118 -120 -134 -135 -149 -150 -163 -164 -176 -177 -187 -189 0
-23 -44 -45 -84 -85 -102 -103 -119 -120 -134 -136 -149 -150 -163 -164 -176 -177 -187 -189 0
-23 -44 -45 -84 -85 -102 -103 -119 -120 -135 -136 -149 -151 -163 -164 -176 -177 -187 -189 0
-23 -44 -45 -84 -85 -102 -103 -119 -120 -135 -136 -150 -151 -163 -165 -176 -177 -187 -189 0
-23 -44 -45 -84 -85 -102 -103 -119 -120 -135 -136 -150 -151 -164 -165 -176 -178 -187 -189 0
-23 -44 -45 -84 -85 -102 -103 -119 -120 -135 -136 -150 -151 -164 -165 -177 -178 -187 -190 0
-22 -43 -44 -83 -84 -101 -102 -118 -119 -134 -135 -149 -150 -163 -164 -176 -177 -188 -189 0
-23 -43 -45 -83 -84 -101 -102 -118 -119 -134 -135 -149 -150 -163 -164 -176 -177 -188 -189 0
-23 -44 -45 -83 -85 -101 -102 -118 -119 -134 -135 -149 -150 -163 -164 -176 -177 -188 -189 0
-23 -44 -45 -84 -85 -101 -103 -118 -119 -134 -135 -149 -150 -163 -164 -176 -177 -188 -189 0
-23 -44 -45 -84 -85 -102 -103 -118 -120 -134 -135 -149 -150 -163 -164 -176 -177 -188 -189 0
-23 -44 -45 -84 -85 -102 -103 -119 -120 -134 -136 -149 -150 -163 -164 -176 -177 -188 -189 0
-23 -44 -45 -84 -85 -102 -103 -119 -120 -135 -136 -149 -151 -163 -164 -176 -177 -188 -189 0
-23 -44 -45 -84 -85 -102 -103 -119 -120 -135 -136 -150 -151 -163 -165 -176 -177 -188 -189 0
-23 -44 -45 -84 -85 -102 -103 -119 -120 -135 -136 -150 -151 -164 -165 -176 -178 -188 -189 0
-23 -44 -45 -84 -85 -102 -103 -119 -120 -135 -136 -150 -151 -164 -165 -177 -178 -188 -190 0
-23 -44 -45 -84 -85 -102 -103 -119 -120 -135 -136 -150 -151 -164 -165 -177 -178 -189 -190 0
-21 -42 -43 -82 -83 -100 -101 -117 -118 -133 -134 -148 -149 -162 -163 -175 -176 -199 -200 0
-22 -42 -44 -82 -83 -100 -101 -117 -118 -133 -134 -148 -149 -162 -163 -175 -176 -199 -200 0
-23 -42 -45 -82 -83 -100 -101 -117 -118 -133 -134 -148 -149 -162 -163 -175 -176 -199 -200 0
-22 -43 -44 -82 -84 -100 -101 -117 -118 -133 -134 -148 -149 -162 -163 -175 -176 -199 -200 0
-23 -43 -45 -82 -84 -100 -101 -117 -118 -133 -134 -148 -149 -162 -163 -175 -176 -199 -200 0
-23 -44 -45 -82 -85 -100 -101 -117 -118 -133 -134 -148 -149 -162 -163 -175 -176 -199 -200 0
-22 -43 -44 -83 -84 -100 -102 -117 -118 -133 -134 -148 -149 -162 -163 -175 -176 -199 -200 0
-23 -43 -45 -83 -84 -100 -102 -117 -118 -133 -134 -148 -149 -162 -163 -175 -176 -199 -200 0
-23 -44 -45 -83 -85 -100 -102 -117 -118 -133 -134 -148 -149 -162 -163 -175 -176 -199 -200 0
-23 -44 -45 -84 -85 -100 -103 -117 -118 -133 -134 -148 -149 -162 -163 -175 -176 -199 -200 0
-22 -43 -44 -83 -84 -101 -102 -117 -119 -133 -134 -148 -149 -162 -163 -175 -176 -199 -200 0
-23 -43 -45 -83 -84 -101 -102 -117 -119 -133 -134 -148 -149 -162 -163 -175 -176 -199 -200 0
-23 -44 -45 -83 -85 -101 -102 -117 -119 -133 -134 -148 -149 -162 -163 -175 -176 -199 -200 0
-23 -44 -45 -84 -85 -101 -103 -117 -119 -133 -134 -148 -149 -162 -163 -175 -176 -199 -200 0
-23 -44 -45 -84 -85 -102 -103 -117 -120 -133 -134 -148 -149 -162 -163 -175 -176 -199 -200 0
-22 -43 -44 -83 -84 -101 -102 -118 -119 -133 -135 -148 -149 -162 -163 -175 -176 -199 -200 0
-23 -43 -45 -83 -84 -101 -102 -118 -119 -133 -135 -148 -149 -162 -163 -175 -176 -199 -200 0
-23 -44 -45 -83 -85 -101 -102 -118 -119 -133 -135 -148 -149 -162 -163 -175 -176 -199 -200 0
-23 -44 -45 -84 -85 -101 -103 -118 -119 -133 -135 -148 -149 -162 -163 -175 -176 -199 -200 0
-23 -44 -45 -84 -85 -102 -103 -118 -120 -133 -135 -148 -149 -162 -163 -175 -176 -199 -200 0
-23 -44 -45 -84 -85 -102 -103 -119 -120 -133 -136 -148 -149 -162 -163 -175 -176 -199 -200 0
-22 -43 -44 -83 -84 -101 -102 -118 -119 -134 -135 -148 -150 -162 -163 -175 -176 -199 -200 0
-23 -43 -45 -83 -84 -101 -102 -118 -119 -134 -135 -148 -150 -162 -163 -175 -176 -199 -200 0
-23 -44 -45 -83 -85 -101 -102 -118 -119 -134 -135 -148 -150 -162 -163 -175 -176 -199 -200 0
-23 -44 -45 -84 -85 -101 -103 -118 -119 -134 -135 -148 -150 -162 -163 -175 -176 -199 -200 0
-23 -44 -45 -84 -85 -102 -103 -118 -120 -134 -135 -148 -150 -162 -163 -175 -176 -199 -200 0
-23 -44 -45 -84 -85 -102 -103 -119 -120 -134 -136 -148 -150 -162 -163 -175 -176 -199 -200 0
-23 -44 -45 -84 -85 -102 -103 -119 -120 -135 -136 -148 -151 -162 -163 -175 -176 -199 -200 0
-22 -43 -44 -83 -84 -101 -102 -118 -119 -134 -135 -149 -150 -162 -164 -175 -176 -199 -200 0
-23 -43 -45 -83 -84 -101 -102 -118 -119 -134 -135 -149 -150 -162 -164 -175 -176 -199 -200 0
-23 -44 -45 -83 -85 -101 -102 -118 -119 -134 -135 -149 -150 -162 -164 -175 -176 -199 -200 0
-23 -44 -45 -84 -85 -101 -103 -118 -119 -134 -135 -149 -150 -162 -164 -175 -176 -199 -200 0
-23 -44 -45 -84 -85 -102 -103 -118 -120 -134 -135 -149 -150 -162 -164 -175 -176 -199 -200 0
-23 -44 -45 -84 -85 -102 -103 -119 -120 -134 -136 -149 -150 -162 -164 -175 -176 -199 -200 0
-23 -44 -45 -84 -85 -102 -103 -119 -120 -135 -136 -149 -151 -162 -164 -175 -176 -199 -200 0
-23 -44 -45 -84 -85 -102 -103 -119 -120 -135 -136 -150 -151 -162 -165 -175 -176 -199 -200 0
-22 -43 -44 -83 -84 -101 -102 -118 -119 -134 -135 -149 -150 -163 -164 -175 -177 -199 -200 0
-23 -43 -45 -83 -84 -101 -102 -118 -119 -134 -135 -149 -150 -163 -164 -175 -177 -199 -200 0
-23 -44 -45 -83 -85 -101 -102 -118 -119 -134 -135 -149 -150 -163 -164 -175 -177 -199 -200 0
-23 -44 -45 -84 -85 -101 -103 -118 -119 -134 -135 -149 -150 -163 -164 -175 -177 -199 -200 0
-23 -44 -45 -84 -85 -102 -103 -118 -120 -134 -135 -149 -150 -163 -164 -175 -177 -199 -200 0
-23 -44 -45 -84 -85 -102 -103 -119 -120 -134 -136 -149 -150 -163 -164 -175 -177 -199 -200 0
-23 -44 -45 -84 -85 -102 -103 -119 -120 -135 -136 -149 -151 -163 -164 -175 -177 -199 -200 0
-23 -44 -45 -84 -85 -102 -103 -119 -120 -135 -136 -150 -151 -163 -165 -175 -177 -199 -200 0
-23 -44 -45 -84 -85 -102 -103 -119 -120 -135 -136 -150 -151 -164 -165 -175 -178 -199 -200 0
-22 -43 -44 -83 -84 -101 -102 -118 -119 -134 -135 -149 -150 -163 -164 -176 -177 -199 -201 0
-23 -43 -45 -83 -84 -101 -102 -118 -119 -134 -135 -149 -150 -163 -164 -176 -177 -199 -201 0
-23 -44 -45 -83 -85 -101 -102 -118 -119 -134 -135 -149 -150 -163 -164 -176 -177 -199 -201 0
-23 -44 -45 -84 -85 -101 -103 -118 -119 -134 -135 -149 -150 -163 -164 -176 -177 -199 -201 0
-23 -44 -45 -84 -85 -102 -103 -118 -120 -134 -135 -149 -150 -163 -164 -176 -177 -199 -201 0
-23 -44 -45 -84 -85 -102 -103 -119 -120 -134 -136 -149 -150 -163 -164 -176 -177 -199 -201 0
-23 -44 -45 -84 -85 -102 -103 -119 -120 -135 -136 -149 -151 -163 -164 -176 -177 -199 -201 0
-23 -44 -45 -84 -85 -102 -103 -119 -120 -135 -136 -150 -151 -163 -165 -176 -177 -199 -201 0
-23 -44 -45 -84 -85 -102 -103 -119 -120 -135 -136 -150 -151 -164 -165 -176 -178 -199 -201 0
-23 -44 -45 -84 -85 -102 -103 -119 -120 -135 -136 -150 -151 -164 -165 -177 -178 -199 -202 0
-22 -43 -44 -83 -84 -101 -102 -118 -119 -134 -135 -149 -150 -163 -164 -176 -177 -200 -201 0
-23 -43 -45 -83 -84 -101 -102 -118 -119 -134 -135 -149 -150 -163 -164 -176 -177 -200 -201 0
-23 -44 -45 -83 -85 -101 -102 -118 -119 -134 -135 -149 -150 -163 -164 -176 -177 -200 -201 0
-23 -44 -45 -84 -85 -101 -103 -118 -119 -134 -135 -149 -150 -163 -164 -176 -177 -200 -201 0
-23 -44 -45 -84 -85 -102 -103 -118 -120 -134 -135 -149 -150 -163 -164 -176 -177 -200 -201 0
-23 -44 -45 -84 -85 -102 -103 -119 -120 -134 -136 -149 -150 -163 -164 -176 -177 -200 -201 0
-23 -44 -45 -84 -85 -102 -103 -119 -120 -135 -136 -149 -151 -163 -164 -176 -177 -200 -201 0
-23 -44 -45 -84 -85 -102 -103 -119 -120 -135 -136 -150 -151 -163 -165 -176 -177 -200 -201 0
-23 -44 -45 -84 -85 -102 -103 -119 -120 -135 -136 -150 -151 -164 -165 -176 -178 -200 -201 0
-23 -44 -45 -84 -85 -102 -103 -119 -120 -135 -136 -150 -151 -164 -165 -177 -178 -200 -202 0
-23 -44 -45 -84 -85 -102 -103 -119 -120 -135 -136 -150 -151 -164 -165 -177 -178 -201 -202 0
-22 -43 -44 -83 -84 -101 -102 -118 -119 -134 -135 -149 -150 -163 -164 -176 -177 -211 -212 0
-23 -43 -45 -83 -84 -101 -102 -118 -119 -134 -135 -149 -150 -163 -164 -176 -177 -211 -212 0
-23 -44 -45 -83 -85 -101 -102 -118 -119 -134 -135 -149 -150 -163 -164 -176 -177 -211 -212 0
-23 -44 -45 -84 -85 -101 -103 -118 -119 -134 -135 -149 -150 -163 -164 -176 -177 -211 -212 0
-23 -44 -45 -84 -85 -102 -103 -118 -120 -134 -135 -149 -150 -163 -164 -176 -177 -211 -212 0
-23 -44 -45 -84 -85 -102 -103 -119 -120 -134 -136 -149 -150 -163 -164 -176 -177 -211 -212 0
-23 -44 -45 -84 -85 -102 -103 -119 -120 -135 -136 -149 -151 -163 -164 -176 -177 -211 -212 0
-23 -44 -45 -84 -85 -102 -103 -119 -120 -135 -136 -150 -151 -163 -165 -176 -177 -211 -212 0
-23 -44 -45 -84 -85 -102 -103 -119 -120 -135 -136 -150 -151 -164 -165 -176 -178 -211 -212 0
-23 -44 -45 -84 -85 -102 -103 -119 -120 -135 -136 -150 -151 -164 -165 -177 -178 -211 -213 0
-23 -44 -45 -84 -85 -102 -103 -119 -120 -135 -136 -150 -151 -164 -165 -177 -178 -212 -213 0
-23 -44 -45 -84 -85 -102 -103 -119 -120 -135 -136 -150 -151 -164 -165 -177 -178 -222 -223 0
-21 -42 -43 -82 -83 -100 -101 -117 -118 -133 -134 -148 -149 -162 -163 -188 -189 -199 -200 0
-22 -42 -44 -82 -83 -100 -101 -117 -118 -133 -134 -148 -149 -162 -163 -188 -189 -199 -200 0
-23 -42 -45 -82 -83 -100 -101 -117 -118 -133 -134 -148 -149 -162 -163 -188 -189 -199 -200 0
-22 -43 -44 -82 -84 -100 -101 -117 -118 -133 -134 -148 -149 -162 -163 -188 -189 -199 -200 0
-23 -43 -45 -82 -84 -100 -101 -117 -118 -133 -134 -148 -149 -162 -163 -188 -189 -199 -200 0
-23 -44 -45 -82 -85 -100 -101 -117 -118 -133 -134 -148 -149 -162 -163 -188 -189 -199 -200 0
-22 -43 -44 -83 -84 -100 -102 -117 -118 -133 -134 -148 -149 -162 -163 -188 -189 -199 -200 0
-23 -43 -45 -83 -84 -100 -102 -117 -118 -133 -134 -148 -149 -162 -163 -188 -189 -199 -200 0
-23 -44 -45 -83 -85 -100 -102 -117 -118 -133 -134 -148 -149 -162 -163 -188 -189 -199 -200 0
-23 -44 -45 -84 -85 -100 -103 -117 -118 -133 -134 -148 -149 -162 -163 -188 -189 -199 -200 0
-22 -43 -44 -83 -84 -101 -102 -117 -119 -133 -134 -148 -149 -162 -163 -188 -189 -199 -200 0
-23 -43 -45 -83 -84 -101 -102 -117 -119 -133 -134 -148 -149 -162 -163 -188 -189 -199 -200 0
-23 -44 -45 -83 -85 -101 -102 -117 -119 -133 -134 -148 -149 -162 -163 -188 -189 -199 -200 0
-23 -44 -45 -84 -85 -101 -103 -117 -119 -133 -134 -148 -149 -162 -163 -188 -189 -199 -200 0
-23 -44 -45 -84 -85 -102 -103 -117 -120 -133 -134 -148 -149 -162 -163 -188 -189 -199 -200 0
-22 -43 -44 -83 -84 -101 -102 -118 -119 -133 -135 -148 -149 -162 -163 -188 -189 -199 -200 0
-23 -43 -45 -83 -84 -101 -102 -118 -119 -133 -135 -148 -149 -162 -163 -188 -189 -199 -200 0
-23 -44 -45 -83 -85 -101 -102 -118 -119 -133 -135 -148 -149 -162 -163 -188 -189 -199 -200 0
-23 -44 -45 -84 -85 -101 -103 -118 -119 -133 -135 -148 -149 -162 -163 -188 -189 -199 -200 0
-23 -44 -45 -84 -85 -102 -103 -118 -120 -133 -135 -148 -149 -162 -163 -188 -189 -199 -200 0
-23 -44 -45 -84 -85 -102 -103 -119 -120 -133 -136 -148 -149 -162 -163 -188 -189 -199 -200 0
-22 -43 -44 -83 -84 -101 -102 -118 -119 -134 -135 -148 -150 -162 -163 -188 -189 -199 -200 0
-23 -43 -45 -83 -84 -101 -102 -118 -119 -134 -135 -148 -150 -162 -163 -188 -189 -199 -200 0
-23 -44 -45 -83 -85 -101 -102 -118 -119 -134 -135 -148 -150 -162 -163 -188 -189 -199 -200 0
-23 -44 -45 -84 -85 -101 -103 -118 -119 -134 -135 -148 -150 -162 -163 -188 -189 -199 -200 0
-23 -44 -45 -84 -85 -102 -103 -118 -120 -134 -135 -148 -150 -162 -163 -188 -189 -199 -200 0
-23 -44 -45 -84 -85 -102 -103 -119 -120 -134 -136 -148 -150 -162 -163 -188 -189 -199 -200 0
-23 -44 -45 -84 -85 -102 -103 -119 -120 -135 -136 -148 -151 -162 -163 -188 -189 -199 -200 0
-22 -43 -44 -83 -84 -101 -102 -118 -119 -134 -135 -149 -150 -162 -164 -188 -189 -199 -200 0
-23 -43 -45 -83 -84 -101 -102 -118 -119 -134 -135 -149 -150 -162 -164 -188 -189 -199 -200 0
-23 -44 -45 -83 -85 -101 -102 -118 -119 -134 -135 -149 -150 -162 -164 -188 -189 -199 -200 0
-23 -44 -45 -84 -85 -101 -103 -118 -119 -134 -135 -149 -150 -162 -164 -188 -189 -199 -200 0
-23 -44 -45 -84 -85 -102 -103 -118 -120 -134 -135 -149 -150 -162 -164 -188 -189 -199 -200 0
-23 -44 -45 -84 -85 -102 -103 -119 -120 -134 -136 -149 -150 -162 -164 -188 -189 -199 -200 0
-23 -44 -45 -84 -85 -102 -103 -119 -120 -135 -136 -149 -151 -162 -164 -188 -189 -199 -200 0
-23 -44 -45 -84 -85 -102 -103 -119 -120 -135 -136 -150 -151 -162 -165 -188 -189 -199 -200 0
-22 -43 -44 -83 -84 -101 -102 -118 -119 -134 -135 -149 -150 -163 -164 -188 -190 -199 -200 0
-23 -43 -45 -83 -84 -101 -102 -118 -119 -134 -135 -149 -150 -163 -164 -188 -190 -199 -200 0
-23 -44 -45 -83 -85 -101 -102 -118 -119 -134 -135 -149 -150 -163 -164 -188 -190 -199 -200 0
-23 -44 -45 -84 -85 -101 -103 -118 -119 -134 -135 -149 -150 -163 -164 -188 -190 -199 -200 0
-23 -44 -45 -84 -85 -102 -103 -118 -120 -134 -135 -149 -150 -163 -164 -188 -190 -199 -200 0
-23 -44 -45 -84 -85 -102 -103 -119 -120 -134 -136 -149 -150 -163 -164 -188 -190 -199 -200 0
-23 -44 -45 -84 -85 -102 -103 -119 -120 -135 -136 -149 -151 -163 -164 -188 -190 -199 -200 0
-23 -44 -45 -84 -85 -102 -103 -119 -120 -135 -136 -150 -151 -163 -165 -188 -190 -199 -200 0
-23 -44 -45 -84 -85 -102 -103 -119 -120 -135 -136 -150 -151 -164 -165 -188 -191 -199 -200 0
-22 -43 -44 -83 -84 -101 -102 -118 -119 -134 -135 -149 -150 -163 -164 -189 -190 -199 -201 0
-23 -43 -45 -83 -84 -101 -102 -118 -119 -134 -135 -149 -150 -163 -164 -189 -190 -199 -201 0
-23 -44 -45 -83 -85 -101 -102 -118 -119 -134 -135 -149 -150 -163 -164 -189 -190 -199 -201 0
-23 -44 -45 -84 -85 -101 -103 -118 -119 -134 -135 -149 -150 -163 -164 -189 -190 -199 -201 0
-23 -44 -45 -84 -85 -102 -103 -118 -120 -134 -135 -149 -150 -163 -164 -189 -190 -199 -201 0
-23 -44 -45 -84 -85 -102 -103 -119 -120 -134 -136 -149 -150 -163 -164 -189 -190 -199 -201 0
-23 -44 -45 -84 -85 -102 -103 -119 -120 -135 -136 -149 -151 -163 -164 -189 -190 -199 -201 0
-23 -44 -45 -84 -85 -102 -103 -119 -120 -135 -136 -150 -151 -163 -165 -189 -190 -199 -201 0
-23 -44 -45 -84 -85 -102 -103 -119 -120 -135 -136 -150 -151 -164 -165 -189 -191 -199 -201 0
-23 -44 -45 -84 -85 -102 -103 -119 -120 -135 -136 -150 -151 -164 -165 -190 -191 -199 -202 0
-22 -43 -44 -83 -84 -101 -102 -118 -119 -134 -135 -149 -150 -163 -164 -189 -190 -200 -201 0
-23 -43 -45 -83 -84 -101 -102 -118 -119 -134 -135 -149 -150 -163 -164 -189 -190 -200 -201 0
-23 -44 -45 -83 -85 -101 -102 -118 -119 -134 -135 -149 -150 -163 -164 -189 -190 -200 -201 0
-23 -44 -45 -84 -85 -101 -103 -118 -119 -134 -135 -149 -150 -163 -164 -189 -190 -200 -201 0
-23 -44 -45 -84 -85 -102 -103 -118 -120 -134 -135 -149 -150 -163 -164 -189 -190 -200 -201 0
-23 -44 -45 -84 -85 -102 -103 -119 -120 -134 -136 -149 -150 -163 -164 -189 -190 -200 -201 0
-23 -44 -45 -84 -85 -102 -103 -119 -120 -135 -136 -149 -151 -163 -164 -189 -190 -200 -201 0
-23 -44 -45 -84 -85 -102 -103 -119 -120 -135 -136 -150 -151 -163 -165 -189 -190 -200 -201 0
-23 -44 -45 -84 -85 -102 -103 -119 -120 -135 -136 -150 -151 -164 -165 -189 -191 -200 -201 0
-23 -44 -45 -84 -85 -102 -103 -119 -120 -135 -136 -150 -151 -164 -165 -190 -191 -200 -202 0
-23 -44 -45 -84 -85 -102 -103 -119 -120 -135 -136 -150 -151 -164 -165 -190 -191 -201 -202 0
-22 -43 -44 -83 -84 -101 -102 -118 -119 -134 -135 -149 -150 -163 -164 -189 -190 -211 -212 0
-23 -43 -45 -83 -84 -101 -102 -118 -119 -134 -135 -149 -150 -163 -164 -189 -190 -211 -212 0
-23 -44 -45 -83 -85 -101 -102 -118 -119 -134 -135 -149 -150 -163 -164 -189 -190 -211 -212 0
-23 -44 -45 -84 -85 -101 -103 -118 -119 -134 -135 -149 -150 -163 -164 -189 -190 -211 -212 0
-23 -44 -45 -84 -85 -102 -103 -118 -120 -134 -135 -149 -150 -163 -164 -189 -190 -211 -212 0
-23 -44 -45 -84 -85 -102 -103 -119 -120 -134 -136 -149 -150 -163 -164 -189 -190 -211 -212 0
-23 -44 -45 -84 -85 -102 -103 -119 -120 -135 -136 -149 -151 -163 -164 -189 -190 -211 -212 0
-23 -44 -45 -84 -85 -102 -103 -119 -120 -135 -136 -150 -151 -163 -165 -189 -190 -211 -212 0
-23 -44 -45 -84 -85 -102 -103 -119 -120 -135 -136 -150 -151 -164 -165 -189 -191 -211 -212 0
-23 -44 -45 -84 -85 -102 -103 -119 -120 -135 -136 -150 -151 -164 -165 -190 -191 -211 -213 0
-23 -44 -45 -84 -85 -102 -103 -119 -120 -135 -136 -150 -151 -164 -165 -190 -191 -212 -213 0
-23 -44 -45 -84 -85 -102 -103 -119 -120 -135 -136 -150 -151 -164 -165 -190 -191 -222 -223 0
-22 -43 -44 -83 -84 -101 -102 -118 -119 -134 -135 -149 -150 -163 -164 -201 -202 -211 -212 0
-23 -43 -45 -83 -84 -101 -102 -118 -119 -134 -135 -149 -150 -163 -164 -201 -202 -211 -212 0
-23 -44 -45 -83 -85 -101 -102 -118 -119 -134 -135 -149 -150 -163 -164 -201 -202 -211 -212 0
-23 -44 -45 -84 -85 -101 -103 -118 -119 -134 -135 -149 -150 -163 -164 -201 -202 -211 -212 0
-23 -44 -45 -84 -85 -102 -103 -118 -120 -134 -135 -149 -150 -163 -164 -201 -202 -211 -212 0
-23 -44 -45 -84 -85 -102 -103 -119 -120 -134 -136 -149 -150 -163 -164 -201 -202 -211 -212 0
-23 -44 -45 -84 -85 -102 -103 -119 -120 -135 -136 -149 -151 -163 -164 -201 -202 -211 -212 0
-23 -44 -45 -84 -85 -102 -103 -119 -120 -135 -136 -150 -151 -163 -165 -201 -202 -211 -212 0
-23 -44 -45 -84 -85 -102 -103 -119 -120 -135 -136 -150 -151 -164 -165 -201 -203 -211 -212 0
-23 -44 -45 -84 -85 -102 -103 -119 -120 -135 -136 -150 -151 -164 -165 -202 -203 -211 -213 0
-23 -44 -45 -84 -85 -102 -103 -119 -120 -135 -136 -150 -151 -164 -165 -202 -203 -212 -213 0
-23 -44 -45 -84 -85 -102 -103 -119 -120 -135 -136 -150 -151 -164 -165 -202 -203 -222 -223 0
-23 -44 -45 -84 -85 -102 -103 -119 -120 -135 -136 -150 -151 -164 -165 -213 -214 -222 -223 0
-21 -42 -43 -82 -83 -100 -101 -117 -118 -133 -134 -148 -149 -176 -177 -188 -189 -199 -200 0
-22 -42 -44 -82 -83 -100 -101 -117 -118 -133 -134 -148 -149 -176 -177 -188 -189 -199 -200 0
-23 -42 -45 -82 -83 -100 -101 -117 -118 -133 -134 -148 -149 -176 -177 -188 -189 -199 -200 0
-22 -43 -44 -82 -84 -100 -101 -117 -118 -133 -134 -148 -149 -176 -177 -188 -189 -199 -200 0
-23 -43 -45 -82 -84 -100 -101 -117 -118 -133 -134 -148 -149 -176 -177 -188 -189 -199 -200 0
-23 -44 -45 -82 -85 -100 -101 -117 -118 -133 -134 -148 -149 -176 -177 -188 -189 -199 -200 0
-22 -43 -44 -83 -84 -100 -102 -117 -118 -133 -134 -148 -149 -176 -177 -188 -189 -199 -200 0
-23 -43 -45 -83 -84 -100 -102 -117 -118 -133 -134 -148 -149 -176 -177 -188 -189 -199 -200 0
-23 -44 -45 -83 -85 -100 -102 -117 -118 -133 -134 -148 -149 -176 -177 -188 -189 -199 -200 0
-23 -44 -45 -84 -85 -100 -103 -117 -118 -133 -134 -148 -149 -176 -177 -188 -189 -199 -200 0
-22 -43 -44 -83 -84 -101 -102 -117 -119 -133 -134 -148 -149 -176 -177 -188 -189 -199 -200 0
-23 -43 -45 -83 -84 -101 -102 -117 -119 -133 -134 -148 -149 -176 -177 -188 -189 -199 -200 0
-23 -44 -45 -83 -85 -101 -102 -117 -119 -133 -134 -148 -149 -176 -177 -188 -189 -199 -200 0
-23 -44 -45 -84 -85 -101 -103 -117 -119 -133 -134 -148 -149 -176 -177 -188 -189 -199 -200 0
-23 -44 -45 -84 -85 -102 -103 -117 -120 -133 -134 -148 -149 -176 -177 -188 -189 -199 -200 0
-22 -43 -44 -83 -84 -101 -102 -118 -119 -133 -135 -148 -149 -176 -177 -188 -189 -199 -200 0
-23 -43 -45 -83 -84 -101 -102 -118 -119 -133 -135 -148 -149 -176 -177 -188 -189 -199 -200 0
-23 -44 -45 -83 -85 -101 -102 -118 -119 -133 -135 -148 -149 -176 -177 -188 -189 -199 -200 0
-23 -44 -45 -84 -85 -101 -103 -118 -119 -133 -135 -148 -149 -176 -177 -188 -189 -199 -200 0
-23 -44 -45 -84 -85 -102 -103 -118 -120 -133 -135 -148 -149 -176 -177 -188 -189 -199 -200 0
-23 -44 -45 -84 -85 -102 -103 -119 -120 -133 -136 -148 -149 -176 -177 -188 -189 -199 -200 0
-22 -43 -44 -83 -84 -101 -102 -118 -119 -134 -135 -148 -150 -176 -177 -188 -189 -199 -200 0
-23 -43 -45 -83 -84 -101 -102 -118 -119 -134 -135 -148 -150 -176 -177 -188 -189 -199 -200 0
-23 -44 -45 -83 -85 -101 -102 -118 -119 -134 -135 -148 -150 -176 -177 -188 -189 -199 -200 0
-23 -44 -45 -84 -85 -101 -103 -118 -119 -134 -135 -148 -150 -176 -177 -188 -189 -199 -200 0
-23 -44 -45 -84 -85 -102 -103 -118 -120 -134 -135 -148 -150 -176 -177 -188 -189 -199 -200 0
-23 -44 -45 -84 -85 -102 -103 -119 -120 -134 -136 -148 -150 -176 -177 -188 -189 -199 -200 0
-23 -44 -45 -84 -85 -102 -103 -119 -120 -135 -136 -148 -151 -176 -177 -188 -189 -199 -200 0
-22 -43 -44 -83 -84 -101 -102 -118 -119 -134 -135 -149 -150 -176 -178 -188 -189 -199 -200 0
-23 -43 -45 -83 -84 -101 -102 -118 -119 -134 -135 -149 -150 -176 -178 -188 -189 -199 -200 0
-23 -44 -45 -83 -85 -101 -102 -118 -119 -134 -135 -149 -150 -176 -178 -188 -189 -199 -200 0
-23 -44 -45 -84 -85 -101 -103 -118 -119 -134 -135 -149 -150 -176 -178 -188 -189 -199 -200 0
-23 -44 -45 -84 -85 -102 -103 -118 -120 -134 -135 -149 -150 -176 -178 -188 -189 -199 -200 0
-23 -44 -45 -84 -85 -102 -103 -119 -120 -134 -136 -149 -150 -176 -178 -188 -189 -199 -200 0
-23 -44 -45 -84 -85 -102 -103 -119 -120 -135 -136 -149 -151 -176 -178 -188 -189 -199 -200 0
-23 -44 -45 -84 -85 -102 -103 -119 -120 -135 -136 -150 -151 -176 -179 -188 -189 -199 -200 0
-22 -43 -44 -83 -84 -101 -102 -118 -119 -134 -135 -149 -150 -177 -178 -188 -190 -199 -200 0
-23 -43 -45 -83 -84 -101 -102 -118 -119 -134 -135 -149 -150 -177 -178 -188 -190 -199 -200 0
-23 -44 -45 -83 -85 -101 -102 -118 -119 -134 -135 -149 -150 -177 -178 -188 -190 -199 -200 0
-23 -44 -45 -84 -85 -101 -103 -118 -119 -134 -135 -149 -150 -177 -178 -188 -190 -199 -200 0
-23 -44 -45 -84 -85 -102 -103 -118 -120 -134 -135 -149 -150 -177 -178 -188 -190 -199 -200 0
-23 -44 -45 -84 -85 -102 -103 -119 -120 -134 -136 -149 -150 -177 -178 -188 -190 -199 -200 0
-23 -44 -45 -84 -85 -102 -103 -119 -120 -135 -136 -149 -151 -177 -178 -188 -190 -199 -200 0
-23 -44 -45 -84 -85 -102 -103 -119 -120 -135 -136 -150 -151 -177 -179 -188 -190 -199 -200 0
-23 -44 -45 -84 -85 -102 -103 -119 -120 -135 -136 -150 -151 -178 -179 -188 -191 -199 -200 0
-22 -43 -44 -83 -84 -101 -102 -118 -119 -134 -135 -149 -150 -177 -178 -189 -190 -199 -201 0
-23 -43 -45 -83 -84 -101 -102 -118 -119 -134 -135 -149 -150 -177 -178 -189 -190 -199 -201 0
-23 -44 -45 -83 -85 -101 -102 -118 -119 -134 -135 -149 -150 -177 -178 -189 -190 -199 -201 0
-23 -44 -45 -84 -85 -101 -103 -118 -119 -134 -135 -149 -150 -177 -178 -189 -190 -199 -201 0
-23 -44 -45 -84 -85 -102 -103 -118 -120 -134 -135 -149 -150 -177 -178 -189 -190 -199 -201 0
-23 -44 -45 -84 -85 -102 -103 -119 -120 -134 -136 -149 -150 -177 -178 -189 -190 -199 -201 0
-23 -44 -45 -84 -85 -102 -103 -119 -120 -135 -136 -149 -151 -177 -178 -189 -190 -199 -201 0
-23 -44 -45 -84 -85 -102 -103 -119 -120 -135 -136 -150 -151 -177 -179 -189 -190 -199 -201 0
-23 -44 -45 -84 -85 -102 -103 -119 -120 -135 -136 -150 -151 -178 -179 -189 -191 -199 -201 0
-23 -44 -45 -84 -85 -102 -103 -119 -120 -135 -136 -150 -151 -178 -179 -190 -191 -199 -202 0
-22 -43 -44 -83 -84 -101 -102 -118 -119 -134 -135 -149 -150 -177 -178 -189 -190 -200 -201 0
-23 -43 -45 -83 -84 -101 -102 -118 -119 -134 -135 -149 -150 -177 -178 -189 -190 -200 -201 0
-23 -44 -45 -83 -85 -101 -102 -118 -119 -134 -135 -149 -150 -177 -178 -189 -190 -200 -201 0
-23 -44 -45 -84 -85 -101 -103 -118 -119 -134 -135 -149 -150 -177 -178 -189 -190 -200 -201 0
-23 -44 -45 -84 -85 -102 -103 -118 -120 -134 -135 -149 -150 -177 -178 -189 -190 -200 -201 0
-23 -44 -45 -84 -85 -102 -103 -119 -120 -134 -136 -149 -150 -177 -178 -189 -190 -200 -201 0
-23 -44 -45 -84 -85 -102 -103 -119 -120 -135 -136 -149 -151 -177 -178 -189 -190 -200 -201 0
-23 -44 -45 -84 -85 -102 -103 -119 -120 -135 -136 -150 -151 -177 -179 -189 -190 -200 -201 0
-23 -44 -45 -84 -85 -102 -103 -119 -120 -135 -136 -150 -151 -178 -179 -189 -191 -200 -201 0
-23 -44 -45 -84 -85 -102 -103 -119 -120 -135 -136 -150 -151 -178 -179 -190 -191 -200 -202 0
-23 -44 -45 -84 -85 -102 -103 -119 -120 -135 -136 -150 -151 -178 -179 -190 -191 -201 -202 0
-22 -43 -44 -83 -84 -101 -102 -118 -119 -134 -135 -149 -150 -177 -178 -189 -190 -211 -212 0
-23 -43 -45 -83 -84 -101 -102 -118 -119 -134 -135 -149 -150 -177 -178 -189 -190 -211 -212 0
-23 -44 -45 -83 -85 -101 -102 -118 -119 -134 -135 -149 -150 -177 -178 -189 -190 -211 -212 0
-23 -44 -45 -84 -85 -101 -103 -118 -119 -134 -135 -149 -150 -177 -178 -189 -190 -211 -212 0
-23 -44 -45 -84 -85 -102 -103 -118 -120 -134 -135 -149 -150 -177 -178 -189 -190 -211 -212 0
-23 -44 -45 -84 -85 -102 -103 -119 -120 -134 -136 -149 -150 -177 -178 -189 -190 -211 -212 0
-23 -44 -45 -84 -85 -102 -103 -119 -120 -135 -136 -149 -151 -177 -178 -189 -190 -211 -212 0
-23 -44 -45 -84 -85 -102 -103 -119 -120 -135 -136 -150 -151 -177 -179 -189 -190 -211 -212 0
-23 -44 -45 -84 -85 -102 -103 -119 -120 -135 -136 -150 -151 -178 -179 -189 -191 -211 -212 0
-23 -44 -45 -84 -85 -102 -103 -119 -120 -135 -136 -150 -151 -178 -179 -190 -191 -211 -213 0
-23 -44 -45 -84 -85 -102 -103 -119 -120 -135 -136 -150 -151 -178 -179 -190 -191 -212 -213 0
-23 -44 -45 -84 -85 -102 -103 -119 -120 -135 -136 -150 -151 -178 -179 -190 -191 -222 -223 0
-22 -43 -44 -83 -84 -101 -102 -118 -119 -134 -135 -149 -150 -177 -178 -201 -202 -211 -212 0
-23 -43 -45 -83 -84 -101 -102 -118 -119 -134 -135 -149 -150 -177 -178 -201 -202 -211 -212 0
-23 -44 -45 -83 -85 -101 -102 -118 -119 -134 -135 -149 -150 -177 -178 -201 -202 -211 -212 0
-23 -44 -45 -84 -85 -101 -103 -118 -119 -134 -135 -149 -150 -177 -178 -201 -202 -211 -212 0
-23 -44 -45 -84 -85 -102 -103 -118 -120 -134 -135 -149 -150 -177 -178 -201 -202 -211 -212 0
-23 -44 -45 -84 -85 -102 -103 -119 -120 -134 -136 -149 -150 -177 -178 -201 -202 -211 -212 0
-23 -44 -45 -84 -85 -102 -103 -119 -120 -135 -136 -149 -151 -177 -178 -201 -202 -211 -212 0
-23 -44 -45 -84 -85 -102 -103 -119 -120 -135 -136 -150 -151 -177 -179 -201 -202 -211 -212 0
-23 -44 -45 -84 -85 -102 -103 -119 -120 -135 -136 -150 -151 -178 -179 -201 -203 -211 -212 0
-23 -44 -45 -84 -85 -102 -103 -119 -120 -135 -136 -150 -151 -178 -179 -202 -203 -211 -213 0
-23 -44 -45 -84 -85 -102 -103 -119 -120 -135 -136 -150 -151 -178 -179 -202 -203 -212 -213 0
-23 -44 -45 -84 -85 -102 -103 -119 -120 -135 -136 -150 -151 -178 -179 -202 -203 -222 -223 0
-23 -44 -45 -84 -85 -102 -103 -119 -120 -135 -136 -150 -151 -178 -179 -213 -214 -222 -223 0
-22 -43 -44 -83 -84 -101 -102 -118 -119 -134 -135 -149 -150 -190 -191 -201 -202 -211 -212 0
-23 -43 -45 -83 -84 -101 -102 -118 -119 -134 -135 -149 -150 -190 -191 -201 -202 -211 -212 0
-23 -44 -45 -83 -85 -101 -102 -118 -119 -134 -135 -149 -150 -190 -191 -201 -202 -211 -212 0
-23 -44 -45 -84 -85 -101 -103 -118 -119 -134 -135 -149 -150 -190 -191 -201 -202 -211 -212 0
-23 -44 -45 -84 -85 -102 -103 -118 -120 -134 -135 -149 -150 -190 -191 -201 -202 -211 -212 0
-23 -44 -45 -84 -85 -102 -103 -119 -120 -134 -136 -149 -150 -190 -191 -201 -202 -211 -212 0
-23 -44 -45 -84 -85 -102 -103 -119 -120 -135 -136 -149 -151 -190 -191 -201 -202 -211 -212 0
-23 -44 -45 -84 -85 -102 -103 -119 -120 -135 -136 -150 -151 -190 -192 -201 -202 -211 -212 0
-23 -44 -45 -84 -85 -102 -103 -119 -120 -135 -136 -150 -151 -191 -192 -201 -203 -211 -212 0
-23 -44 -45 -84 -85 -102 -103 -119 -120 -135 -136 -150 -151 -191 -192 -202 -203 -211 -213 0
-23 -44 -45 -84 -85 -102 -103 -119 -120 -135 -136 -150 -151 -191 -192 -202 -203 -212 -213 0
-23 -44 -45 -84 -85 -102 -103 -119 -120 -135 -136 -150 -151 -191 -192 -202 -203 -222 -223 0
-23 -44 -45 -84 -85 -102 -103 -119 -120 -135 -136 -150 -151 -191 -192 -213 -214 -222 -223 0
-23 -44 -45 -84 -85 -102 -103 -119 -120 -135 -136 -150 -151 -203 -204 -213 -214 -222 -223 0
-21 -42 -43 -82 -83 -100 -101 -117 -118 -133 -134 -163 -164 -176 -177 -188 -189 -199 -200 0
-22 -42 -44 -82 -83 -100 -101 -117 -118 -133 -134 -163 -164 -176 -177 -188 -189 -199 -200 0
-23 -42 -45 -82 -83 -100 -101 -117 -118 -133 -134 -163 -164 -176 -177 -188 -189 -199 -200 0
-22 -43 -44 -82 -84 -100 -101 -117 -118 -133 -134 -163 -164 -176 -177 -188 -189 -199 -200 0
-23 -43 -45 -82 -84 -100 -101 -117 -118 -133 -134 -163 -164 -176 -177 -188 -189 -199 -200 0
-23 -44 -45 -82 -85 -100 -101 -117 -118 -133 -134 -163 -164 -176 -177 -188 -189 -199 -200 0
-22 -43 -44 -83 -84 -100 -102 -117 -118 -133 -134 -163 -164 -176 -177 -188 -189 -199 -200 0
-23 -43 -45 -83 -84 -100 -102 -117 -118 -133 -134 -163 -164 -176 -177 -188 -189 -199 -200 0
-23 -44 -45 -83 -85 -100 -102 -117 -118 -133 -134 -163 -164 -176 -177 -188 -189 -199 -200 0
-23 -44 -45 -84 -85 -100 -103 -117 -118 -133 -134 -163 -164 -176 -177 -188 -189 -199 -200 0
-22 -43 -44 -83 -84 -101 -102 -117 -119 -133 -134 -163 -164 -176 -177 -188 -189 -199 -200 0
-23 -43 -45 -83 -84 -101 -102 -117 -119 -133 -134 -163 -164 -176 -177 -188 -189 -199 -200 0
-23 -44 -45 -83 -85 -101 -102 -117 -119 -133 -134 -163 -164 -176 -177 -188 -189 -199 -200 0
-23 -44 -45 -84 -85 -101 -103 -117 -119 -133 -134 -163 -164 -176 -177 -188 -189 -199 -200 0
-23 -44 -45 -84 -85 -102 -103 -117 -120 -133 -134 -163 -164 -176 -177 -188 -189 -199 -200 0
-22 -43 -44 -83 -84 -101 -102 -118 -119 -133 -135 -163 -164 -176 -177 -188 -189 -199 -200 0
-23 -43 -45 -83 -84 -101 -102 -118 -119 -133 -135 -163 -164 -176 -177 -188 -189 -199 -200 0
-23 -44 -45 -83 -85 -101 -102 -118 -119 -133 -135 -163 -164 -176 -177 -188 -189 -199 -200 0
-23 -44 -45 -84 -85 -101 -103 -118 -119 -133 -135 -163 -164 -176 -177 -188 -189 -199 -200 0
-23 -44 -45 -84 -85 -102 -103 -118 -120 -133 -135 -163 -164 -176 -177 -188 -189 -199 -200 0
-23 -44 -45 -84 -85 -102 -103 -119 -120 -133 -136 -163 -164 -176 -177 -188 -189 -199 -200 0
-22 -43 -44 -83 -84 -101 -102 -118 -119 -134 -135 -163 -165 -176 -177 -188 -189 -199 -200 0
-23 -43 -45 -83 -84 -101 -102 -118 -119 -134 -135 -163 -165 -176 -177 -188 -189 -199 -200 0
-23 -44 -45 -83 -85 -101 -102 -118 -119 -134 -135 -163 -165 -176 -177 -188 -189 -199 -200 0
-23 -44 -45 -84 -85 -101 -103 -118 -119 -134 -135 -163 -165 -176 -177 -188 -189 -199 -200 0
-23 -44 -45 -84 -85 -102 -103 -118 -120 -134 -135 -163 -165 -176 -177 -188 -189 -199 -200 0
-23 -44 -45 -84 -85 -102 -103 -119 -120 -134 -136 -163 -165 -176 -177 -188 -189 -199 -200 0
-23 -44 -45 -84 -85 -102 -103 -119 -120 -135 -136 -163 -166 -176 -177 -188 -189 -199 -200 0
-22 -43 -44 -83 -84 -101 -102 -118 -119 -134 -135 -164 -165 -176 -178 -188 -189 -199 -200 0
-23 -43 -45 -83 -84 -101 -102 -118 -119 -134 -135 -164 -165 -176 -178 -188 -189 -199 -200 0
-23 -44 -45 -83 -85 -101 -102 -118 -119 -134 -135 -164 -165 -176 -178 -188 -189 -199 -200 0
-23 -44 -45 -84 -85 -101 -103 -118 -119 -134 -135 -164 -165 -176 -178 -188 -189 -199 -200 0
-23 -44 -45 -84 -85 -102 -103 -118 -120 -134 -135 -164 -165 -176 -178 -188 -189 -199 -200 0
-23 -44 -45 -84 -85 -102 -103 -119 -120 -134 -136 -164 -165 -176 -178 -188 -189 -199 -200 0
-23 -44 -45 -84 -85 -102 -103 -119 -120 -135 -136 -164 -166 -176 -178 -188 -189 -199 -200 0
-23 -44 -45 -84 -85 -102 -103 -119 -120 -135 -136 -165 -166 -176 -179 -188 -189 -199 -200 0
-22 -43 -44 -83 -84 -101 -102 -118 -119 -134 -135 -164 -165 -177 -178 -188 -190 -199 -200 0
-23 -43 -45 -83 -84 -101 -102 -118 -119 -134 -135 -164 -165 -177 -178 -188 -190 -199 -200 0
-23 -44 -45 -83 -85 -101 -102 -118 -119 -134 -135 -164 -165 -177 -178 -188 -190 -199 -200 0
-23 -44 -45 -84 -85 -101 -103 -118 -119 -134 -135 -164 -165 -177 -178 -188 -190 -199 -200 0
-23 -44 -45 -84 -85 -102 -103 -118 -120 -134 -135 -164 -165 -177 -178 -188 -190 -199 -200 0
-23 -44 -45 -84 -85 -102 -103 -119 -120 -134 -136 -164 -165 -177 -178 -188 -190 -199 -200 0
-23 -44 -45 -84 -85 -102 -103 -119 -120 -135 -136 -164 -166 -177 -178 -188 -190 -199 -200 0
-23 -44 -45 -84 -85 -102 -103 -119 -120 -135 -136 -165 -166 -177 -179 -188 -190 -199 -200 0
-23 -44 -45 -84 -85 -102 -103 -119 -120 -135 -136 -165 -166 -178 -179 -188 -191 -199 -200 0
-22 -43 -44 -83 -84 -101 -102 -118 -119 -134 -135 -164 -165 -177 -178 -189 -190 -199 -201 0
-23 -43 -45 -83 -84 -101 -102 -118 -119 -134 -135 -164 -165 -177 -178 -189 -190 -199 -201 0
-23 -44 -45 -83 -85 -101 -102 -118 -119 -134 -135 -164 -165 -177 -178 -189 -190 -199 -201 0
-23 -44 -45 -84 -85 -101 -103 -118 -119 -134 -135 -164 -165 -177 -178 -189 -190 -199 -201 0
-23 -44 -45 -84 -85 -102 -103 -118 -120 -134 -135 -164 -165 -177 -178 -189 -190 -199 -201 0
-23 -44 -45 -84 -85 -102 -103 -119 -120 -134 -136 -164 -165 -177 -178 -189 -190 -199 -201 0
-23 -44 -45 -84 -85 -102 -103 -119 -120 -135 -136 -164 -166 -177 -178 -189 -190 -199 -201 0
-23 -44 -45 -84 -85 -102 -103 -119 -120 -135 -136 -165 -166 -177 -179 -189 -190 -199 -201 0
-23 -44 -45 -84 -85 -102 -103 -119 -120 -135 -136 -165 -166 -178 -179 -189 -191 -199 -201 0
-23 -44 -45 -84 -85 -102 -103 -119 -120 -135 -136 -165 -166 -178 -179 -190 -191 -199 -202 0
-22 -43 -44 -83 -84 -101 -102 -118 -119 -134 -135 -164 -165 -177 -178 -189 -190 -200 -201 0
-23 -43 -45 -83 -84 -101 -102 -118 -119 -134 -135 -164 -165 -177 -178 -189 -190 -200 -201 0
-23 -44 -45 -83 -85 -101 -102 -118 -119 -134 -135 -164 -165 -177 -178 -189 -190 -200 -201 0
-23 -44 -45 -84 -85 -101 -103 -118 -119 -134 -135 -164 -165 -177 -178 -189 -190 -200 -201 0
-23 -44 -45 -84 -85 -102 -103 -118 -120 -134 -135 -164 -165 -177 -178 -189 -190 -200 -201 0
-23 -44 -45 -84 -85 -102 -103 -119 -120 -134 -136 -164 -165 -177 -178 -189 -190 -200 -201 0
-23 -44 -45 -84 -85 -102 -103 -119 -120 -135 -136 -164 -166 -177 -178 -189 -190 -200 -201 0
-23 -44 -45 -84 -85 -102 -103 -119 -120 -135 -136 -165 -166 -177 -179 -189 -190 -200 -201 0
-23 -44 -45 -84 -85 -102 -103 -119 -120 -135 -136 -165 -166 -178 -179 -189 -191 -200 -201 0
-23 -44 -45 -84 -85 -102 -103 -119 -120 -135 -136 -165 -166 -178 -179 -190 -191 -200 -202 0
-23 -44 -45 -84 -85 -102 -103 -119 -120 -135 -136 -165 -166 -178 -179 -190 -191 -201 -202 0
-22 -43 -44 -83 -84 -101 -102 -118 -119 -134 -135 -164 -165 -177 -178 -189 -190 -211 -212 0
-23 -43 -45 -83 -84 -101 -102 -118 -119 -134 -135 -164 -165 -177 -178 -189 -190 -211 -212 0
-23 -44 -45 -83 -85 -101 -102 -118 -119 -134 -135 -164 -165 -177 -178 -189 -190 -211 -212 0
-23 -44 -45 -84 -85 -101 -103 -118 -119 -134 -135 -164 -165 -177 -178 -189 -190 -211 -212 0
-23 -44 -45 -84 -85 -102 -103 -118 -120 -134 -135 -164 -165 -177 -178 -189 -190 -211 -212 0
-23 -44 -45 -84 -85 -102 -103 -119 -120 -134 -136 -164 -165 -177 -178 -189 -190 -211 -212 0
-23 -44 -45 -84 -85 -102 -103 -119 -120 -135 -136 -164 -166 -177 -178 -189 -190 -211 -212 0
-23 -44 -45 -84 -85 -102 -103 -119 -120 -135 -136 -165 -166 -177 -179 -189 -190 -211 -212 0
-23 -44 -45 -84 -85 -102 -103 -119 -120 -135 -136 -165 -166 -178 -179 -189 -191 -211 -212 0
-23 -44 -45 -84 -85 -102 -103 -119 -120 -135 -136 -165 -166 -178 -179 -190 -191 -211 -213 0
-23 -44 -45 -84 -85 -102 -103 -119 -120 -135 -136 -165 -166 -178 -179 -190 -191 -212 -213 0
-23 -44 -45 -84 -85 -102 -103 -119 -120 -135 -136 -165 -166 -178 -179 -190 -191 -222 -223 0
-22 -43 -44 -83 -84 -101 -102 -118 -119 -134 -135 -164 -165 -177 -178 -201 -202 -211 -212 0
-23 -43 -45 -83 -84 -101 -102 -118 -119 -134 -135 -164 -165 -177 -178 -201 -202 -211 -212 0
-23 -44 -45 -83 -85 -101 -102 -118 -119 -134 -135 -164 -165 -177 -178 -201 -202 -211 -212 0
-23 -44 -45 -84 -85 -101 -103 -118 -119 -134 -135 -164 -165 -177 -178 -201 -202 -211 -212 0
-23 -44 -45 -84 -85 -102 -103 -118 -120 -134 -135 -164 -165 -177 -178 -201 -202 -211 -212 0
-23 -44 -45 -84 -85 -102 -103 -119 -120 -134 -136 -164 -165 -177 -178 -201 -202 -211 -212 0
-23 -44 -45 -84 -85 -102 -103 -119 -120 -135 -136 -164 -166 -177 -178 -201 -202 -211 -212 0
-23 -44 -45 -84 -85 -102 -103 -119 -120 -135 -136 -165 -166 -177 -179 -201 -202 -211 -212 0
-23 -44 -45 -84 -85 -102 -103 -119 -120 -135 -136 -165 -166 -178 -179 -201 -203 -211 -212 0
-23 -44 -45 -84 -85 -102 -103 -119 -120 -135 -136 -165 -166 -178 -179 -202 -203 -211 -213 0
-23 -44 -45 -84 -85 -102 -103 -119 -120 -135 -136 -165 -166 -178 -179 -202 -203 -212 -213 0
-23 -44 -45 -84 -85 -102 -103 -119 -120 -135 -136 -165 -166 -178 -179 -202 -203 -222 -223 0
-23 -44 -45 -84 -85 -102 -103 -119 -120 -135 -136 -165 -166 -178 -179 -213 -214 -222 -223 0
-22 -43 -44 -83 -84 -101 -102 -118 -119 -134 -135 -164 -165 -190 -191 -201 -202 -211 -212 0
-23 -43 -45 -83 -84 -101 -102 -118 -119 -134 -135 -164 -165 -190 -191 -201 -202 -211 -212 0
-23 -44 -45 -83 -85 -101 -102 -118 -119 -134 -135 -164 -165 -190 -191 -201 -202 -211 -212 0
-23 -44 -45 -84 -85 -101 -103 -118 -119 -134 -135 -164 -165 -190 -191 -201 -202 -211 -212 0
-23 -44 -45 -84 -85 -102 -103 -118 -120 -134 -135 -164 -165 -190 -191 -201 -202 -211 -212 0
-23 -44 -45 -84 -85 -102 -103 -119 -120 -134 -136 -164 -165 -190 -191 -201 -202 -211 -212 0
-23 -44 -45 -84 -85 -102 -103 -119 -120 -135 -136 -164 -166 -190 -191 -201 -202 -211 -212 0
-23 -44 -45 -84 -85 -102 -103 -119 -120 -135 -136 -165 -166 -190 -192 -201 -202 -211 -212 0
-23 -44 -45 -84 -85 -102 -103 -119 -120 -135 -136 -165 -166 -191 -192 -201 -203 -211 -212 0
-23 -44 -45 -84 -85 -102 -103 -119 -120 -135 -136 -165 -166 -191 -192 -202 -203 -211 -213 0
-23 -44 -45 -84 -85 -102 -103 -119 -120 -135 -136 -165 -166 -191 -192 -202 -203 -212 -213 0
-23 -44 -45 -84 -85 -102 -103 -119 -120 -135 -136 -165 -166 -191 -192 -202 -203 -222 -223 0
-23 -44 -45 -84 -85 -102 -103 -119 -120 -135 -136 -165 -166 -191 -192 -213 -214 -222 -223 0
-23 -44 -45 -84 -85 -102 -103 -119 -120 -135 -136 -165 -166 -203 -204 -213 -214 -222 -223 0
-22 -43 -44 -83 -84 -101 -102 -118 -119 -134 -135 -178 -179 -190 -191 -201 -202 -211 -212 0
-23 -43 -45 -83 -84 -101 -102 -118 -119 -134 -135 -178 -179 -190 -191 -201 -202 -211 -212 0
-23 -44 -45 -83 -85 -101 -102 -118 -119 -134 -135 -178 -179 -190 -191 -201 -202 -211 -212 0
-23 -44 -45 -84 -85 -101 -103 -118 -119 -134 -135 -178 -179 -190 -191 -201 -202 -211 -212 0
-23 -44 -45 -84 -85 -102 -103 -118 -120 -134 -135 -178 -179 -190 -191 -201 -202 -211 -212 0
-23 -44 -45 -84 -85 -102 -103 -119 -120 -134 -136 -178 -179 -190 -191 -201 -202 -211 -212 0
-23 -44 -45 -84 -85 -102 -103 -119 -120 -135 -136 -178 -180 -190 -191 -201 -202 -211 -212 0
-23 -44 -45 -84 -85 -102 -103 -119 -120 -135 -136 -179 -180 -190 -192 -201 -202 -211 -212 0
-23 -44 -45 -84 -85 -102 -103 -119 -120 -135 -136 -179 -180 -191 -192 -201 -203 -211 -212 0
-23 -44 -45 -84 -85 -102 -103 -119 -120 -135 -136 -179 -180 -191 -192 -202 -203 -211 -213 0
-23 -44 -45 -84 -85 -102 -103 -119 -120 -135 -136 -179 -180 -191 -192 -202 -203 -212 -213 0
-23 -44 -45 -84 -85 -102 -103 -119 -120 -135 -136 -179 -180 -191 -192 -202 -203 -222 -223 0
-23 -44 -45 -84 -85 -102 -103 -119 -120 -135 -136 -179 -180 -191 -192 -213 -214 -222 -223 0
-23 -44 -45 -84 -85 -102 -103 -119 -120 -135 -136 -179 -180 -203 -204 -213 -214 -222 -223 0
-23 -44 -45 -84 -85 -102 -103 -119 -120 -135 -136 -192 -193 -203 -204 -213 -214 -222 -223 0
-21 -42 -43 -82 -83 -100 -101 -117 -118 -149 -150 -163 -164 -176 -177 -188 -189 -199 -200 0
-22 -42 -44 -82 -83 -100 -101 -117 -118 -149 -150 -163 -164 -176 -177 -188 -189 -199 -200 0
-23 -42 -45 -82 -83 -100 -101 -117 -118 -149 -150 -163 -164 -176 -177 -188 -189 -199 -200 0
-22 -43 -44 -82 -84 -100 -101 -117 -118 -149 -150 -163 -164 -176 -177 -188 -189 -199 -200 0
-23 -43 -45 -82 -84 -100 -101 -117 -118 -149 -150 -163 -164 -176 -177 -188 -189 -199 -200 0
-23 -44 -45 -82 -85 -100 -101 -117 -118 -149 -150 -163 -164 -176 -177 -188 -189 -199 -200 0
-22 -43 -44 -83 -84 -100 -102 -117 -118 -149 -150 -163 -164 -176 -177 -188 -189 -199 -200 0
-23 -43 -45 -83 -84 -100 -102 -117 -118 -149 -150 -163 -164 -176 -177 -188 -189 -199 -200 0
-23 -44 -45 -83 -85 -100 -102 -117 -118 -149 -150 -163 -164 -176 -177 -188 -189 -199 -200 0
-23 -44 -45 -84 -85 -100 -103 -117 -118 -149 -150 -163 -164 -176 -177 -188 -189 -199 -200 0
-22 -43 -44 -83 -84 -101 -102 -117 -119 -149 -150 -163 -164 -176 -177 -188 -189 -199 -200 0
-23 -43 -45 -83 -84 -101 -102 -117 -119 -149 -150 -163 -164 -176 -177 -188 -189 -199 -200 0
-23 -44 -45 -83 -85 -101 -102 -117 -119 -149 -150 -163 -164 -176 -177 -188 -189 -199 -200 0
-23 -44 -45 -84 -85 -101 -103 -117 -119 -149 -150 -163 -164 -176 -177 -188 -189 -199 -200 0
-23 -44 -45 -84 -85 -102 -103 -117 -120 -149 -150 -163 -164 -176 -177 -188 -189 -199 -200 0
-22 -43 -44 -83 -84 -101 -102 -118 -119 -149 -151 -163 -164 -176 -177 -188 -189 -199 -200 0
-23 -43 -45 -83 -84 -101 -102 -118 -119 -149 -151 -163 -164 -176 -177 -188 -189 -199 -200 0
-23 -44 -45 -83 -85 -101 -102 -118 -119 -149 -151 -163 -164 -176 -177 -188 -189 -199 -200 0
-23 -44 -45 -84 -85 -101 -103 -118 -119 -149 -151 -163 -164 -176 -177 -188 -189 -199 -200 0
-23 -44 -45 -84 -85 -102 -103 -118 -120 -149 -151 -163 -164 -176 -177 -188 -189 -199 -200 0
-23 -44 -45 -84 -85 -102 -103 -119 -120 -149 -152 -163 -164 -176 -177 -188 -189 -199 -200 0
-22 -43 -44 -83 -84 -101 -102 -118 -119 -150 -151 -163 -165 -176 -177 -188 -189 -199 -200 0
-23 -43 -45 -83 -84 -101 -102 -118 -119 -150 -151 -163 -165 -176 -177 -188 -189 -199 -200 0
-23 -44 -45 -83 -85 -101 -102 -118 -119 -150 -151 -163 -165 -176 -177 -188 -189 -199 -200 0
-23 -44 -45 -84 -85 -101 -103 -118 -119 -150 -151 -163 -165 -176 -177 -188 -189 -199 -200 0
-23 -44 -45 -84 -85 -102 -103 -118 -120 -150 -151 -163 -165 -176 -177 -188 -189 -199 -200 0
-23 -44 -45 -84 -85 -102 -103 -119 -120 -150 -152 -163 -165 -176 -177 -188 -189 -199 -200 0
-23 -44 -45 -84 -85 -102 -103 -119 -120 -151 -152 -163 -166 -176 -177 -188 -189 -199 -200 0
-22 -43 -44 -83 -84 -101 -102 -118 -119 -150 -151 -164 -165 -176 -178 -188 -189 -199 -200 0
-23 -43 -45 -83 -84 -101 -102 -118 -119 -150 -151 -164 -165 -176 -178 -188 -189 -199 -200 0
-23 -44 -45 -83 -85 -101 -102 -118 -119 -150 -151 -164 -165 -176 -178 -188 -189 -199 -200 0
-23 -44 -45 -84 -85 -101 -103 -118 -119 -150 -151 -164 -165 -176 -178 -188 -189 -199 -200 0
-23 -44 -45 -84 -85 -102 -103 -118 -120 -150 -151 -164 -165 -176 -178 -188 -189 -199 -200 0
-23 -44 -45 -84 -85 -102 -103 -119 -120 -150 -152 -164 -165 -176 -178 -188 -189 -199 -200 0
-23 -44 -45 -84 -85 -102 -103 -119 -120 -151 -152 -164 -166 -176 -178 -188 -189 -199 -200 0
-23 -44 -45 -84 -85 -102 -103 -119 -120 -151 -152 -165 -166 -176 -179 -188 -189 -199 -200 0
-22 -43 -44 -83 -84 -101 -102 -118 -119 -150 -151 -164 -165 -177 -178 -188 -190 -199 -200 0
-23 -43 -45 -83 -84 -101 -102 -118 -119 -150 -151 -164 -165 -177 -178 -188 -190 -199 -200 0
-23 -44 -45 -83 -85 -101 -102 -118 -119 -150 -151 -164 -165 -177 -178 -188 -190 -199 -200 0
-23 -44 -45 -84 -85 -101 -103 -118 -119 -150 -151 -164 -165 -177 -178 -188 -190 -199 -200 0
-23 -44 -45 -84 -85 -102 -103 -118 -120 -150 -151 -164 -165 -177 -178 -188 -190 -199 -200 0
-23 -44 -45 -84 -85 -102 -103 -119 -120 -150 -152 -164 -165 -177 -178 -188 -190 -199 -200 0
-23 -44 -45 -84 -85 -102 -103 -119 -120 -151 -152 -164 -166 -177 -178 -188 -190 -199 -200 0
-23 -44 -45 -84 -85 -102 -103 -119 -120 -151 -152 -165 -166 -177 -179 -188 -190 -199 -200 0
-23 -44 -45 -84 -85 -102 -103 -119 -120 -151 -152 -165 -166 -178 -179 -188 -191 -199 -200 0
-22 -43 -44 -83 -84 -101 -102 -118 -119 -150 -151 -164 -165 -177 -178 -189 -190 -199 -201 0
-23 -43 -45 -83 -84 -101 -102 -118 -119 -150 -151 -164 -165 -177 -178 -189 -190 -199 -201 0
-23 -44 -45 -83 -85 -101 -102 -118 -119 -150 -151 -164 -165 -177 -178 -189 -190 -199 -201 0
-23 -44 -45 -84 -85 -101 -103 -118 -119 -150 -151 -164 -165 -177 -178 -189 -190 -199 -201 0
-23 -44 -45 -84 -85 -102 -103 -118 -120 -150 -151 -164 -165 -177 -178 -189 -190 -199 -201 0
-23 -44 -45 -84 -85 -102 -103 -119 -120 -150 -152 -164 -165 -177 -178 -189 -190 -199 -201 0
-23 -44 -45 -84 -85 -102 -103 -119 -120 -151 -152 -164 -166 -177 -178 -189 -190 -199 -201 0
-23 -44 -45 -84 -85 -102 -103 -119 -120 -151 -152 -165 -166 -177 -179 -189 -190 -199 -201 0
-23 -44 -45 -84 -85 -102 -103 -119 -120 -151 -152 -165 -166 -178 -179 -189 -191 -199 -201 0
-23 -44 -45 -84 -85 -102 -103 -119 -120 -151 -152 -165 -166 -178 -179 -190 -191 -199 -202 0
-22 -43 -44 -83 -84 -101 -102 -118 -119 -150 -151 -164 -165 -177 -178 -189 -190 -200 -201 0
-23 -43 -45 -83 -84 -101 -102 -118 -119 -150 -151 -164 -165 -177 -178 -189 -190 -200 -201 0
-23 -44 -45 -83 -85 -101 -102 -118 -119 -150 -151 -164 -165 -177 -178 -189 -190 -200 -201 0
-23 -44 -45 -84 -85 -101 -103 -118 -119 -150 -151 -164 -165 -177 -178 -189 -190 -200 -201 0
-23 -44 -45 -84 -85 -102 -103 -118 -120 -150 -151 -164 -165 -177 -178 -189 -190 -200 -201 0
-23 -44 -45 -84 -85 -102 -103 -119 -120 -150 -152 -164 -165 -177 -178 -189 -190 -200 -201 0
-23 -44 -45 -84 -85 -102 -103 -119 -120 -151 -152 -164 -166 -177 -178 -189 -190 -200 -201 0
-23 -44 -45 -84 -85 -102 -103 -119 -120 -151 -152 -165 -166 -177 -179 -189 -190 -200 -201 0
-23 -44 -45 -84 -85 -102 -103 -119 -120 -151 -152 -165 -166 -178 -179 -189 -191 -200 -201 0
-23 -44 -45 -84 -85 -102 -103 -119 -120 -151 -152 -165 -166 -178 -179 -190 -191 -200 -202 0
-23 -44 -45 -84 -85 -102 -103 -119 -120 -151 -152 -165 -166 -178 -179 -190 -191 -201 -202 0
-22 -43 -44 -83 -84 -101 -102 -118 -119 -150 -151 -164 -165 -177 -178 -189 -190 -211 -212 0
-23 -43 -45 -83 -84 -101 -102 -118 -119 -150 -151 -164 -165 -177 -178 -189 -190 -211 -212 0
-23 -44 -45 -83 -85 -101 -102 -118 -119 -150 -151 -164 -165 -177 -178 -189 -190 -211 -212 0
-23 -44 -45 -84 -85 -101 -103 -118 -119 -150 -151 -164 -165 -177 -178 -189 -190 -211 -212 0
-23 -44 -45 -84 -85 -102 -103 -118 -120 -150 -151 -164 -165 -177 -178 -189 -190 -211 -212 0
-23 -44 -45 -84 -85 -102 -103 -119 -120 -150 -152 -164 -165 -177 -178 -189 -190 -211 -212 0
-23 -44 -45 -84 -85 -102 -103 -119 -120 -151 -152 -164 -166 -177 -178 -189 -190 -211 -212 0
-23 -44 -45 -84 -85 -102 -103 -119 -120 -151 -152 -165 -166 -177 -179 -189 -190 -211 -212 0
-23 -44 -45 -84 -85 -102 -103 -119 -120 -151 -152 -165 -166 -178 -179 -189 -191 -211 -212 0
-23 -44 -45 -84 -85 -102 -103 -119 -120 -151 -152 -165 -166 -178 -179 -190 -191 -211 -213 0
-23 -44 -45 -84 -85 -102 -103 -119 -120 -151 -152 -165 -166 -178 -179 -190 -191 -212 -213 0
-23 -44 -45 -84 -85 -102 -103 -119 -120 -151 -152 -165 -166 -178 -179 -190 -191 -222 -223 0
-22 -43 -44 -83 -84 -101 -102 -118 -119 -150 -151 -164 -165 -177 -178 -201 -202 -211 -212 0
-23 -43 -45 -83 -84 -101 -102 -118 -119 -150 -151 -164 -165 -177 -178 -201 -202 -211 -212 0
-23 -44 -45 -83 -85 -101 -102 -118 -119 -150 -151 -164 -165 -177 -178 -201 -202 -211 -212 0
-23 -44 -45 -84 -85 -101 -103 -118 -119 -150 -151 -164 -165 -177 -178 -201 -202 -211 -212 0
-23 -44 -45 -84 -85 -102 -103 -118 -120 -150 -151 -164 -165 -177 -178 -201 -202 -211 -212 0
-23 -44 -45 -84 -85 -102 -103 -119 -120 -150 -152 -164 -165 -177 -178 -201 -202 -211 -212 0
-23 -44 -45 -84 -85 -102 -103 -119 -120 -151 -152 -164 -166 -177 -178 -201 -202 -211 -212 0
-23 -44 -45 -84 -85 -102 -103 -119 -120 -151 -152 -165 -166 -177 -179 -201 -202 -211 -212 0
-23 -44 -45 -84 -85 -102 -103 -119 -120 -151 -152 -165 -166 -178 -179 -201 -203 -211 -212 0
-23 -44 -45 -84 -85 -102 -103 -119 -120 -151 -152 -165 -166 -178 -179 -202 -203 -211 -213 0
-23 -44 -45 -84 -85 -102 -103 -119 -120 -151 -152 -165 -166 -178 -179 -202 -203 -212 -213 0
-23 -44 -45 -84 -85 -102 -103 -119 -120 -151 -152 -165 -166 -178 -179 -202 -203 -222 -223 0
-23 -44 -45 -84 -85 -102 -103 -119 -120 -151 -152 -165 -166 -178 -179 -213 -214 -222 -223 0
-22 -43 -44 -83 -84 -101 -102 -118 -119 -150 -151 -164 -165 -190 -191 -201 -202 -211 -212 0
-23 -43 -45 -83 -84 -101 -102 -118 -119 -150 -151 -164 -165 -190 -191 -201 -202 -211 -212 0
-23 -44 -45 -83 -85 -101 -102 -118 -119 -150 -151 -164 -165 -190 -191 -201 -202 -211 -212 0
-23 -44 -45 -84 -85 -101 -103 -118 -119 -150 -151 -164 -165 -190 -191 -201 -202 -211 -212 0
-23 -44 -45 -84 -85 -102 -103 -118 -120 -150 -151 -164 -165 -190 -191 -201 -202 -211 -212 0
-23 -44 -45 -84 -85 -102 -103 -119 -120 -150 -152 -164 -165 -190 -191 -201 -202 -211 -212 0
-23 -44 -45 -84 -85 -102 -103 -119 -120 -151 -152 -164 -166 -190 -191 -201 -202 -211 -212 0
-23 -44 -45 -84 -85 -102 -103 -119 -120 -151 -152 -165 -166 -190 -192 -201 -202 -211 -212 0
-23 -44 -45 -84 -85 -102 -103 -119 -120 -151 -152 -165 -166 -191 -192 -201 -203 -211 -212 0
-23 -44 -45 -84 -85 -102 -103 -119 -120 -151 -152 -165 -166 -191 -192 -202 -203 -211 -213 0
-23 -44 -45 -84 -85 -102 -103 -119 -120 -151 -152 -165 -166 -191 -192 -202 -203 -212 -213 0
-23 -44 -45 -84 -85 -102 -103 -119 -120 -151 -152 -165 -166 -191 -192 -202 -203 -222 -223 0
-23 -44 -45 -84 -85 -102 -103 -119 -120 -151 -152 -165 -166 -191 -192 -213 -214 -222 -223 0
-23 -44 -45 -84 -85 -102 -103 -119 -120 -151 -152 -165 -166 -203 -204 -213 -214 -222 -223 0
-22 -43 -44 -83 -84 -101 -102 -118 -119 -150 -151 -178 -179 -190 -191 -201 -202 -211 -212 0
-23 -43 -45 -83 -84 -101 -102 -118 -119 -150 -151 -178 -179 -190 -191 -201 -202 -211 -212 0
-23 -44 -45 -83 -85 -101 -102 -118 -119 -150 -151 -178 -179 -190 -191 -201 -202 -211 -212 0
-23 -44 -45 -84 -85 -101 -103 -118 -119 -150 -151 -178 -179 -190 -191 -201 -202 -211 -212 0
-23 -44 -45 -84 -85 -102 -103 -118 -120 -150 -151 -178 -179 -190 -191 -201 -202 -211 -212 0
-23 -44 -45 -84 -85 -102 -103 -119 -120 -150 -152 -178 -179 -190 -191 -201 -202 -211 -212 0
-23 -44 -45 -84 -85 -102 -103 -119 -120 -151 -152 -178 -180 -190 -191 -201 -202 -211 -212 0
-23 -44 -45 -84 -85 -102 -103 -119 -120 -151 -152 -179 -180 -190 -192 -201 -202 -211 -212 0
-23 -44 -45 -84 -85 -102 -103 -119 -120 -151 -152 -179 -180 -191 -192 -201 -203 -211 -212 0
-23 -44 -45 -84 -85 -102 -103 -119 -120 -151 -152 -179 -180 -191 -192 -202 -203 -211 -213 0
-23 -44 -45 -84 -85 -102 -103 -119 -120 -151 -152 -179 -180 -191 -192 -202 -203 -212 -213 0
-23 -44 -45 -84 -85 -102 -103 -119 -120 -151 -152 -179 -180 -191 -192 -202 -203 -222 -223 0
-23 -44 -45 -84 -85 -102 -103 -119 -120 -151 -152 -179 -180 -191 -192 -213 -214 -222 -223 0
-23 -44 -45 -84 -85 -102 -103 -119 -120 -151 -152 -179 -180 -203 -204 -213 -214 -222 -223 0
-23 -44 -45 -84 -85 -102 -103 -119 -120 -151 -152 -192 -193 -203 -204 -213 -214 -222 -223 0
-22 -43 -44 -83 -84 -101 -102 -118 -119 -165 -166 -178 -179 -190 -191 -201 -202 -211 -212 0
-23 -43 -45 -83 -84 -101 -102 -118 -119 -165 -166 -178 -179 -190 -191 -201 -202 -211 -212 0
-23 -44 -45 -83 -85 -101 -102 -118 -119 -165 -166 -178 -179 -190 -191 -201 -202 -211 -212 0
-23 -44 -45 -84 -85 -101 -103 -118 -119 -165 -166 -178 -179 -190 -191 -201 -202 -211 -212 0
-23 -44 -45 -84 -85 -102 -103 -118 -120 -165 -166 -178 -179 -190 -191 -201 -202 -211 -212 0
-23 -44 -45 -84 -85 -102 -103 -119 -120 -165 -167 -178 -179 -190 -191 -201 -202 -211 -212 0
-23 -44 -45 -84 -85 -102 -103 -119 -120 -166 -167 -178 -180 -190 -191 -201 -202 -211 -212 0
-23 -44 -45 -84 -85 -102 -103 -119 -120 -166 -167 -179 -180 -190 -192 -201 -202 -211 -212 0
-23 -44 -45 -84 -85 -102 -103 -119 -120 -166 -167 -179 -180 -191 -192 -201 -203 -211 -212 0
-23 -44 -45 -84 -85 -102 -103 -119 -120 -166 -167 -179 -180 -191 -192 -202 -203 -211 -213 0
-23 -44 -45 -84 -85 -102 -103 -119 -120 -166 -167 -179 -180 -191 -192 -202 -203 -212 -213 0
-23 -44 -45 -84 -85 -102 -103 -119 -120 -166 -167 -179 -180 -191 -192 -202 -203 -222 -223 0
-23 -44 -45 -84 -85 -102 -103 -119 -120 -166 -167 -179 -180 -191 -192 -213 -214 -222 -223 0
-23 -44 -45 -84 -85 -102 -103 -119 -120 -166 -167 -179 -180 -203 -204 -213 -214 -222 -223 0
-23 -44 -45 -84 -85 -102 -103 -119 -120 -166 -167 -192 -193 -203 -204 -213 -214 -222 -223 0
-23 -44 -45 -84 -85 -102 -103 -119 -120 -180 -181 -192 -193 -203 -204 -213 -214 -222 -223 0
-21 -42 -43 -82 -83 -100 -101 -134 -135 -149 -150 -163 -164 -176 -177 -188 -189 -199 -200 0
-22 -42 -44 -82 -83 -100 -101 -134 -135 -149 -150 -163 -164 -176 -177 -188 -189 -199 -200 0
-23 -42 -45 -82 -83 -100 -101 -134 -135 -149 -150 -163 -164 -176 -177 -188 -189 -199 -200 0
-22 -43 -44 -82 -84 -100 -101 -134 -135 -149 -150 -163 -164 -176 -177 -188 -189 -199 -200 0
-23 -43 -45 -82 -84 -100 -101 -134 -135 -149 -150 -163 -164 -176 -177 -188 -189 -199 -200 0
-23 -44 -45 -82 -85 -100 -101 -134 -135 -149 -150 -163 -164 -176 -177 -188 -189 -199 -200 0
-22 -43 -44 -83 -84 -100 -102 -134 -135 -149 -150 -163 -164 -176 -177 -188 -189 -199 -200 0
-23 -43 -45 -83 -84 -100 -102 -134 -135 -149 -150 -163 -164 -176 -177 -188 -189 -199 -200 0
-23 -44 -45 -83 -85 -100 -102 -134 -135 -149 -150 -163 -164 -176 -177 -188 -189 -199 -200 0
-23 -44 -45 -84 -85 -100 -103 -134 -135 -149 -150 -163 -164 -176 -177 -188 -189 -199 -200 0
-22 -43 -44 -83 -84 -101 -102 -134 -136 -149 -150 -163 -164 -176 -177 -188 -189 -199 -200 0
-23 -43 -45 -83 -84 -101 -102 -134 -136 -149 -150 -163 -164 -176 -177 -188 -189 -199 -200 0
-23 -44 -45 -83 -85 -101 -102 -134 -136 -149 -150 -163 -164 -176 -177 -188 -189 -199 -200 0
-23 -44 -45 -84 -85 -101 -103 -134 -136 -149 -150 -163 -164 -176 -177 -188 -189 -199 -200 0
-23 -44 -45 -84 -85 -102 -103 -134 -137 -149 -150 -163 -164 -176 -177 -188 -189 -199 -200 0
-22 -43 -44 -83 -84 -101 -102 -135 -136 -149 -151 -163 -164 -176 -177 -188 -189 -199 -200 0
-23 -43 -45 -83 -84 -101 -102 -135 -136 -149 -151 -163 -164 -176 -177 -188 -189 -199 -200 0
-23 -44 -45 -83 -85 -101 -102 -135 -136 -149 -151 -163 -164 -176 -177 -188 -189 -199 -200 0
-23 -44 -45 -84 -85 -101 -103 -135 -136 -149 -151 -163 -164 -176 -177 -188 -189 -199 -200 0
-23 -44 -45 -84 -85 -102 -103 -135 -137 -149 -151 -163 -164 -176 -177 -188 -189 -199 -200 0
-23 -44 -45 -84 -85 -102 -103 -136 -137 -149 -152 -163 -164 -176 -177 -188 -189 -199 -200 0
-22 -43 -44 -83 -84 -101 -102 -135 -136 -150 -151 -163 -165 -176 -177 -188 -189 -199 -200 0
-23 -43 -45 -83 -84 -101 -102 -135 -136 -150 -151 -163 -165 -176 -177 -188 -189 -199 -200 0
-23 -44 -45 -83 -85 -101 -102 -135 -136 -150 -151 -163 -165 -176 -177 -188 -189 -199 -200 0
-23 -44 -45 -84 -85 -101 -103 -135 -136 -150 -151 -163 -165 -176 -177 -188 -189 -199 -200 0
-23 -44 -45 -84 -85 -102 -103 -135 -137 -150 -151 -163 -165 -176 -177 -188 -189 -199 -200 0
-23 -44 -45 -84 -85 -102 -103 -136 -137 -150 -152 -163 -165 -176 -177 -188 -189 -199 -200 0
-23 -44 -45 -84 -85 -102 -103 -136 -137 -151 -152 -163 -166 -176 -177 -188 -189 -199 -200 0
-22 -43 -44 -83 -84 -101 -102 -135 -136 -150 -151 -164 -165 -176 -178 -188 -189 -199 -200 0
-23 -43 -45 -83 -84 -101 -102 -135 -136 -150 -151 -164 -165 -176 -178 -188 -189 -199 -200 0
-23 -44 -45 -83 -85 -101 -102 -135 -136 -150 -151 -164 -165 -176 -178 -188 -189 -199 -200 0
-23 -44 -45 -84 -85 -101 -103 -135 -136 -150 -151 -164 -165 -176 -178 -188 -189 -199 -200 0
-23 -44 -45 -84 -85 -102 -103 -135 -137 -150 -151 -164 -165 -176 -178 -188 -189 -199 -200 0
-23 -44 -45 -84 -85 -102 -103 -136 -137 -150 -152 -164 -165 -176 -178 -188 -189 -199 -200 0
-23 -44 -45 -84 -85 -102 -103 -136 -137 -151 -152 -164 -166 -176 -178 -188 -189 -199 -200 0
-23 -44 -45 -84 -85 -102 -103 -136 -137 -151 -152 -165 -166 -176 -179 -188 -189 -199 -200 0
-22 -43 -44 -83 -84 -101 -102 -135 -136 -150 -151 -164 -165 -177 -178 -188 -190 -199 -200 0
-23 -43 -45 -83 -84 -101 -102 -135 -136 -150 -151 -164 -165 -177 -178 -188 -190 -199 -200 0
-23 -44 -45 -83 -85 -101 -102 -135 -136 -150 -151 -164 -165 -177 -178 -188 -190 -199 -200 0
-23 -44 -45 -84 -85 -101 -103 -135 -136 -150 -151 -164 -165 -177 -178 -188 -190 -199 -200 0
-23 -44 -45 -84 -85 -102 -103 -135 -137 -150 -151 -164 -165 -177 -178 -188 -190 -199 -200 0
-23 -44 -45 -84 -85 -102 -103 -136 -137 -150 -152 -164 -165 -177 -178 -188 -190 -199 -200 0
-23 -44 -45 -84 -85 -102 -103 -136 -137 -151 -152 -164 -166 -177 -178 -188 -190 -199 -200 0
-23 -44 -45 -84 -85 -102 -103 -136 -137 -151 -152 -165 -166 -177 -179 -188 -190 -199 -200 0
-23 -44 -45 -84 -85 -102 -103 -136 -137 -151 -152 -165 -166 -178 -179 -188 -191 -199 -200 0
-22 -43 -44 -83 -84 -101 -102 -135 -136 -150 -151 -164 -165 -177 -178 -189 -190 -199 -201 0
-23 -43 -45 -83 -84 -101 -102 -135 -136 -150 -151 -164 -165 -177 -178 -189 -190 -199 -201 0
-23 -44 -45 -83 -85 -101 -102 -135 -136 -150 -151 -164 -165 -177 -178 -189 -190 -199 -201 0
-23 -44 -45 -84 -85 -101 -103 -135 -136 -150 -151 -164 -165 -177 -178 -189 -190 -199 -201 0
-23 -44 -45 -84 -85 -102 -103 -135 -137 -150 -151 -164 -165 -177 -178 -189 -190 -199 -201 0
-23 -44 -45 -84 -85 -102 -103 -136 -137 -150 -152 -164 -165 -177 -178 -189 -190 -199 -201 0
-23 -44 -45 -84 -85 -102 -103 -136 -137 -151 -152 -164 -166 -177 -178 -189 -190 -199 -201 0
-23 -44 -45 -84 -85 -102 -103 -136 -137 -151 -152 -165 -166 -177 -179 -189 -190 -199 -201 0
-23 -44 -45 -84 -85 -102 -103 -136 -137 -151 -152 -165 -166 -178 -179 -189 -191 -199 -201 0
-23 -44 -45 -84 -85 -102 -103 -136 -137 -151 -152 -165 -166 -178 -179 -190 -191 -199 -202 0
-22 -43 -44 -83 -84 -101 -102 -135 -136 -150 -151 -164 -165 -177 -178 -189 -190 -200 -201 0
-23 -43 -45 -83 -84 -101 -102 -135 -136 -150 -151 -164 -165 -177 -178 -189 -190 -200 -201 0
-23 -44 -45 -83 -85 -101 -102 -135 -136 -150 -151 -164 -165 -177 -178 -189 -190 -200 -201 0
-23 -44 -45 -84 -85 -101 -103 -135 -136 -150 -151 -164 -165 -177 -178 -189 -190 -200 -201 0
-23 -44 -45 -84 -85 -102 -103 -135 -137 -150 -151 -164 -165 -177 -178 -189 -190 -200 -201 0
-23 -44 -45 -84 -85 -102 -103 -136 -137 -150 -152 -164 -165 -177 -178 -189 -190 -200 -201 0
-23 -44 -45 -84 -85 -102 -103 -136 -137 -151 -152 -164 -166 -177 -178 -189 -190 -200 -201 0
-23 -44 -45 -84 -85 -102 -103 -136 -137 -151 -152 -165 -166 -177 -179 -189 -190 -200 -201 0
-23 -44 -45 -84 -85 -102 -103 -136 -137 -151 -152 -165 -166 -178 -179 -189 -191 -200 -201 0
-23 -44 -45 -84 -85 -102 -103 -136 -137 -151 -152 -165 -166 -178 -179 -190 -191 -200 -202 0
-23 -44 -45 -84 -85 -102 -103 -136 -137 -151 -152 -165 -166 -178 -179 -190 -191 -201 -202 0
-22 -43 -44 -83 -84 -101 -102 -135 -136 -150 -151 -164 -165 -177 -178 -189 -190 -211 -212 0
-23 -43 -45 -83 -84 -101 -102 -135 -136 -150 -151 -164 -165 -177 -178 -189 -190 -211 -212 0
-23 -44 -45 -83 -85 -101 -102 -135 -136 -150 -151 -164 -165 -177 -178 -189 -190 -211 -212 0
-23 -44 -45 -84 -85 -101 -103 -135 -136 -150 -151 -164 -165 -177 -178 -189 -190 -211 -212 0
-23 -44 -45 -84 -85 -102 -103 -135 -137 -150 -151 -164 -165 -177 -178 -189 -190 -211 -212 0
-23 -44 -45 -84 -85 -102 -103 -136 -137 -150 -152 -164 -165 -177 -178 -189 -190 -211 -212 0
-23 -44 -45 -84 -85 -102 -103 -136 -137 -151 -152 -164 -166 -177 -178 -189 -190 -211 -212 0
-23 -44 -45 -84 -85 -102 -103 -136 -137 -151 -152 -165 -166 -177 -179 -189 -190 -211 -212 0
-23 -44 -45 -84 -85 -102 -103 -136 -137 -151 -152 -165 -166 -178 -179 -189 -191 -211 -212 0
-23 -44 -45 -84 -85 -102 -103 -136 -137 -151 -152 -165 -166 -178 -179 -190 -191 -211 -213 0
-23 -44 -45 -84 -85 -102 -103 -136 -137 -151 -152 -165 -166 -178 -179 -190 -191 -212 -213 0
-23 -44 -45 -84 -85 -102 -103 -136 -137 -151 -152 -165 -166 -178 -179 -190 -191 -222 -223 0
-22 -43 -44 -83 -84 -101 -102 -135 -136 -150 -151 -164 -165 -177 -178 -201 -202 -211 -212 0
-23 -43 -45 -83 -84 -101 -102 -135 -136 -150 -151 -164 -165 -177 -178 -201 -202 -211 -212 0
-23 -44 -45 -83 -85 -101 -102 -135 -136 -150 -151 -164 -165 -177 -178 -201 -202 -211 -212 0
-23 -44 -45 -84 -85 -101 -103 -135 -136 -150 -151 -164 -165 -177 -178 -201 -202 -211 -212 0
-23 -44 -45 -84 -85 -102 -103 -135 -137 -150 -151 -164 -165 -177 -178 -201 -202 -211 -212 0
-23 -44 -45 -84 -85 -102 -103 -136 -137 -150 -152 -164 -165 -177 -178 -201 -202 -211 -212 0
-23 -44 -45 -84 -85 -102 -103 -136 -137 -151 -152 -164 -166 -177 -178 -201 -202 -211 -212 0
-23 -44 -45 -84 -85 -102 -103 -136 -137 -151 -152 -165 -166 -177 -179 -201 -202 -211 -212 0
-23 -44 -45 -84 -85 -102 -103 -136 -137 -151 -152 -165 -166 -178 -179 -201 -203 -211 -212 0
-23 -44 -45 -84 -85 -102 -103 -136 -137 -151 -152 -165 -166 -178 -179 -202 -203 -211 -213 0
-23 -44 -45 -84 -85 -102 -103 -136 -137 -151 -152 -165 -166 -178 -179 -202 -203 -212 -213 0
-23 -44 -45 -84 -85 -102 -103 -136 -137 -151 -152 -165 -166 -178 -179 -202 -203 -222 -223 0
-23 -44 -45 -84 -85 -102 -103 -136 -137 -151 -152 -165 -166 -178 -179 -213 -214 -222 -223 0
-22 -43 -44 -83 -84 -101 -102 -135 -136 -150 -151 -164 -165 -190 -191 -201 -202 -211 -212 0
-23 -43 -45 -83 -84 -101 -102 -135 -136 -150 -151 -164 -165 -190 -191 -201 -202 -211 -212 0
-23 -44 -45 -83 -85 -101 -102 -135 -136 -150 -151 -164 -165 -190 -191 -201 -202 -211 -212 0
-23 -44 -45 -84 -85 -101 -103 -135 -136 -150 -151 -164 -165 -190 -191 -201 -202 -211 -212 0
-23 -44 -45 -84 -85 -102 -103 -135 -137 -150 -151 -164 -165 -190 -191 -201 -202 -211 -212 0
-23 -44 -45 -84 -85 -102 -103 -136 -137 -150 -152 -164 -165 -190 -191 -201 -202 -211 -212 0
-23 -44 -45 -84 -85 -102 -103 -136 -137 -151 -152 -164 -166 -190 -191 -201 -202 -211 -212 0
-23 -44 -45 -84 -85 -102 -103 -136 -137 -151 -152 -165 -166 -190 -192 -201 -202 -211 -212 0
-23 -44 -45 -84 -85 -102 -103 -136 -137 -151 -152 -165 -166 -191 -192 -201 -203 -211 -212 0
-23 -44 -45 -84 -85 -102 -103 -136 -137 -151 -152 -165 -166 -191 -192 -202 -203 -211 -213 0
-23 -44 -45 -84 -85 -102 -103 -136 -137 -151 -152 -165 -166 -191 -192 -202 -203 -212 -213 0
-23 -44 -45 -84 -85 -102 -103 -136 -137 -151 -152 -165 -166 -191 -192 -202 -203 -222 -223 0
-23 -44 -45 -84 -85 -102 -103 -136 -137 -151 -152 -165 -166 -191 -192 -213 -214 -222 -223 0
-23 -44 -45 -84 -85 -102 -103 -136 -137 -151 -152 -165 -166 -203 -204 -213 -214 -222 -223 0
-22 -43 -44 -83 -84 -101 -102 -135 -136 -150 -151 -178 -179 -190 -191 -201 -202 -211 -212 0
-23 -43 -45 -83 -84 -101 -102 -135 -136 -150 -151 -178 -179 -190 -191 -201 -202 -211 -212 0
-23 -44 -45 -83 -85 -101 -102 -135 -136 -150 -151 -178 -179 -190 -191 -201 -202 -211 -212 0
-23 -44 -45 -84 -85 -101 -103 -135 -136 -150 -151 -178 -179 -190 -191 -201 -202 -211 -212 0
-23 -44 -45 -84 -85 -102 -103 -135 -137 -150 -151 -178 -179 -190 -191 -201 -202 -211 -212 0
-23 -44 -45 -84 -85 -102 -103 -136 -137 -150 -152 -178 -179 -190 -191 -201 -202 -211 -212 0
-23 -44 -45 -84 -85 -102 -103 -136 -137 -151 -152 -178 -180 -190 -191 -201 -202 -211 -212 0
-23 -44 -45 -84 -85 -102 -103 -136 -137 -151 -152 -179 -180 -190 -192 -201 -202 -211 -212 0
-23 -44 -45 -84 -85 -102 -103 -136 -137 -151 -152 -179 -180 -191 -192 -201 -203 -211 -212 0
-23 -44 -45 -84 -85 -102 -103 -136 -137 -151 -152 -179 -180 -191 -192 -202 -203 -211 -213 0
-23 -44 -45 -84 -85 -102 -103 -136 -137 -151 -152 -179 -180 -191 -192 -202 -203 -212 -213 0
-23 -44 -45 -84 -85 -102 -103 -136 -137 -151 -152 -179 -180 -191 -192 -202 -203 -222 -223 0
-23 -44 -45 -84 -85 -102 -103 -136 -137 -151 -152 -179 -180 -191 -192 -213 -214 -222 -223 0
-23 -44 -45 -84 -85 -102 -103 -136 -137 -151 -152 -179 -180 -203 -204 -213 -214 -222 -223 0
-23 -44 -45 -84 -85 -102 -103 -136 -137 -151 -152 -192 -193 -203 -204 -213 -214 -222 -223 0
-22 -43 -44 -83 -84 -101 -102 -135 -136 -165 -166 -178 -179 -190 -191 -201 -202 -211 -212 0
-23 -43 -45 -83 -84 -101 -102 -135 -136 -165 -166 -178 -179 -190 -191 -201 -202 -211 -212 0
-23 -44 -45 -83 -85 -101 -102 -135 -136 -165 -166 -178 -179 -190 -191 -201 -202 -211 -212 0
-23 -44 -45 -84 -85 -101 -103 -135 -136 -165 -166 -178 -179 -190 -191 -201 -202 -211 -212 0
-23 -44 -45 -84 -85 -102 -103 -135 -137 -165 -166 -178 -179 -190 -191 -201 -202 -211 -212 0
-23 -44 -45 -84 -85 -102 -103 -136 -137 -165 -167 -178 -179 -190 -191 -201 -202 -211 -212 0
-23 -44 -45 -84 -85 -102 -103 -136 -137 -166 -167 -178 -180 -190 -191 -201 -202 -211 -212 0
-23 -44 -45 -84 -85 -102 -103 -136 -137 -166 -167 -179 -180 -190 -192 -201 -202 -211 -212 0
-23 -44 -45 -84 -85 -102 -103 -136 -137 -166 -167 -179 -180 -191 -192 -201 -203 -211 -212 0
-23 -44 -45 -84 -85 -102 -103 -136 -137 -166 -167 -179 -180 -191 -192 -202 -203 -211 -213 0
-23 -44 -45 -84 -85 -102 -103 -136 -137 -166 -167 -179 -180 -191 -192 -202 -203 -212 -213 0
-23 -44 -45 -84 -85 -102 -103 -136 -137 -166 -167 -179 -180 -191 -192 -202 -203 -222 -223 0
-23 -44 -45 -84 -85 -102 -103 -136 -137 -166 -167 -179 -180 -191 -192 -213 -214 -222 -223 0
-23 -44 -45 -84 -85 -102 -103 -136 -137 -166 -167 -179 -180 -203 -204 -213 -214 -222 -223 0
-23 -44 -45 -84 -85 -102 -103 -136 -137 -166 -167 -192 -193 -203 -204 -213 -214 -222 -223 0
-23 -44 -45 -84 -85 -102 -103 -136 -137 -180 -181 -192 -193 -203 -204 -213 -214 -222 -223 0
-22 -43 -44 -83 -84 -101 -102 -151 -152 -165 -166 -178 -179 -190 -191 -201 -202 -211 -212 0
-23 -43 -45 -83 -84 -101 -102 -151 -152 -165 -166 -178 -179 -190 -191 -201 -202 -211 -212 0
-23 -44 -45 -83 -85 -101 -102 -151 -152 -165 -166 -178 -179 -190 -191 -201 -202 -211 -212 0
-23 -44 -45 -84 -85 -101 -103 -151 -152 -165 -166 -178 -179 -190 -191 -201 -202 -211 -212 0
-23 -44 -45 -84 -85 -102 -103 -151 -153 -165 -166 -178 -179 -190 -191 -201 -202 -211 -212 0
-23 -44 -45 -84 -85 -102 -103 -152 -153 -165 -167 -178 -179 -190 -191 -201 -202 -211 -212 0
-23 -44 -45 -84 -85 -102 -103 -152 -153 -166 -167 -178 -180 -190 -191 -201 -202 -211 -212 0
-23 -44 -45 -84 -85 -102 -103 -152 -153 -166 -167 -179 -180 -190 -192 -201 -202 -211 -212 0
-23 -44 -45 -84 -85 -102 -103 -152 -153 -166 -167 -179 -180 -191 -192 -201 -203 -211 -212 0
-23 -44 -45 -84 -85 -102 -103 -152 -153 -166 -167 -179 -180 -191 -192 -202 -203 -211 -213 0
-23 -44 -45 -84 -85 -102 -103 -152 -153 -166 -167 -179 -180 -191 -192 -202 -203 -212 -213 0
-23 -44 -45 -84 -85 -102 -103 -152 -153 -166 -167 -179 -180 -191 -192 -202 -203 -222 -223 0
-23 -44 -45 -84 -85 -102 -103 -152 -153 -166 -167 -179 -180 -191 -192 -213 -214 -222 -223 0
-23 -44 -45 -84 -85 -102 -103 -152 -153 -166 -167 -179 -180 -203 -204 -213 -214 -222 -223 0
-23 -44 -45 -84 -85 -102 -103 -152 -153 -166 -167 -192 -193 -203 -204 -213 -214 -222 -223 0
-23 -44 -45 -84 -85 -102 -103 -152 -153 -180 -181 -192 -193 -203 -204 -213 -214 -222 -223 0
-23 -44 -45 -84 -85 -102 -103 -167 -168 -180 -181 -192 -193 -203 -204 -213 -214 -222 -223 0
-21 -42 -43 -82 -83 -118 -119 -134 -135 -149 -150 -163 -164 -176 -177 -188 -189 -199 -200 0
-22 -42 -44 -82 -83 -118 -119 -134 -135 -149 -150 -163 -164 -176 -177 -188 -189 -199 -200 0
-23 -42 -45 -82 -83 -118 -119 -134 -135 -149 -150 -163 -164 -176 -177 -188 -189 -199 -200 0
-22 -43 -44 -82 -84 -118 -119 -134 -135 -149 -150 -163 -164 -176 -177 -188 -189 -199 -200 0
-23 -43 -45 -82 -84 -118 -119 -134 -135 -149 -150 -163 -164 -176 -177 -188 -189 -199 -200 0
-23 -44 -45 -82 -85 -118 -119 -134 -135 -149 -150 -163 -164 -176 -177 -188 -189 -199 -200 0
-22 -43 -44 -83 -84 -118 -120 -134 -135 -149 -150 -163 -164 -176 -177 -188 -189 -199 -200 0
-23 -43 -45 -83 -84 -118 -120 -134 -135 -149 -150 -163 -164 -176 -177 -188 -189 -199 -200 0
-23 -44 -45 -83 -85 -118 -120 -134 -135 -149 -150 -163 -164 -176 -177 -188 -189 -199 -200 0
-23 -44 -45 -84 -85 -118 -121 -134 -135 -149 -150 -163 -164 -176 -177 -188 -189 -199 -200 0
-22 -43 -44 -83 -84 -119 -120 -134 -136 -149 -150 -163 -164 -176 -177 -188 -189 -199 -200 0
-23 -43 -45 -83 -84 -119 -120 -134 -136 -149 -150 -163 -164 -176 -177 -188 -189 -199 -200 0
-23 -44 -45 -83 -85 -119 -120 -134 -136 -149 -150 -163 -164 -176 -177 -188 -189 -199 -200 0
-23 -44 -45 -84 -85 -119 -121 -134 -136 -149 -150 -163 -164 -176 -177 -188 -189 -199 -200 0
-23 -44 -45 -84 -85 -120 -121 -134 -137 -149 -150 -163 -164 -176 -177 -188 -189 -199 -200 0
-22 -43 -44 -83 -84 -119 -120 -135 -136 -149 -151 -163 -164 -176 -177 -188 -189 -199 -200 0
-23 -43 -45 -83 -84 -119 -120 -135 -136 -149 -151 -163 -164 -176 -177 -188 -189 -199 -200 0
-23 -44 -45 -83 -85 -119 -120 -135 -136 -149 -151 -163 -164 -176 -177 -188 -189 -199 -200 0
-23 -44 -45 -84 -85 -119 -121 -135 -136 -149 -151 -163 -164 -176 -177 -188 -189 -199 -200 0
-23 -44 -45 -84 -85 -120 -121 -135 -137 -149 -151 -163 -164 -176 -177 -188 -189 -199 -200 0
-23 -44 -45 -84 -85 -120 -121 -136 -137 -149 -152 -163 -164 -176 -177 -188 -189 -199 -200 0
-22 -43 -44 -83 -84 -119 -120 -135 -136 -150 -151 -163 -165 -176 -177 -188 -189 -199 -200 0
-23 -43 -45 -83 -84 -119 -120 -135 -136 -150 -151 -163 -165 -176 -177 -188 -189 -199 -200 0
-23 -44 -45 -83 -85 -119 -120 -135 -136 -150 -151 -163 -165 -176 -177 -188 -189 -199 -200 0
-23 -44 -45 -84 -85 -119 -121 -135 -136 -150 -151 -163 -165 -176 -177 -188 -189 -199 -200 0
-23 -44 -45 -84 -85 -120 -121 -135 -137 -150 -151 -163 -165 -176 -177 -188 -189 -199 -200 0
-23 -44 -45 -84 -85 -120 -121 -136 -137 -150 -152 -163 -165 -176 -177 -188 -189 -199 -200 0
-23 -44 -45 -84 -85 -120 -121 -136 -137 -151 -152 -163 -166 -176 -177 -188 -189 -199 -200 0
-22 -43 -44 -83 -84 -119 -120 -135 -136 -150 -151 -164 -165 -176 -178 -188 -189 -199 -200 0
-23 -43 -45 -83 -84 -119 -120 -135 -136 -150 -151 -164 -165 -176 -178 -188 -189 -199 -200 0
-23 -44 -45 -83 -85 -119 -120 -135 -136 -150 -151 -164 -165 -176 -178 -188 -189 -199 -200 0
-23 -44 -45 -84 -85 -119 -121 -135 -136 -150 -151 -164 -165 -176 -178 -188 -189 -199 -200 0
-23 -44 -45 -84 -85 -120 -121 -135 -137 -150 -151 -164 -165 -176 -178 -188 -189 -199 -200 0
-23 -44 -45 -84 -85 -120 -121 -136 -137 -150 -152 -164 -165 -176 -178 -188 -189 -199 -200 0
-23 -44 -45 -84 -85 -120 -121 -136 -137 -151 -152 -164 -166 -176 -178 -188 -189 -199 -200 0
-23 -44 -45 -84 -85 -120 -121 -136 -137 -151 -152 -165 -166 -176 -179 -188 -189 -199 -200 0
-22 -43 -44 -83 -84 -119 -120 -135 -136 -150 -151 -164 -165 -177 -178 -188 -190 -199 -200 0
-23 -43 -45 -83 -84 -119 -120 -135 -136 -150 -151 -164 -165 -177 -178 -188 -190 -199 -200 0
-23 -44 -45 -83 -85 -119 -120 -135 -136 -150 -151 -164 -165 -177 -178 -188 -190 -199 -200 0
-23 -44 -45 -84 -85 -119 -121 -135 -136 -150 -151 -164 -165 -177 -178 -188 -190 -199 -200 0
-23 -44 -45 -84 -85 -120 -121 -135 -137 -150 -151 -164 -165 -177 -178 -188 -190 -199 -200 0
-23 -44 -45 -84 -85 -120 -121 -136 -137 -150 -152 -164 -165 -177 -178 -188 -190 -199 -200 0
-23 -44 -45 -84 -85 -120 -121 -136 -137 -151 -152 -164 -166 -177 -178 -188 -190 -199 -200 0
-23 -44 -45 -84 -85 -120 -121 -136 -137 -151 -152 -165 -166 -177 -179 -188 -190 -199 -200 0
-23 -44 -45 -84 -85 -120 -121 -136 -137 -151 -152 -165 -166 -178 -179 -188 -191 -199 -200 0
-22 -43 -44 -83 -84 -119 -120 -135 -136 -150 -151 -164 -165 -177 -178 -189 -190 -199 -201 0
-23 -43 -45 -83 -84 -119 -120 -135 -136 -150 -151 -164 -165 -177 -178 -189 -190 -199 -201 0
-23 -44 -45 -83 -85 -119 -120 -135 -136 -150 -151 -164 -165 -177 -178 -189 -190 -199 -201 0
-23 -44 -45 -84 -85 -119 -121 -135 -136 -150 -151 -164 -165 -177 -178 -189 -190 -199 -201 0
-23 -44 -45 -84 -85 -120 -121 -135 -137 -150 -151 -164 -165 -177 -178 -189 -190 -199 -201 0
-23 -44 -45 -84 -85 -120 -121 -136 -137 -150 -152 -164 -165 -177 -178 -189 -190 -199 -201 0
-23 -44 -45 -84 -85 -120 -121 -136 -137 -151 -152 -164 -166 -177 -178 -189 -190 -199 -201 0
-23 -44 -45 -84 -85 -120 -121 -136 -137 -151 -152 -165 -166 -177 -179 -189 -190 -199 -201 0
-23 -44 -45 -84 -85 -120 -121 -136 -137 -151 -152 -165 -166 -178 -179 -189 -191 -199 -201 0
-23 -44 -45 -84 -85 -120 -121 -136 -137 -151 -152 -165 -166 -178 -179 -190 -191 -199 -202 0
-22 -43 -44 -83 -84 -119 -120 -135 -136 -150 -151 -164 -165 -177 -178 -189 -190 -200 -201 0
-23 -43 -45 -83 -84 -119 -120 -135 -136 -150 -151 -164 -165 -177 -178 -189 -190 -200 -201 0
-23 -44 -45 -83 -85 -119 -120 -135 -136 -150 -151 -164 -165 -177 -178 -189 -190 -200 -201 0
-23 -44 -45 -84 -85 -119 -121 -135 -136 -150 -151 -164 -165 -177 -178 -189 -190 -200 -201 0
-23 -44 -45 -84 -85 -120 -121 -135 -137 -150 -151 -164 -165 -177 -178 -189 -190 -200 -201 0
-23 -44 -45 -84 -85 -120 -121 -136 -137 -150 -152 -164 -165 -177 -178 -189 -190 -200 -201 0
-23 -44 -45 -84 -85 -120 -121 -136 -137 -151 -152 -164 -166 -177 -178 -189 -190 -200 -201 0
-23 -44 -45 -84 -85 -120 -121 -136 -137 -151 -152 -165 -166 -177 -179 -189 -190 -200 -201 0
-23 -44 -45 -84 -85 -120 -121 -136 -137 -151 -152 -165 -166 -178 -179 -189 -191 -200 -201 0
-23 -44 -45 -84 -85 -120 -121 -136 -137 -151 -152 -165 -166 -178 -179 -190 -191 -200 -202 0
-23 -44 -45 -84 -85 -120 -121 -136 -137 -151 -152 -165 -166 -178 -179 -190 -191 -201 -202 0
-22 -43 -44 -83 -84 -119 -120 -135 -136 -150 -151 -164 -165 -177 -178 -189 -190 -211 -212 0
-23 -43 -45 -83 -84 -119 -120 -135 -136 -150 -151 -164 -165 -177 -178 -189 -190 -211 -212 0
-23 -44 -45 -83 -85 -119 -120 -135 -136 -150 -151 -164 -165 -177 -178 -189 -190 -211 -212 0
-23 -44 -45 -84 -85 -119 -121 -135 -136 -150 -151 -164 -165 -177 -178 -189 -190 -211 -212 0
-23 -44 -45 -84 -85 -120 -121 -135 -137 -150 -151 -164 -165 -177 -178 -189 -190 -211 -212 0
-23 -44 -45 -84 -85 -120 -121 -136 -137 -150 -152 -164 -165 -177 -178 -189 -190 -211 -212 0
-23 -44 -45 -84 -85 -120 -121 -136 -137 -151 -152 -164 -166 -177 -178 -189 -190 -211 -212 0
-23 -44 -45 -84 -85 -120 -121 -136 -137 -151 -152 -165 -166 -177 -179 -189 -190 -211 -212 0
-23 -44 -45 -84 -85 -120 -121 -136 -137 -151 -152 -165 -166 -178 -179 -189 -191 -211 -212 0
-23 -44 -45 -84 -85 -120 -121 -136 -137 -151 -152 -165 -166 -178 -179 -190 -191 -211 -213 0
-23 -44 -45 -84 -85 -120 -121 -136 -137 -151 -152 -165 -166 -178 -179 -190 -191 -212 -213 0
-23 -44 -45 -84 -85 -120 -121 -136 -137 -151 -152 -165 -166 -178 -179 -190 -191 -222 -223 0
-22 -43 -44 -83 -84 -119 -120 -135 -136 -150 -151 -164 -165 -177 -178 -201 -202 -211 -212 0
-23 -43 -45 -83 -84 -119 -120 -135 -136 -150 -151 -164 -165 -177 -178 -201 -202 -211 -212 0
-23 -44 -45 -83 -85 -119 -120 -135 -136 -150 -151 -164 -165 -177 -178 -201 -202 -211 -212 0
-23 -44 -45 -84 -85 -119 -121 -135 -136 -150 -151 -164 -165 -177 -178 -201 -202 -211 -212 0
-23 -44 -45 -84 -85 -120 -121 -135 -137 -150 -151 -164 -165 -177 -178 -201 -202 -211 -212 0
-23 -44 -45 -84 -85 -120 -121 -136 -137 -150 -152 -164 -165 -177 -178 -201 -202 -211 -212 0
-23 -44 -45 -84 -85 -120 -121 -136 -137 -151 -152 -164 -166 -177 -178 -201 -202 -211 -212 0
-23 -44 -45 -84 -85 -120 -121 -136 -137 -151 -152 -165 -166 -177 -179 -201 -202 -211 -212 0
-23 -44 -45 -84 -85 -120 -121 -136 -137 -151 -152 -165 -166 -178 -179 -201 -203 -211 -212 0
-23 -44 -45 -84 -85 -120 -121 -136 -137 -151 -152 -165 -166 -178 -179 -202 -203 -211 -213 0
-23 -44 -45 -84 -85 -120 -121 -136 -137 -151 -152 -165 -166 -178 -179 -202 -203 -212 -213 0
-23 -44 -45 -84 -85 -120 -121 -136 -137 -151 -152 -165 -166 -178 -179 -202 -203 -222 -223 0
-23 -44 -45 -84 -85 -120 -121 -136 -137 -151 -152 -165 -166 -178 -179 -213 -214 -222 -223 0
-22 -43 -44 -83 -84 -119 -120 -135 -136 -150 -151 -164 -165 -190 -191 -201 -202 -211 -212 0
-23 -43 -45 -83 -84 -119 -120 -135 -136 -150 -151 -164 -165 -190 -191 -201 -202 -211 -212 0
-23 -44 -45 -83 -85 -119 -120 -135 -136 -150 -151 -164 -165 -190 -191 -201 -202 -211 -212 0
-23 -44 -45 -84 -85 -119 -121 -135 -136 -150 -151 -164 -165 -190 -191 -201 -202 -211 -212 0
-23 -44 -45 -84 -85 -120 -121 -135 -137 -150 -151 -164 -165 -190 -191 -201 -202 -211 -212 0
-23 -44 -45 -84 -85 -120 -121 -136 -137 -150 -152 -164 -165 -190 -191 -201 -202 -211 -212 0
-23 -44 -45 -84 -85 -120 -121 -136 -137 -151 -152 -164 -166 -190 -191 -201 -202 -211 -212 0
-23 -44 -45 -84 -85 -120 -121 -136 -137 -151 -152 -165 -166 -190 -192 -201 -202 -211 -212 0
-23 -44 -45 -84 -85 -120 -121 -136 -137 -151 -152 -165 -166 -191 -192 -201 -203 -211 -212 0
-23 -44 -45 -84 -85 -120 -121 -136 -137 -151 -152 -165 -166 -191 -192 -202 -203 -211 -213 0
-23 -44 -45 -84 -85 -120 -121 -136 -137 -151 -152 -165 -166 -191 -192 -202 -203 -212 -213 0
-23 -44 -45 -84 -85 -120 -121 -136 -137 -151 -152 -165 -166 -191 -192 -202 -203 -222 -223 0
-23 -44 -45 -84 -85 -120 -121 -136 -137 -151 -152 -165 -166 -191 -192 -213 -214 -222 -223 0
-23 -44 -45 -84 -85 -120 -121 -136 -137 -151 -152 -165 -166 -203 -204 -213 -214 -222 -223 0
-22 -43 -44 -83 -84 -119 -120 -135 -136 -150 -151 -178 -179 -190 -191 -201 -202 -211 -212 0
-23 -43 -45 -83 -84 -119 -120 -135 -136 -150 -151 -178 -179 -190 -191 -201 -202 -211 -212 0
-23 -44 -45 -83 -85 -119 -120 -135 -136 -150 -151 -178 -179 -190 -191 -201 -202 -211 -212 0
-23 -44 -45 -84 -85 -119 -121 -135 -136 -150 -151 -178 -179 -190 -191 -201 -202 -211 -212 0
-23 -44 -45 -84 -85 -120 -121 -135 -137 -150 -151 -178 -179 -190 -191 -201 -202 -211 -212 0
-23 -44 -45 -84 -85 -120 -121 -136 -137 -150 -152 -178 -179 -190 -191 -201 -202 -211 -212 0
-23 -44 -45 -84 -85 -120 -121 -136 -137 -151 -152 -178 -180 -190 -191 -201 -202 -211 -212 0
-23 -44 -45 -84 -85 -120 -121 -136 -137 -151 -152 -179 -180 -190 -192 -201 -202 -211 -212 0
-23 -44 -45 -84 -85 -120 -121 -136 -137 -151 -152 -179 -180 -191 -192 -201 -203 -211 -212 0
-23 -44 -45 -84 -85 -120 -121 -136 -137 -151 -152 -179 -180 -191 -192 -202 -203 -211 -213 0
-23 -44 -45 -84 -85 -120 -121 -136 -137 -151 -152 -179 -180 -191 -192 -202 -203 -212 -213 0
-23 -44 -45 -84 -85 -120 -121 -136 -137 -151 -152 -179 -180 -191 -192 -202 -203 -222 -223 0
-23 -44 -45 -84 -85 -120 -121 -136 -137 -151 -152 -179 -180 -191 -192 -213 -214 -222 -223 0
-23 -44 -45 -84 -85 -120 -121 -136 -137 -151 -152 -179 -180 -203 -204 -213 -214 -222 -223 0
-23 -44 -45 -84 -85 -120 -121 -136 -137 -151 -152 -192 -193 -203 -204 -213 -214 -222 -223 0
-22 -43 -44 -83 -84 -119 -120 -135 -136 -165 -166 -178 -179 -190 -191 -201 -202 -211 -212 0
-23 -43 -45 -83 -84 -119 -120 -135 -136 -165 -166 -178 -179 -190 -191 -201 -202 -211 -212 0
-23 -44 -45 -83 -85 -119 -120 -135 -136 -165 -166 -178 -179 -190 -191 -201 -202 -211 -212 0
-23 -44 -45 -84 -85 -119 -121 -135 -136 -165 -166 -178 -179 -190 -191 -201 -202 -211 -212 0
-23 -44 -45 -84 -85 -120 -121 -135 -137 -165 -166 -178 -179 -190 -191 -201 -202 -211 -212 0
-23 -44 -45 -84 -85 -120 -121 -136 -137 -165 -167 -178 -179 -190 -191 -201 -202 -211 -212 0
-23 -44 -45 -84 -85 -120 -121 -136 -137 -166 -167 -178 -180 -190 -191 -201 -202 -211 -212 0
-23 -44 -45 -84 -85 -120 -121 -136 -137 -166 -167 -179 -180 -190 -192 -201 -202 -211 -212 0
-23 -44 -45 -84 -85 -120 -121 -136 -137 -166 -167 -179 -180 -191 -192 -201 -203 -211 -212 0
-23 -44 -45 -84 -85 -120 -121 -136 -137 -166 -167 -179 -180 -191 -192 -202 -203 -211 -213 0
-23 -44 -45 -84 -85 -120 -121 -136 -137 -166 -167 -179 -180 -191 -192 -202 -203 -212 -213 0
-23 -44 -45 -84 -85 -120 -121 -136 -137 -166 -167 -179 -180 -191 -192 -202 -203 -222 -223 0
-23 -44 -45 -84 -85 -120 -121 -136 -137 -166 -167 -179 -180 -191 -192 -213 -214 -222 -223 0
-23 -44 -45 -84 -85 -120 -121 -136 -137 -166 -167 -179 -180 -203 -204 -213 -214 -222 -223 0
-23 -44 -45 -84 -85 -120 -121 -136 -137 -166 -167 -192 -193 -203 -204 -213 -214 -222 -223 0
-23 -44 -45 -84 -85 -120 -121 -136 -137 -180 -181 -192 -193 -203 -204 -213 -214 -222 -223 0
-22 -43 -44 -83 -84 -119 -120 -151 -152 -165 -166 -178 -179 -190 -191 -201 -202 -211 -212 0
-23 -43 -45 -83 -84 -119 -120 -151 -152 -165 -166 -178 -179 -190 -191 -201 -202 -211 -212 0
-23 -44 -45 -83 -85 -119 -120 -151 -152 -165 -166 -178 -179 -190 -191 -201 -202 -211 -212 0
-23 -44 -45 -84 -85 -119 -121 -151 -152 -165 -166 -178 -179 -190 -191 -201 -202 -211 -212 0
-23 -44 -45 -84 -85 -120 -121 -151 -153 -165 -166 -178 -179 -190 -191 -201 -202 -211 -212 0
-23 -44 -45 -84 -85 -120 -121 -152 -153 -165 -167 -178 -179 -190 -191 -201 -202 -211 -212 0
-23 -44 -45 -84 -85 -120 -121 -152 -153 -166 -167 -178 -180 -190 -191 -201 -202 -211 -212 0
-23 -44 -45 -84 -85 -120 -121 -152 -153 -166 -167 -179 -180 -190 -192 -201 -202 -211 -212 0
-23 -44 -45 -84 -85 -120 -121 -152 -153 -166 -167 -179 -180 -191 -192 -201 -203 -211 -212 0
-23 -44 -45 -84 -85 -120 -121 -152 -153 -166 -167 -179 -180 -191 -192 -202 -203 -211 -213 0
-23 -44 -45 -84 -85 -120 -121 -152 -153 -166 -167 -179 -180 -191 -192 -202 -203 -212 -213 0
-23 -44 -45 -84 -85 -120 -121 -152 -153 -166 -167 -179 -180 -191 -192 -202 -203 -222 -223 0
-23 -44 -45 -84 -85 -120 -121 -152 -153 -166 -167 -179 -180 -191 -192 -213 -214 -222 -223 0
-23 -44 -45 -84 -85 -120 -121 -152 -153 -166 -167 -179 -180 -203 -204 -213 -214 -222 -223 0
-23 -44 -45 -84 -85 -120 -121 -152 -153 -166 -167 -192 -193 -203 -204 -213 -214 -222 -223 0
-23 -44 -45 -84 -85 -120 -121 -152 -153 -180 -181 -192 -193 -203 -204 -213 -214 -222 -223 0
-23 -44 -45 -84 -85 -120 -121 -167 -168 -180 -181 -192 -193 -203 -204 -213 -214 -222 -223 0
-22 -43 -44 -83 -84 -136 -137 -151 -152 -165 -166 -178 -179 -190 -191 -201 -202 -211 -212 0
-23 -43 -45 -83 -84 -136 -137 -151 -152 -165 -166 -178 -179 -190 -191 -201 -202 -211 -212 0
-23 -44 -45 -83 -85 -136 -137 -151 -152 -165 -166 -178 -179 -190 -191 -201 -202 -211 -212 0
-23 -44 -45 -84 -85 -136 -138 -151 -152 -165 -166 -178 -179 -190 -191 -201 -202 -211 -212 0
-23 -44 -45 -84 -85 -137 -138 -151 -153 -165 -166 -178 -179 -190 -191 -201 -202 -211 -212 0
-23 -44 -45 -84 -85 -137 -138 -152 -153 -165 -167 -178 -179 -190 -191 -201 -202 -211 -212 0
-23 -44 -45 -84 -85 -137 -138 -152 -153 -166 -167 -178 -180 -190 -191 -201 -202 -211 -212 0
-23 -44 -45 -84 -85 -137 -138 -152 -153 -166 -167 -179 -180 -190 -192 -201 -202 -211 -212 0
-23 -44 -45 -84 -85 -137 -138 -152 -153 -166 -167 -179 -180 -191 -192 -201 -203 -211 -212 0
-23 -44 -45 -84 -85 -137 -138 -152 -153 -166 -167 -179 -180 -191 -192 -202 -203 -211 -213 0
-23 -44 -45 -84 -85 -137 -138 -152 -153 -166 -167 -179 -180 -191 -192 -202 -203 -212 -213 0
-23 -44 -45 -84 -85 -137 -138 -152 -153 -166 -167 -179 -180 -191 -192 -202 -203 -222 -223 0
-23 -44 -45 -84 -85 -137 -138 -152 -153 -166 -167 -179 -180 -191 -192 -213 -214 -222 -223 0
-23 -44 -45 -84 -85 -137 -138 -152 -153 -166 -167 -179 -180 -203 -204 -213 -214 -222 -223 0
-23 -44 -45 -84 -85 -137 -138 -152 -153 -166 -167 -192 -193 -203 -204 -213 -214 -222 -223 0
-23 -44 -45 -84 -85 -137 -138 -152 -153 -180 -181 -192 -193 -203 -204 -213 -214 -222 -223 0
-23 -44 -45 -84 -85 -137 -138 -167 -168 -180 -181 -192 -193 -203 -204 -213 -214 -222 -223 0
-23 -44 -45 -84 -85 -153 -154 -167 -168 -180 -181 -192 -193 -203 -204 -213 -214 -222 -223 0
-21 -42 -43 -101 -102 -118 -119 -134 -135 -149 -150 -163 -164 -176 -177 -188 -189 -199 -200 0
-22 -42 -44 -101 -102 -118 -119 -134 -135 -149 -150 -163 -164 -176 -177 -188 -189 -199 -200 0
-23 -42 -45 -101 -102 -118 -119 -134 -135 -149 -150 -163 -164 -176 -177 -188 -189 -199 -200 0
-22 -43 -44 -101 -103 -118 -119 -134 -135 -149 -150 -163 -164 -176 -177 -188 -189 -199 -200 0
-23 -43 -45 -101 -103 -118 -119 -134 -135 -149 -150 -163 -164 -176 -177 -188 -189 -199 -200 0
-23 -44 -45 -101 -104 -118 -119 -134 -135 -149 -150 -163 -164 -176 -177 -188 -189 -199 -200 0
-22 -43 -44 -102 -103 -118 -120 -134 -135 -149 -150 -163 -164 -176 -177 -188 -189 -199 -200 0
-23 -43 -45 -102 -103 -118 -120 -134 -135 -149 -150 -163 -164 -176 -177 -188 -189 -199 -200 0
-23 -44 -45 -102 -104 -118 -120 -134 -135 -149 -150 -163 -164 -176 -177 -188 -189 -199 -200 0
-23 -44 -45 -103 -104 -118 -121 -134 -135 -149 -150 -163 -164 -176 -177 -188 -189 -199 -200 0
-22 -43 -44 -102 -103 -119 -120 -134 -136 -149 -150 -163 -164 -176 -177 -188 -189 -199 -200 0
-23 -43 -45 -102 -103 -119 -120 -134 -136 -149 -150 -163 -164 -176 -177 -188 -189 -199 -200 0
-23 -44 -45 -102 -104 -119 -120 -134 -136 -149 -150 -163 -164 -176 -177 -188 -189 -199 -200 0
-23 -44 -45 -103 -104 -119 -121 -134 -136 -149 -150 -163 -164 -176 -177 -188 -189 -199 -200 0
-23 -44 -45 -103 -104 -120 -121 -134 -137 -149 -150 -163 -164 -176 -177 -188 -189 -199 -200 0
-22 -43 -44 -102 -103 -119 -120 -135 -136 -149 -151 -163 -164 -176 -177 -188 -189 -199 -200 0
-23 -43 -45 -102 -103 -119 -120 -135 -136 -149 -151 -163 -164 -176 -177 -188 -189 -199 -200 0
-23 -44 -45 -102 -104 -119 -120 -135 -136 -149 -151 -163 -164 -176 -177 -188 -189 -199 -200 0
-23 -44 -45 -103 -104 -119 -121 -135 -136 -149 -151 -163 -164 -176 -177 -188 -189 -199 -200 0
-23 -44 -45 -103 -104 -120 -121 -135 -137 -149 -151 -163 -164 -176 -177 -188 -189 -199 -200 0
-23 -44 -45 -103 -104 -120 -121 -136 -137 -149 -152 -163 -164 -176 -177 -188 -189 -199 -200 0
-22 -43 -44 -102 -103 -119 -120 -135 -136 -150 -151 -163 -165 -176 -177 -188 -189 -199 -200 0
-23 -43 -45 -102 -103 -119 -120 -135 -136 -150 -151 -163 -165 -176 -177 -188 -189 -199 -200 0
-23 -44 -45 -102 -104 -119 -120 -135 -136 -150 -151 -163 -165 -176 -177 -188 -189 -199 -200 0
-23 -44 -45 -103 -104 -119 -121 -135 -136 -150 -151 -163 -165 -176 -177 -188 -189 -199 -200 0
-23 -44 -45 -103 -104 -120 -121 -135 -137 -150 -151 -163 -165 -176 -177 -188 -189 -199 -200 0
-23 -44 -45 -103 -104 -120 -121 -136 -137 -150 -152 -163 -165 -176 -177 -188 -189 -199 -200 0
-23 -44 -45 -103 -104 -120 -121 -136 -137 -151 -152 -163 -166 -176 -177 -188 -189 -199 -200 0
-22 -43 -44 -102 -103 -119 -120 -135 -136 -150 -151 -164 -165 -176 -178 -188 -189 -199 -200 0
-23 -43 -45 -102 -103 -119 -120 -135 -136 -150 -151 -164 -165 -176 -178 -188 -189 -199 -200 0
-23 -44 -45 -102 -104 -119 -120 -135 -136 -150 -151 -164 -165 -176 -178 -188 -189 -199 -200 0
-23 -44 -45 -103 -104 -119 -121 -135 -136 -150 -151 -164 -165 -176 -178 -188 -189 -199 -200 0
-23 -44 -45 -103 -104 -120 -121 -135 -137 -150 -151 -164 -165 -176 -178 -188 -189 -199 -200 0
-23 -44 -45 -103 -104 -120 -121 -136 -137 -150 -152 -164 -165 -176 -178 -188 -189 -199 -200 0
-23 -44 -45 -103 -104 -120 -121 -136 -137 -151 -152 -164 -166 -176 -178 -188 -189 -199 -200 0
-23 -44 -45 -103 -104 -120 -121 -136 -137 -151 -152 -165 -166 -176 -179 -188 -189 -199 -200 0
-22 -43 -44 -102 -103 -119 -120 -135 -136 -150 -151 -164 -165 -177 -178 -188 -190 -199 -200 0
-23 -43 -45 -102 -103 -119 -120 -135 -136 -150 -151 -164 -165 -177 -178 -188 -190 -199 -200 0
-23 -44 -45 -102 -104 -119 -120 -135 -136 -150 -151 -164 -165 -177 -178 -188 -190 -199 -200 0
-23 -44 -45 -103 -104 -119 -121 -135 -136 -150 -151 -164 -165 -177 -178 -188 -190 -199 -200 0
-23 -44 -45 -103 -104 -120 -121 -135 -137 -150 -151 -164 -165 -177 -178 -188 -190 -199 -200 0
-23 -44 -45 -103 -104 -120 -121 -136 -137 -150 -152 -164 -165 -177 -178 -188 -190 -199 -200 0
-23 -44 -45 -103 -104 -120 -121 -136 -137 -151 -152 -164 -166 -177 -178 -188 -190 -199 -200 0
-23 -44 -45 -103 -104 -120 -121 -136 -137 -151 -152 -165 -166 -177 -179 -188 -190 -199 -200 0
-23 -44 -45 -103 -104 -120 -121 -136 -137 -151 -152 -165 -166 -178 -179 -188 -191 -199 -200 0
-22 -43 -44 -102 -103 -119 -120 -135 -136 -150 -151 -164 -165 -177 -178 -189 -190 -199 -201 0
-23 -43 -45 -102 -103 -119 -120 -135 -136 -150 -151 -164 -165 -177 -178 -189 -190 -199 -201 0
-23 -44 -45 -102 -104 -119 -120 -135 -136 -150 -151 -164 -165 -177 -178 -189 -190 -199 -201 0
-23 -44 -45 -103 -104 -119 -121 -135 -136 -150 -151 -164 -165 -177 -178 -189 -190 -199 -201 0
-23 -44 -45 -103 -104 -120 -121 -135 -137 -150 -151 -164 -165 -177 -178 -189 -190 -199 -201 0
-23 -44 -45 -103 -104 -120 -121 -136 -137 -150 -152 -164 -165 -177 -178 -189 -190 -199 -201 0
-23 -44 -45 -103 -104 -120 -121 -136 -137 -151 -152 -164 -166 -177 -178 -189 -190 -199 -201 0
-23 -44 -45 -103 -104 -120 -121 -136 -137 -151 -152 -165 -166 -177 -179 -189 -190 -199 -201 0
-23 -44 -45 -103 -104 -120 -121 -136 -137 -151 -152 -165 -166 -178 -179 -189 -191 -199 -201 0
-23 -44 -45 -103 -104 -120 -121 -136 -137 -151 -152 -165 -166 -178 -179 -190 -191 -199 -202 0
-22 -43 -44 -102 -103 -119 -120 -135 -136 -150 -151 -164 -165 -177 -178 -189 -190 -200 -201 0
-23 -43 -45 -102 -103 -119 -120 -135 -136 -150 -151 -164 -165 -177 -178 -189 -190 -200 -201 0
-23 -44 -45 -102 -104 -119 -120 -135 -136 -150 -151 -164 -165 -177 -178 -189 -190 -200 -201 0
-23 -44 -45 -103 -104 -119 -121 -135 -136 -150 -151 -164 -165 -177 -178 -189 -190 -200 -201 0
-23 -44 -45 -103 -104 -120 -121 -135 -137 -150 -151 -164 -165 -177 -178 -189 -190 -200 -201 0
-23 -44 -45 -103 -104 -120 -121 -136 -137 -150 -152 -164 -165 -177 -178 -189 -190 -200 -201 0
-23 -44 -45 -103 -104 -120 -121 -136 -137 -151 -152 -164 -166 -177 -178 -189 -190 -200 -201 0
-23 -44 -45 -103 -104 -120 -121 -136 -137 -151 -152 -165 -166 -177 -179 -189 -190 -200 -201 0
-23 -44 -45 -103 -104 -120 -121 -136 -137 -151 -152 -165 -166 -178 -179 -189 -191 -200 -201 0
-23 -44 -45 -103 -104 -120 -121 -136 -137 -151 -152 -165 -166 -178 -179 -190 -191 -200 -202 0
-23 -44 -45 -103 -104 -120 -121 -136 -137 -151 -152 -165 -166 -178 -179 -190 -191 -201 -202 0
-22 -43 -44 -102 -103 -119 -120 -135 -136 -150 -151 -164 -165 -177 -178 -189 -190 -211 -212 0
-23 -43 -45 -102 -103 -119 -120 -135 -136 -150 -151 -164 -165 -177 -178 -189 -190 -211 -212 0
-23 -44 -45 -102 -104 -119 -120 -135 -136 -150 -151 -164 -165 -177 -178 -189 -190 -211 -212 0
-23 -44 -45 -103 -104 -119 -121 -135 -136 -150 -151 -164 -165 -177 -178 -189 -190 -211 -212 0
-23 -44 -45 -103 -104 -120 -121 -135 -137 -150 -151 -164 -165 -177 -178 -189 -190 -211 -212 0
-23 -44 -45 -103 -104 -120 -121 -136 -137 -150 -152 -164 -165 -177 -178 -189 -190 -211 -212 0
-23 -44 -45 -103 -104 -120 -121 -136 -137 -151 -152 -164 -166 -177 -178 -189 -190 -211 -212 0
-23 -44 -45 -103 -104 -120 -121 -136 -137 -151 -152 -165 -166 -177 -179 -189 -190 -211 -212 0
-23 -44 -45 -103 -104 -120 -121 -136 -137 -151 -152 -165 -166 -178 -179 -189 -191 -211 -212 0
-23 -44 -45 -103 -104 -120 -121 -136 -137 -151 -152 -165 -166 -178 -179 -190 -191 -211 -213 0
-23 -44 -45 -103 -104 -120 -121 -136 -137 -151 -152 -165 -166 -178 -179 -190 -191 -212 -213 0
-23 -44 -45 -103 -104 -120 -121 -136 -137 -151 -152 -165 -166 -178 -179 -190 -191 -222 -223 0
-22 -43 -44 -102 -103 -119 -120 -135 -136 -150 -151 -164 -165 -177 -178 -201 -202 -211 -212 0
-23 -43 -45 -102 -103 -119 -120 -135 -136 -150 -151 -164 -165 -177 -178 -201 -202 -211 -212 0
-23 -44 -45 -102 -104 -119 -120 -135 -136 -150 -151 -164 -165 -177 -178 -201 -202 -211 -212 0
-23 -44 -45 -103 -104 -119 -121 -135 -136 -150 -151 -164 -165 -177 -178 -201 -202 -211 -212 0
-23 -44 -45 -103 -104 -120 -121 -135 -137 -150 -151 -164 -165 -177 -178 -201 -202 -211 -212 0
-23 -44 -45 -103 -104 -120 -121 -136 -137 -150 -152 -164 -165 -177 -178 -201 -202 -211 -212 0
-23 -44 -45 -103 -104 -120 -121 -136 -137 -151 -152 -164 -166 -177 -178 -201 -202 -211 -212 0
-23 -44 -45 -103 -104 -120 -121 -136 -137 -151 -152 -165 -166 -177 -179 -201 -202 -211 -212 0
-23 -44 -45 -103 -104 -120 -121 -136 -137 -151 -152 -165 -166 -178 -179 -201 -203 -211 -212 0
-23 -44 -45 -103 -104 -120 -121 -136 -137 -151 -152 -165 -166 -178 -179 -202 -203 -211 -213 0
-23 -44 -45 -103 -104 -120 -121 -136 -137 -151 -152 -165 -166 -178 -179 -202 -203 -212 -213 0
-23 -44 -45 -103 -104 -120 -121 -136 -137 -151 -152 -165 -166 -178 -179 -202 -203 -222 -223 0
-23 -44 -45 -103 -104 -120 -121 -136 -137 -151 -152 -165 -166 -178 -179 -213 -214 -222 -223 0
-22 -43 -44 -102 -103 -119 -120 -135 -136 -150 -151 -164 -165 -190 -191 -201 -202 -211 -212 0
-23 -43 -45 -102 -103 -119 -120 -135 -136 -150 -151 -164 -165 -190 -191 -201 -202 -211 -212 0
-23 -44 -45 -102 -104 -119 -120 -135 -136 -150 -151 -164 -165 -190 -191 -201 -202 -211 -212 0
-23 -44 -45 -103 -104 -119 -121 -135 -136 -150 -151 -164 -165 -190 -191 -201 -202 -211 -212 0
-23 -44 -45 -103 -104 -120 -121 -135 -137 -150 -151 -164 -165 -190 -191 -201 -202 -211 -212 0
-23 -44 -45 -103 -104 -120 -121 -136 -137 -150 -152 -164 -165 -190 -191 -201 -202 -211 -212 0
-23 -44 -45 -103 -104 -120 -121 -136 -137 -151 -152 -164 -166 -190 -191 -201 -202 -211 -212 0
-23 -44 -45 -103 -104 -120 -121 -136 -137 -151 -152 -165 -166 -190 -192 -201 -202 -211 -212 0
-23 -44 -45 -103 -104 -120 -121 -136 -137 -151 -152 -165 -166 -191 -192 -201 -203 -211 -212 0
-23 -44 -45 -103 -104 -120 -121 -136 -137 -151 -152 -165 -166 -191 -192 -202 -203 -211 -213 0
-23 -44 -45 -103 -104 -120 -121 -136 -137 -151 -152 -165 -166 -191 -192 -202 -203 -212 -213 0
-23 -44 -45 -103 -104 -120 -121 -136 -137 -151 -152 -165 -166 -191 -192 -202 -203 -222 -223 0
-23 -44 -45 -103 -104 -120 -121 -136 -137 -151 -152 -165 -166 -191 -192 -213 -214 -222 -223 0
-23 -44 -45 -103 -104 -120 -121 -136 -137 -151 -152 -165 -166 -203 -204 -213 -214 -222 -223 0
-22 -43 -44 -102 -103 -119 -120 -135 -136 -150 -151 -178 -179 -190 -191 -201 -202 -211 -212 0
-23 -43 -45 -102 -103 -119 -120 -135 -136 -150 -151 -178 -179 -190 -191 -201 -202 -211 -212 0
-23 -44 -45 -102 -104 -119 -120 -135 -136 -150 -151 -178 -179 -190 -191 -201 -202 -211 -212 0
-23 -44 -45 -103 -104 -119 -121 -135 -136 -150 -151 -178 -179 -190 -191 -201 -202 -211 -212 0
-23 -44 -45 -103 -104 -120 -121 -135 -137 -150 -151 -178 -179 -190 -191 -201 -202 -211 -212 0
-23 -44 -45 -103 -104 -120 -121 -136 -137 -150 -152 -178 -179 -190 -191 -201 -202 -211 -212 0
-23 -44 -45 -103 -104 -120 -121 -136 -137 -151 -152 -178 -180 -190 -191 -201 -202 -211 -212 0
-23 -44 -45 -103 -104 -120 -121 -136 -137 -151 -152 -179 -180 -190 -192 -201 -202 -211 -212 0
-23 -44 -45 -103 -104 -120 -121 -136 -137 -151 -152 -179 -180 -191 -192 -201 -203 -211 -212 0
-23 -44 -45 -103 -104 -120 -121 -136 -137 -151 -152 -179 -180 -191 -192 -202 -203 -211 -213 0
-23 -44 -45 -103 -104 -120 -121 -136 -137 -151 -152 -179 -180 -191 -192 -202 -203 -212 -213 0
-23 -44 -45 -103 -104 -120 -121 -136 -137 -151 -152 -179 -180 -191 -192 -202 -203 -222 -223 0
-23 -44 -45 -103 -104 -120 -121 -136 -137 -151 -152 -179 -180 -191 -192 -213 -214 -222 -223 0
-23 -44 -45 -103 -104 -120 -121 -136 -137 -151 -152 -179 -180 -203 -204 -213 -214 -222 -223 0
-23 -44 -45 -103 -104 -120 -121 -136 -137 -151 -152 -192 -193 -203 -204 -213 -214 -222 -223 0
-22 -43 -44 -102 -103 -119 -120 -135 -136 -165 -166 -178 -179 -190 -191 -201 -202 -211 -212 0
-23 -43 -45 -102 -103 -119 -120 -135 -136 -165 -166 -178 -179 -190 -191 -201 -202 -211 -212 0
-23 -44 -45 -102 -104 -119 -120 -135 -136 -165 -166 -178 -179 -190 -191 -201 -202 -211 -212 0
-23 -44 -45 -103 -104 -119 -121 -135 -136 -165 -166 -178 -179 -190 -191 -201 -202 -211 -212 0
-23 -44 -45 -103 -104 -120 -121 -135 -137 -165 -166 -178 -179 -190 -191 -201 -202 -211 -212 0
-23 -44 -45 -103 -104 -120 -121 -136 -137 -165 -167 -178 -179 -190 -191 -201 -202 -211 -212 0
-23 -44 -45 -103 -104 -120 -121 -136 -137 -166 -167 -178 -180 -190 -191 -201 -202 -211 -212 0
-23 -44 -45 -103 -104 -120 -121 -136 -137 -166 -167 -179 -180 -190 -192 -201 -202 -211 -212 0
-23 -44 -45 -103 -104 -120 -121 -136 -137 -166 -167 -179 -180 -191 -192 -201 -203 -211 -212 0
-23 -44 -45 -103 -104 -120 -121 -136 -137 -166 -167 -179 -180 -191 -192 -202 -203 -211 -213 0
-23 -44 -45 -103 -104 -120 -121 -136 -137 -166 -167 -179 -180 -191 -192 -202 -203 -212 -213 0
-23 -44 -45 -103 -104 -120 -121 -136 -137 -166 -167 -179 -180 -191 -192 -202 -203 -222 -223 0
-23 -44 -45 -103 -104 -120 -121 -136 -137 -166 -167 -179 -180 -191 -192 -213 -214 -222 -223 0
-23 -44 -45 -103 -104 -120 -121 -136 -137 -166 -167 -179 -180 -203 -204 -213 -214 -222 -223 0
-23 -44 -45 -103 -104 -120 -121 -136 -137 -166 -167 -192 -193 -203 -204 -213 -214 -222 -223 0
-23 -44 -45 -103 -104 -120 -121 -136 -137 -180 -181 -192 -193 -203 -204 -213 -214 -222 -223 0
-22 -43 -44 -102 -103 -119 -120 -151 -152 -165 -166 -178 -179 -190 -191 -201 -202 -211 -212 0
-23 -43 -45 -102 -103 -119 -120 -151 -152 -165 -166 -178 -179 -190 -191 -201 -202 -211 -212 0
-23 -44 -45 -102 -104 -119 -120 -151 -152 -165 -166 -178 -179 -190 -191 -201 -202 -211 -212 0
-23 -44 -45 -103 -104 -119 -121 -151 -152 -165 -166 -178 -179 -190 -191 -201 -202 -211 -212 0
-23 -44 -45 -103 -104 -120 -121 -151 -153 -165 -166 -178 -179 -190 -191 -201 -202 -211 -212 0
-23 -44 -45 -103 -104 -120 -121 -152 -153 -165 -167 -178 -179 -190 -191 -201 -202 -211 -212 0
-23 -44 -45 -103 -104 -120 -121 -152 -153 -166 -167 -178 -180 -190 -191 -201 -202 -211 -212 0
-23 -44 -45 -103 -104 -120 -121 -152 -153 -166 -167 -179 -180 -190 -192 -201 -202 -211 -212 0
-23 -44 -45 -103 -104 -120 -121 -152 -153 -166 -167 -179 -180 -191 -192 -201 -203 -211 -212 0
-23 -44 -45 -103 -104 -120 -121 -152 -153 -166 -167 -179 -180 -191 -192 -202 -203 -211 -213 0
-23 -44 -45 -103 -104 -120 -121 -152 -153 -166 -167 -179 -180 -191 -192 -202 -203 -212 -213 0
-23 -44 -45 -103 -104 -120 -121 -152 -153 -166 -167 -179 -180 -191 -192 -202 -203 -222 -223 0
-23 -44 -45 -103 -104 -120 -121 -152 -153 -166 -167 -179 -180 -191 -192 -213 -214 -222 -223 0
-23 -44 -45 -103 -104 -120 -121 -152 -153 -166 -167 -179 -180 -203 -204 -213 -214 -222 -223 0
-23 -44 -45 -103 -104 -120 -121 -152 -153 -166 -167 -192 -193 -203 -204 -213 -214 -222 -223 0
-23 -44 -45 -103 -104 -120 -121 -152 -153 -180 -181 -192 -193 -203 -204 -213 -214 -222 -223 0
-23 -44 -45 -103 -104 -120 -121 -167 -168 -180 -181 -192 -193 -203 -204 -213 -214 -222 -223 0
-22 -43 -44 -102 -103 -136 -137 -151 -152 -165 -166 -178 -179 -190 -191 -201 -202 -211 -212 0
-23 -43 -45 -102 -103 -136 -137 -151 -152 -165 -166 -178 -179 -190 -191 -201 -202 -211 -212 0
-23 -44 -45 -102 -104 -136 -137 -151 -152 -165 -166 -178 -179 -190 -191 -201 -202 -211 -212 0
-23 -44 -45 -103 -104 -136 -138 -151 -152 -165 -166 -178 -179 -190 -191 -201 -202 -211 -212 0
-23 -44 -45 -103 -104 -137 -138 -151 -153 -165 -166 -178 -179 -190 -191 -201 -202 -211 -212 0
-23 -44 -45 -103 -104 -137 -138 -152 -153 -165 -167 -178 -179 -190 -191 -201 -202 -211 -212 0
-23 -44 -45 -103 -104 -137 -138 -152 -153 -166 -167 -178 -180 -190 -191 -201 -202 -211 -212 0
-23 -44 -45 -103 -104 -137 -138 -152 -153 -166 -167 -179 -180 -190 -192 -201 -202 -211 -212 0
-23 -44 -45 -103 -104 -137 -138 -152 -153 -166 -167 -179 -180 -191 -192 -201 -203 -211 -212 0
-23 -44 -45 -103 -104 -137 -138 -152 -153 -166 -167 -179 -180 -191 -192 -202 -203 -211 -213 0
-23 -44 -45 -103 -104 -137 -138 -152 -153 -166 -167 -179 -180 -191 -192 -202 -203 -212 -213 0
-23 -44 -45 -103 -104 -137 -138 -152 -153 -166 -167 -179 -180 -191 -192 -202 -203 -222 -223 0
-23 -44 -45 -103 -104 -137 -138 -152 -153 -166 -167 -179 -180 -191 -192 -213 -214 -222 -223 0
-23 -44 -45 -103 -104 -137 -138 -152 -153 -166 -167 -179 -180 -203 -204 -213 -214 -222 -223 0
-23 -44 -45 -103 -104 -137 -138 -152 -153 -166 -167 -192 -193 -203 -204 -213 -214 -222 -223 0
-23 -44 -45 -103 -104 -137 -138 -152 -153 -180 -181 -192 -193 -203 -204 -213 -214 -222 -223 0
-23 -44 -45 -103 -104 -137 -138 -167 -168 -180 -181 -192 -193 -203 -204 -213 -214 -222 -223 0
-23 -44 -45 -103 -104 -153 -154 -167 -168 -180 -181 -192 -193 -203 -204 -213 -214 -222 -223 0
-22 -43 -44 -120 -121 -136 -137 -151 -152 -165 -166 -178 -179 -190 -191 -201 -202 -211 -212 0
-23 -43 -45 -120 -121 -136 -137 -151 -152 -165 -166 -178 -179 -190 -191 -201 -202 -211 -212 0
-23 -44 -45 -120 -122 -136 -137 -151 -152 -165 -166 -178 -179 -190 -191 -201 -202 -211 -212 0
-23 -44 -45 -121 -122 -136 -138 -151 -152 -165 -166 -178 -179 -190 -191 -201 -202 -211 -212 0
-23 -44 -45 -121 -122 -137 -138 -151 -153 -165 -166 -178 -179 -190 -191 -201 -202 -211 -212 0
-23 -44 -45 -121 -122 -137 -138 -152 -153 -165 -167 -178 -179 -190 -191 -201 -202 -211 -212 0
-23 -44 -45 -121 -122 -137 -138 -152 -153 -166 -167 -178 -180 -190 -191 -201 -202 -211 -212 0
-23 -44 -45 -121 -122 -137 -138 -152 -153 -166 -167 -179 -180 -190 -192 -201 -202 -211 -212 0
-23 -44 -45 -121 -122 -137 -138 -152 -153 -166 -167 -179 -180 -191 -192 -201 -203 -211 -212 0
-23 -44 -45 -121 -122 -137 -138 -152 -153 -166 -167 -179 -180 -191 -192 -202 -203 -211 -213 0
-23 -44 -45 -121 -122 -137 -138 -152 -153 -166 -167 -179 -180 -191 -192 -202 -203 -212 -213 0
-23 -44 -45 -121 -122 -137 -138 -152 -153 -166 -167 -179 -180 -191 -192 -202 -203 -222 -223 0
-23 -44 -45 -121 -122 -137 -138 -152 -153 -166 -167 -179 -180 -191 -192 -213 -214 -222 -223 0
-23 -44 -45 -121 -122 -137 -138 -152 -153 -166 -167 -179 -180 -203 -204 -213 -214 -222 -223 0
-23 -44 -45 -121 -122 -137 -138 -152 -153 -166 -167 -192 -193 -203 -204 -213 -214 -222 -223 0
-23 -44 -45 -121 -122 -137 -138 -152 -153 -180 -181 -192 -193 -203 -204 -213 -214 -222 -223 0
-23 -44 -45 -121 -122 -137 -138 -167 -168 -180 -181 -192 -193 -203 -204 -213 -214 -222 -223 0
-23 -44 -45 -121 -122 -153 -154 -167 -168 -180 -181 -192 -193 -203 -204 -213 -214 -222 -223 0
-23 -44 -45 -138 -139 -153 -154 -167 -168 -180 -181 -192 -193 -203 -204 -213 -214 -222 -223 0
-20 -62 -63 -81 -82 -99 -100 -116 -117 -132 -133 -147 -148 -161 -162 -174 -175 -186 -187 0
-21 -62 -64 -81 -82 -99 -100 -116 -117 -132 -133 -147 -148 -161 -162 -174 -175 -186 -187 0
-22 -62 -65 -81 -82 -99 -100 -116 -117 -132 -133 -147 -148 -161 -162 -174 -175 -186 -187 0
-23 -62 -66 -81 -82 -99 -100 -116 -117 -132 -133 -147 -148 -161 -162 -174 -175 -186 -187 0
-21 -63 -64 -81 -83 -99 -100 -116 -117 -132 -133 -147 -148 -161 -162 -174 -175 -186 -187 0
-22 -63 -65 -81 -83 -99 -100 -116 -117 -132 -133 -147 -148 -161 -162 -174 -175 -186 -187 0
-23 -63 -66 -81 -83 -99 -100 -116 -117 -132 -133 -147 -148 -161 -162 -174 -175 -186 -187 0
-22 -64 -65 -81 -84 -99 -100 -116 -117 -132 -133 -147 -148 -161 -162 -174 -175 -186 -187 0
-23 -64 -66 -81 -84 -99 -100 -116 -117 -132 -133 -147 -148 -161 -162 -174 -175 -186 -187 0
-23 -65 -66 -81 -85 -99 -100 -116 -117 -132 -133 -147 -148 -161 -162 -174 -175 -186 -187 0
-21 -63 -64 -82 -83 -99 -101 -116 -117 -132 -133 -147 -148 -161 -162 -174 -175 -186 -187 0
-22 -63 -65 -82 -83 -99 -101 -116 -117 -132 -133 -147 -148 -161 -162 -174 -175 -186 -187 0
-23 -63 -66 -82 -83 -99 -101 -116 -117 -132 -133 -147 -148 -161 -162 -174 -175 -186 -187 0
-22 -64 -65 -82 -84 -99 -101 -116 -117 -132 -133 -147 -148 -161 -162 -174 -175 -186 -187 0
-23 -64 -66 -82 -84 -99 -101 -116 -117 -132 -133 -147 -148 -161 -162 -174 -175 -186 -187 0
-23 -65 -66 -82 -85 -99 -101 -116 -117 -132 -133 -147 -148 -161 -162 -174 -175 -186 -187 0
-22 -64 -65 -83 -84 -99 -102 -116 -117 -132 -133 -147 -148 -161 -162 -174 -175 -186 -187 0
-23 -64 -66 -83 -84 -99 -102 -116 -117 -132 -133 -147 -148 -161 -162 -174 -175 -186 -187 0
-23 -65 -66 -83 -85 -99 -102 -116 -117 -132 -133 -147 -148 -161 -162 -174 -175 -186 -187 0
-23 -65 -66 -84 -85 -99 -103 -116 -117 -132 -133 -147 -148 -161 -162 -174 -175 -186 -187 0
-21 -63 -64 -82 -83 -100 -101 -116 -118 -132 -133 -147 -148 -161 -162 -174 -175 -186 -187 0
-22 -63 -65 -82 -83 -100 -101 -116 -118 -132 -133 -147 -148 -161 -162 -174 -175 -186 -187 0
-23 -63 -66 -82 -83 -100 -101 -116 -118 -132 -133 -147 -148 -161 -162 -174 -175 -186 -187 0
-22 -64 -65 -82 -84 -100 -101 -116 -118 -132 -133 -147 -148 -161 -162 -174 -175 -186 -187 0
-23 -64 -66 -82 -84 -100 -101 -116 -118 -132 -133 -147 -148 -161 -162 -174 -175 -186 -187 0
-23 -65 -66 -82 -85 -100 -101 -116 -118 -132 -133 -147 -148 -161 -162 -174 -175 -186 -187 0
-22 -64 -65 -83 -84 -100 -102 -116 -118 -132 -133 -147 -148 -161 -162 -174 -175 -186 -187 0
-23 -64 -66 -83 -84 -100 -102 -116 -118 -132 -133 -147 -148 -161 -162 -174 -175 -186 -187 0
-23 -65 -66 -83 -85 -100 -102 -116 -118 -132 -133 -147 -148 -161 -162 -174 -175 -186 -187 0
-23 -65 -66 -84 -85 -100 -103 -116 -118 -132 -133 -147 -148 -161 -162 -174 -175 -186 -187 0
-22 -64 -65 -83 -84 -101 -102 -116 -119 -132 -133 -147 -148 -161 -162 -174 -175 -186 -187 0
-23 -64 -66 -83 -84 -101 -102 -116 -119 -132 -133 -147 -148 -161 -162 -174 -175 -186 -187 0
-23 -65 -66 -83 -85 -101 -102 -116 -119 -132 -133 -147 -148 -161 -162 -174 -175 -186 -187 0
-23 -65 -66 -84 -85 -101 -103 -116 -119 -132 -133 -147 -148 -161 -162 -174 -175 -186 -187 0
-23 -65 -66 -84 -85 -102 -103 -116 -120 -132 -133 -147 -148 -161 -162 -174 -175 -186 -187 0
-21 -63 -64 -82 -83 -100 -101 -117 -118 -132 -134 -147 -148 -161 -162 -174 -175 -186 -187 0
-22 -63 -65 -82 -83 -100 -101 -117 -118 -132 -134 -147 -148 -161 -162 -174 -175 -186 -187 0
-23 -63 -66 -82 -83 -100 -101 -117 -118 -132 -134 -147 -148 -161 -162 -174 -175 -186 -187 0
-22 -64 -65 -82 -84 -100 -101 -117 -118 -132 -134 -147 -148 -161 -162 -174 -175 -186 -187 0
-23 -64 -66 -82 -84 -100 -101 -117 -118 -132 -134 -147 -148 -161 -162 -174 -175 -186 -187 0
-23 -65 -66 -82 -85 -100 -101 -117 -118 -132 -134 -147 -148 -161 -162 -174 -175 -186 -187 0
-22 -64 -65 -83 -84 -100 -102 -117 -118 -132 -134 -147 -148 -161 -162 -174 -175 -186 -187 0
-23 -64 -66 -83 -84 -100 -102 -117 -118 -132 -134 -147 -148 -161 -162 -174 -175 -186 -187 0
-23 -65 -66 -83 -85 -100 -102 -117 -118 -132 -134 -147 -148 -161 -162 -174 -175 -186 -187 0
-23 -65 -66 -84 -85 -100 -103 -117 -118 -132 -134 -147 -148 -161 -162 -174 -175 -186 -187 0
-22 -64 -65 -83 -84 -101 -102 -117 -119 -132 -134 -147 -148 -161 -162 -174 -175 -186 -187 0
-23 -64 -66 -83 -84 -101 -102 -117 -119 -132 -134 -147 -148 -161 -162 -174 -175 -186 -187 0
-23 -65 -66 -83 -85 -101 -102 -117 -119 -132 -134 -147 -148 -161 -162 -174 -175 -186 -187 0
-23 -65 -66 -84 -85 -101 -103 -117 -119 -132 -134 -147 -148 -161 -162 -174 -175 -186 -187 0
-23 -65 -66 -84 -85 -102 -103 -117 -120 -132 -134 -147 -148 -161 -162 -174 -175 -186 -187 0
-22 -64 -65 -83 -84 -101 -102 -118 -119 -132 -135 -147 -148 -161 -162 -174 -175 -186 -187 0
-23 -64 -66 -83 -84 -101 -102 -118 -119 -132 -135 -147 -148 -161 -162 -174 -175 -186 -187 0
-23 -65 -66 -83 -85 -101 -102 -118 -119 -132 -135 -147 -148 -161 -162 -174 -175 -186 -187 0
-23 -65 -66 -84 -85 -101 -103 -118 -119 -132 -135 -147 -148 -161 -162 -174 -175 -186 -187 0
-23 -65 -66 -84 -85 -102 -103 -118 -120 -132 -135 -147 -148 -161 -162 -174 -175 -186 -187 0
-23 -65 -66 -84 -85 -102 -103 -119 -120 -132 -136 -147 -148 -161 -162 -174 -175 -186 -187 0
-21 -63 -64 -82 -83 -100 -101 -117 -118 -133 -134 -147 -149 -161 -162 -174 -175 -186 -187 0
-22 -63 -65 -82 -83 -100 -101 -117 -118 -133 -134 -147 -149 -161 -162 -174 -175 -186 -187 0
-23 -63 -66 -82 -83 -100 -101 -117 -118 -133 -134 -147 -149 -161 -162 -174 -175 -186 -187 0
-22 -64 -65 -82 -84 -100 -101 -117 -118 -133 -134 -147 -149 -161 -162 -174 -175 -186 -187 0
-23 -64 -66 -82 -84 -100 -101 -117 -118 -133 -134 -147 -149 -161 -162 -174 -175 -186 -187 0
-23 -65 -66 -82 -85 -100 -101 -117 -118 -133 -134 -147 -149 -161 -162 -174 -175 -186 -187 0
-22 -64 -65 -83 -84 -100 -102 -117 -118 -133 -134 -147 -149 -161 -162 -174 -175 -186 -187 0
-23 -64 -66 -83 -84 -100 -102 -117 -118 -133 -134 -147 -149 -161 -162 -174 -175 -186 -187 0
-23 -65 -66 -83 -85 -100 -102 -117 -118 -133 -134 -147 -149 -161 -162 -174 -175 -186 -187 0
-23 -65 -66 -84 -85 -100 -103 -117 -118 -133 -134 -147 -149 -161 -162 -174 -175 -186 -187 0
-22 -64 -65 -83 -84 -101 -102 -117 -119 -133 -134 -147 -149 -161 -162 -174 -175 -186 -187 0
-23 -64 -66 -83 -84 -101 -102 -117 -119 -133 -134 -147 -149 -161 -162 -174 -175 -186 -187 0
-23 -65 -66 -83 -85 -101 -102 -117 -119 -133 -134 -147 -149 -161 -162 -174 -175 -186 -187 0
-23 -65 -66 -84 -85 -101 -103 -117 -119 -133 -134 -147 -149 -161 -162 -174 -175 -186 -187 0
-23 -65 -66 -84 -85 -102 -103 -117 -120 -133 -134 -147 -149 -161 -162 -174 -175 -186 -187 0
-22 -64 -65 -83 -84 -101 -102 -118 -119 -133 -135 -147 -149 -161 -162 -174 -175 -186 -187 0
-23 -64 -66 -83 -84 -101 -102 -118 -119 -133 -135 -147 -149 -161 -162 -174 -175 -186 -187 0
-23 -65 -66 -83 -85 -101 -102 -118 -119 -133 -135 -147 -149 -161 -162 -174 -175 -186 -187 0
-23 -65 -66 -84 -85 -101 -103 -118 -119 -133 -135 -147 -149 -161 -162 -174 -175 -186 -187 0
-23 -65 -66 -84 -85 -102 -103 -118 -120 -133 -135 -147 -149 -161 -162 -174 -175 -186 -187 0
-23 -65 -66 -84 -85 -102 -103 -119 -120 -133 -136 -147 -149 -161 -162 -174 -175 -186 -187 0
-22 -64 -65 -83 -84 -101 -102 -118 -119 -134 -135 -147 -150 -161 -162 -174 -175 -186 -187 0
-23 -64 -66 -83 -84 -101 -102 -118 -119 -134 -135 -147 -150 -161 -162 -174 -175 -186 -187 0
-23 -65 -66 -83 -85 -101 -102 -118 -119 -134 -135 -147 -150 -161 -162 -174 -175 -186 -187 0
-23 -65 -66 -84 -85 -101 -103 -118 -119 -134 -135 -147 -150 -161 -162 -174 -175 -186 -187 0
-23 -65 -66 -84 -85 -102 -103 -118 -120 -134 -135 -147 -150 -161 -162 -174 -175 -186 -187 0
-23 -65 -66 -84 -85 -102 -103 -119 -120 -134 -136 -147 -150 -161 -162 -174 -175 -186 -187 0
-23 -65 -66 -84 -85 -102 -103 -119 -120 -135 -136 -147 -151 -161 -162 -174 -175 -186 -187 0
-21 -63 -64 -82 -83 -100 -101 -117 -118 -133 -134 -148 -149 -161 -163 -174 -175 -186 -187 0
-22 -63 -65 -82 -83 -100 -101 -117 -118 -133 -134 -148 -149 -161 -163 -174 -175 -186 -187 0
-23 -63 -66 -82 -83 -100 -101 -117 -118 -133 -134 -148 -149 -161 -163 -174 -175 -186 -187 0
-22 -64 -65 -82 -84 -100 -101 -117 -118 -133 -134 -148 -149 -161 -163 -174 -175 -186 -187 0
-23 -64 -66 -82 -84 -100 -101 -117 -118 -133 -134 -148 -149 -161 -163 -174 -175 -186 -187 0
-23 -65 -66 -82 -85 -100 -101 -117 -118 -133 -134 -148 -149 -161 -163 -174 -175 -186 -187 0
-22 -64 -65 -83 -84 -100 -102 -117 -118 -133 -134 -148 -149 -161 -163 -174 -175 -186 -187 0
-23 -64 -66 -83 -84 -100 -102 -117 -118 -133 -134 -148 -149 -161 -163 -174 -175 -186 -187 0
-23 -65 -66 -83 -85 -100 -102 -117 -118 -133 -134 -148 -149 -161 -163 -174 -175 -186 -187 0
-23 -65 -66 -84 -85 -100 -103 -117 -118 -133 -134 -148 -149 -161 -163 -174 -175 -186 -187 0
-22 -64 -65 -83 -84 -101 -102 -117 -119 -133 -134 -148 -149 -161 -163 -174 -175 -186 -187 0
-23 -64 -66 -83 -84 -101 -102 -117 -119 -133 -134 -148 -149 -161 -163 -174 -175 -186 -187 0
-23 -65 -66 -83 -85 -101 -102 -117 -119 -133 -134 -148 -149 -161 -163 -174 -175 -186 -187 0
-23 -65 -66 -84 -85 -101 -103 -117 -119 -133 -134 -148 -149 -161 -163 -174 -175 -186 -187 0
-23 -65 -66 -84 -85 -102 -103 -117 -120 -133 -134 -148 -149 -161 -163 -174 -175 -186 -187 0
-22 -64 -65 -83 -84 -101 -102 -118 -119 -133 -135 -148 -149 -161 -163 -174 -175 -186 -187 0
-23 -64 -66 -83 -84 -101 -102 -118 -119 -133 -135 -148 -149 -161 -163 -174 -175 -186 -187 0
-23 -65 -66 -83 -85 -101 -102 -118 -119 -133 -135 -148 -149 -161 -163 -174 -175 -186 -187 0
-23 -65 -66 -84 -85 -101 -103 -118 -119 -133 -135 -148 -149 -161 -163 -174 -175 -186 -187 0
-23 -65 -66 -84 -85 -102 -103 -118 -120 -133 -135 -148 -149 -161 -163 -174 -175 -186 -187 0
-23 -65 -66 -84 -85 -102 -103 -119 -120 -133 -136 -148 -149 -161 -163 -174 -175 -186 -187 0
-22 -64 -65 -83 -84 -101 -102 -118 -119 -134 -135 -148 -150 -161 -163 -174 -175 -186 -187 0
-23 -64 -66 -83 -84 -101 -102 -118 -119 -134 -135 -148 -150 -161 -163 -174 -175 -186 -187 0
-23 -65 -66 -83 -85 -101 -102 -118 -119 -134 -135 -148 -150 -161 -163 -174 -175 -186 -187 0
-23 -65 -66 -84 -85 -101 -103 -118 -119 -134 -135 -148 -150 -161 -163 -174 -175 -186 -187 0
-23 -65 -66 -84 -85 -102 -103 -118 -120 -134 -135 -148 -150 -161 -163 -174 -175 -186 -187 0
-23 -65 -66 -84 -85 -102 -103 -119 -120 -134 -136 -148 -150 -161 -163 -174 -175 -186 -187 0
-23 -65 -66 -84 -85 -102 -103 -119 -120 -135 -136 -148 -151 -161 -163 -174 -175 -186 -187 0
-22 -64 -65 -83 -84 -101 -102 -118 -119 -134 -135 -149 -150 -161 -164 -174 -175 -186 -187 0
-23 -64 -66 -83 -84 -101 -102 -118 -119 -134 -135 -149 -150 -161 -164 -174 -175 -186 -187 0
-23 -65 -66 -83 -85 -101 -102 -118 -119 -134 -135 -149 -150 -161 -164 -174 -175 -186 -187 0
-23 -65 -66 -84 -85 -101 -103 -118 -119 -134 -135 -149 -150 -161 -164 -174 -175 -186 -187 0
-23 -65 -66 -84 -85 -102 -103 -118 -120 -134 -135 -149 -150 -161 -164 -174 -175 -186 -187 0
-23 -65 -66 -84 -85 -102 -103 -119 -120 -134 -136 -149 -150 -161 -164 -174 -175 -186 -187 0
-23 -65 -66 -84 -85 -102 -103 -119 -120 -135 -136 -149 -151 -161 -164 -174 -175 -186 -187 0
-23 -65 -66 -84 -85 -102 -103 -119 -120 -135 -136 -150 -151 -161 -165 -174 -175 -186 -187 0
-21 -63 -64 -82 -83 -100 -101 -117 -118 -133 -134 -148 -149 -162 -163 -174 -176 -186 -187 0
-22 -63 -65 -82 -83 -100 -101 -117 -118 -133 -134 -148 -149 -162 -163 -174 -176 -186 -187 0
-23 -63 -66 -82 -83 -100 -101 -117 -118 -133 -134 -148 -149 -162 -163 -174 -176 -186 -187 0
-22 -64 -65 -82 -84 -100 -101 -117 -118 -133 -134 -148 -149 -162 -163 -174 -176 -186 -187 0
-23 -64 -66 -82 -84 -100 -101 -117 -118 -133 -134 -148 -149 -162 -163 -174 -176 -186 -187 0
-23 -65 -66 -82 -85 -100 -101 -117 -118 -133 -134 -148 -149 -162 -163 -174 -176 -186 -187 0
-22 -64 -65 -83 -84 -100 -102 -117 -118 -133 -134 -148 -149 -162 -163 -174 -176 -186 -187 0
-23 -64 -66 -83 -84 -100 -102 -117 -118 -133 -134 -148 -149 -162 -163 -174 -176 -186 -187 0
-23 -65 -66 -83 -85 -100 -102 -117 -118 -133 -134 -148 -149 -162 -163 -174 -176 -186 -187 0
-23 -65 -66 -84 -85 -100 -103 -117 -118 -133 -134 -148 -149 -162 -163 -174 -176 -186 -187 0
-22 -64 -65 -83 -84 -101 -102 -117 -119 -133 -134 -148 -149 -162 -163 -174 -176 -186 -187 0
-23 -64 -66 -83 -84 -101 -102 -117 -119 -133 -134 -148 -149 -162 -163 -174 -176 -186 -187 0
-23 -65 -66 -83 -85 -101 -102 -117 -119 -133 -134 -148 -149 -162 -163 -174 -176 -186 -187 0
-23 -65 -66 -84 -85 -101 -103 -117 -119 -133 -134 -148 -149 -162 -163 -174 -176 -186 -187 0
-23 -65 -66 -84 -85 -102 -103 -117 -120 -133 -134 -148 -149 -162 -163 -174 -176 -186 -187 0
-22 -64 -65 -83 -84 -101 -102 -118 -119 -133 -135 -148 -149 -162 -163 -174 -176 -186 -187 0
-23 -64 -66 -83 -84 -101 -102 -118 -119 -133 -135 -148 -149 -162 -163 -174 -176 -186 -187 0
-23 -65 -66 -83 -85 -101 -102 -118 -119 -133 -135 -148 -149 -162 -163 -174 -176 -186 -187 0
-23 -65 -66 -84 -85 -101 -103 -118 -119 -133 -135 -148 -149 -162 -163 -174 -176 -186 -187 0
-23 -65 -66 -84 -85 -102 -103 -118 -120 -133 -135 -148 -149 -162 -163 -174 -176 -186 -187 0
-23 -65 -66 -84 -85 -102 -103 -119 -120 -133 -136 -148 -149 -162 -163 -174 -176 -186 -187 0
-22 -64 -65 -83 -84 -101 -102 -118 -119 -134 -135 -148 -150 -162 -163 -174 -176 -186 -187 0
-23 -64 -66 -83 -84 -101 -102 -118 -119 -134 -135 -148 -150 -162 -163 -174 -176 -186 -187 0
-23 -65 -66 -83 -85 -101 -102 -118 -119 -134 -135 -148 -150 -162 -163 -174 -176 -186 -187 0
-23 -65 -66 -84 -85 -101 -103 -118 -119 -134 -135 -148 -150 -162 -163 -174 -176 -186 -187 0
-23 -65 -66 -84 -85 -102 -103 -118 -120 -134 -135 -148 -150 -162 -163 -174 -176 -186 -187 0
-23 -65 -66 -84 -85 -102 -103 -119 -120 -134 -136 -148 -150 -162 -163 -174 -176 -186 -187 0
-23 -65 -66 -84 -85 -102 -103 -119 -120 -135 -136 -148 -151 -162 -163 -174 -176 -186 -187 0
-22 -64 -65 -83 -84 -101 -102 -118 -119 -134 -135 -149 -150 -162 -164 -174 -176 -186 -187 0
-23 -64 -66 -83 -84 -101 -102 -118 -119 -134 -135 -149 -150 -162 -164 -174 -176 -186 -187 0
-23 -65 -66 -83 -85 -101 -102 -118 -119 -134 -135 -149 -150 -162 -164 -174 -176 -186 -187 0
-23 -65 -66 -84 -85 -101 -103 -118 -119 -134 -135 -149 -150 -162 -164 -174 -176 -186 -187 0
-23 -65 -66 -84 -85 -102 -103 -118 -120 -134 -135 -149 -150 -162 -164 -174 -176 -186 -187 0
-23 -65 -66 -84 -85 -102 -103 -119 -120 -134 -136 -149 -150 -162 -164 -174 -176 -186 -187 0
-23 -65 -66 -84 -85 -102 -103 -119 -120 -135 -136 -149 -151 -162 -164 -174 -176 -186 -187 0
-23 -65 -66 -84 -85 -102 -103 -119 -120 -135 -136 -150 -151 -162 -165 -174 -176 -186 -187 0
-22 -64 -65 -83 -84 -101 -102 -118 -119 -134 -135 -149 -150 -163 -164 -174 -177 -186 -187 0
-23 -64 -66 -83 -84 -101 -102 -118 -119 -134 -135 -149 -150 -163 -164 -174 -177 -186 -187 0
-23 -65 -66 -83 -85 -101 -102 -118 -119 -134 -135 -149 -150 -163 -164 -174 -177 -186 -187 0
-23 -65 -66 -84 -85 -101 -103 -118 -119 -134 -135 -149 -150 -163 -164 -174 -177 -186 -187 0
-23 -65 -66 -84 -85 -102 -103 -118 -120 -134 -135 -149 -150 -163 -164 -174 -177 -186 -187 0
-23 -65 -66 -84 -85 -102 -103 -119 -120 -134 -136 -149 -150 -163 -164 -174 -177 -186 -187 0
-23 -65 -66 -84 -85 -102 -103 -119 -120 -135 -136 -149 -151 -163 -164 -174 -177 -186 -187 0
-23 -65 -66 -84 -85 -102 -103 -119 -120 -135 -136 -150 -151 -163 -165 -174 -177 -186 -187 0
-23 -65 -66 -84 -85 -102 -103 -119 -120 -135 -136 -150 -151 -164 -165 -174 -178 -186 -187 0
-21 -63 -64 -82 -83 -100 -101 -117 -118 -133 -134 -148 -149 -162 -163 -175 -176 -186 -188 0
-22 -63 -65 -82 -83 -100 -101 -117 -118 -133 -134 -148 -149 -162 -163 -175 -176 -186 -188 0
-23 -63 -66 -82 -83 -100 -101 -117 -118 -133 -134 -148 -149 -162 -163 -175 -176 -186 -188 0
-22 -64 -65 -82 -84 -100 -101 -117 -118 -133 -134 -148 -149 -162 -163 -175 -176 -186 -188 0
-23 -64 -66 -82 -84 -100 -101 -117 -118 -133 -134 -148 -149 -162 -163 -175 -176 -186 -188 0
-23 -65 -66 -82 -85 -100 -101 -117 -118 -133 -134 -148 -149 -162 -163 -175 -176 -186 -188 0
-22 -64 -65 -83 -84 -100 -102 -117 -118 -133 -134 -148 -149 -162 -163 -175 -176 -186 -188 0
-23 -64 -66 -83 -84 -100 -102 -117 -118 -133 -134 -148 -149 -162 -163 -175 -176 -186 -188 0
-23 -65 -66 -83 -85 -100 -102 -117 -118 -133 -134 -148 -149 -162 -163 -175 -176 -186 -188 0
-23 -65 -66 -84 -85 -100 -103 -117 -118 -133 -134 -148 -149 -162 -163 -175 -176 -186 -188 0
-22 -64 -65 -83 -84 -101 -102 -117 -119 -133 -134 -148 -149 -162 -163 -175 -176 -186 -188 0
-23 -64 -66 -83 -84 -101 -102 -117 -119 -133 -134 -148 -149 -162 -163 -175 -176 -186 -188 0
-23 -65 -66 -83 -85 -101 -102 -117 -119 -133 -134 -148 -149 -162 -163 -175 -176 -186 -188 0
-23 -65 -66 -84 -85 -101 -103 -117 -119 -133 -134 -148 -149 -162 -163 -175 -176 -186 -188 0
-23 -65 -66 -84 -85 -102 -103 -117 -120 -133 -134 -148 -149 -162 -163 -175 -176 -186 -188 0
-22 -64 -65 -83 -84 -101 -102 -118 -119 -133 -135 -148 -149 -162 -163 -175 -176 -186 -188 0
-23 -64 -66 -83 -84 -101 -102 -118 -119 -133 -135 -148 -149 -162 -163 -175 -176 -186 -188 0
-23 -65 -66 -83 -85 -101 -102 -118 -119 -133 -135 -148 -149 -162 -163 -175 -176 -186 -188 0
-23 -65 -66 -84 -85 -101 -103 -118 -119 -133 -135 -148 -149 -162 -163 -175 -176 -186 -188 0
-23 -65 -66 -84 -85 -102 -103 -118 -120 -133 -135 -148 -149 -162 -163 -175 -176 -186 -188 0
-23 -65 -66 -84 -85 -102 -103 -119 -120 -133 -136 -148 -149 -162 -163 -175 -176 -186 -188 0
-22 -64 -65 -83 -84 -101 -102 -118 -119 -134 -135 -148 -150 -162 -163 -175 -176 -186 -188 0
-23 -64 -66 -83 -84 -101 -102 -118 -119 -134 -135 -148 -150 -162 -163 -175 -176 -186 -188 0
-23 -65 -66 -83 -85 -101 -102 -118 -119 -134 -135 -148 -150 -162 -163 -175 -176 -186 -188 0
-23 -65 -66 -84 -85 -101 -103 -118 -119 -134 -135 -148 -150 -162 -163 -175 -176 -186 -188 0
-23 -65 -66 -84 -85 -102 -103 -118 -120 -134 -135 -148 -150 -162 -163 -175 -176 -186 -188 0
-23 -65 -66 -84 -85 -102 -103 -119 -120 -134 -136 -148 -150 -162 -163 -175 -176 -186 -188 0
-23 -65 -66 -84 -85 -102 -103 -119 -120 -135 -136 -148 -151 -162 -163 -175 -176 -186 -188 0
-22 -64 -65 -83 -84 -101 -102 -118 -119 -134 -135 -149 -150 -162 -164 -175 -176 -186 -188 0
-23 -64 -66 -83 -84 -101 -102 -118 -119 -134 -135 -149 -150 -162 -164 -175 -176 -186 -188 0
-23 -65 -66 -83 -85 -101 -102 -118 -119 -134 -135 -149 -150 -162 -164 -175 -176 -186 -188 0
-23 -65 -66 -84 -85 -101 -103 -118 -119 -134 -135 -149 -150 -162 -164 -175 -176 -186 -188 0
-23 -65 -66 -84 -85 -102 -103 -118 -120 -134 -135 -149 -150 -162 -164 -175 -176 -186 -188 0
-23 -65 -66 -84 -85 -102 -103 -119 -120 -134 -136 -149 -150 -162 -164 -175 -176 -186 -188 0
-23 -65 -66 -84 -85 -102 -103 -119 -120 -135 -136 -149 -151 -162 -164 -175 -176 -186 -188 0
-23 -65 -66 -84 -85 -102 -103 -119 -120 -135 -136 -150 -151 -162 -165 -175 -176 -186 -188 0
-22 -64 -65 -83 -84 -101 -102 -118 -119 -134 -135 -149 -150 -163 -164 -175 -177 -186 -188 0
-23 -64 -66 -83 -84 -101 -102 -118 -119 -134 -135 -149 -150 -163 -164 -175 -177 -186 -188 0
-23 -65 -66 -83 -85 -101 -102 -118 -119 -134 -135 -149 -150 -163 -164 -175 -177 -186 -188 0
-23 -65 -66 -84 -85 -101 -103 -118 -119 -134 -135 -149 -150 -163 -164 -175 -177 -186 -188 0
-23 -65 -66 -84 -85 -102 -103 -118 -120 -134 -135 -149 -150 -163 -164 -175 -177 -186 -188 0
-23 -65 -66 -84 -85 -102 -103 -119 -120 -134 -136 -149 -150 -163 -164 -175 -177 -186 -188 0
-23 -65 -66 -84 -85 -102 -103 -119 -120 -135 -136 -149 -151 -163 -164 -175 -177 -186 -188 0
-23 -65 -66 -84 -85 -102 -103 -119 -120 -135 -136 -150 -151 -163 -165 -175 -177 -186 -188 0
-23 -65 -66 -84 -85 -102 -103 -119 -120 -135 -136 -150 -151 -164 -165 -175 -178 -186 -188 0
-22 -64 -65 -83 -84 -101 -102 -118 -119 -134 -135 -149 -150 -163 -164 -176 -177 -186 -189 0
-23 -64 -66 -83 -84 -101 -102 -118 -119 -134 -135 -149 -150 -163 -164 -176 -177 -186 -189 0
-23 -65 -66 -83 -85 -101 -102 -118 -119 -134 -135 -149 -150 -163 -164 -176 -177 -186 -189 0
-23 -65 -66 -84 -85 -101 -103 -118 -119 -134 -135 -149 -150 -163 -164 -176 -177 -186 -189 0
-23 -65 -66 -84 -85 -102 -103 -118 -120 -134 -135 -149 -150 -163 -164 -176 -177 -186 -189 0
-23 -65 -66 -84 -85 -102 -103 -119 -120 -134 -136 -149 -150 -163 -164 -176 -177 -186 -189 0
-23 -65 -66 -84 -85 -102 -103 -119 -120 -135 -136 -149 -151 -163 -164 -176 -177 -186 -189 0
-23 -65 -66 -84 -85 -102 -103 -119 -120 -135 -136 -150 -151 -163 -165 -176 -177 -186 -189 0
-23 -65 -66 -84 -85 -102 -103 -119 -120 -135 -136 -150 -151 -164 -165 -176 -178 -186 -189 0
-23 -65 -66 -84 -85 -102 -103 -119 -120 -135 -136 -150 -151 -164 -165 -177 -178 -186 -190 0
-21 -63 -64 -82 -83 -100 -101 -117 -118 -133 -134 -148 -149 -162 -163 -175 -176 -187 -188 0
-22 -63 -65 -82 -83 -100 -101 -117 -118 -133 -134 -148 -149 -162 -163 -175 -176 -187 -188 0
-23 -63 -66 -82 -83 -100 -101 -117 -118 -133 -134 -148 -149 -162 -163 -175 -176 -187 -188 0
-22 -64 -65 -82 -84 -100 -101 -117 -118 -133 -134 -148 -149 -162 -163 -175 -176 -187 -188 0
-23 -64 -66 -82 -84 -100 -101 -117 -118 -133 -134 -148 -149 -162 -163 -175 -176 -187 -188 0
-23 -65 -66 -82 -85 -100 -101 -117 -118 -133 -134 -148 -149 -162 -163 -175 -176 -187 -188 0
-22 -64 -65 -83 -84 -100 -102 -117 -118 -133 -134 -148 -149 -162 -163 -175 -176 -187 -188 0
-23 -64 -66 -83 -84 -100 -102 -117 -118 -133 -134 -148 -149 -162 -163 -175 -176 -187 -188 0
-23 -65 -66 -83 -85 -100 -102 -117 -118 -133 -134 -148 -149 -162 -163 -175 -176 -187 -188 0
-23 -65 -66 -84 -85 -100 -103 -117 -118 -133 -134 -148 -149 -162 -163 -175 -176 -187 -188 0
-22 -64 -65 -83 -84 -101 -102 -117 -119 -133 -134 -148 -149 -162 -163 -175 -176 -187 -188 0
-23 -64 -66 -83 -84 -101 -102 -117 -119 -133 -134 -148 -149 -162 -163 -175 -176 -187 -188 0
-23 -65 -66 -83 -85 -101 -102 -117 -119 -133 -134 -148 -149 -162 -163 -175 -176 -187 -188 0
-23 -65 -66 -84 -85 -101 -103 -117 -119 -133 -134 -148 -149 -162 -163 -175 -176 -187 -188 0
-23 -65 -66 -84 -85 -102 -103 -117 -120 -133 -134 -148 -149 -162 -163 -175 -176 -187 -188 0
-22 -64 -65 -83 -84 -101 -102 -118 -119 -133 -135 -148 -149 -162 -163 -175 -176 -187 -188 0
-23 -64 -66 -83 -84 -101 -102 -118 -119 -133 -135 -148 -149 -162 -163 -175 -176 -187 -188 0
-23 -65 -66 -83 -85 -101 -102 -118 -119 -133 -135 -148 -149 -162 -163 -175 -176 -187 -188 0
-23 -65 -66 -84 -85 -101 -103 -118 -119 -133 -135 -148 -149 -162 -163 -175 -176 -187 -188 0
-23 -65 -66 -84 -85 -102 -103 -118 -120 -133 -135 -148 -149 -162 -163 -175 -176 -187 -188 0
-23 -65 -66 -84 -85 -102 -103 -119 -120 -133 -136 -148 -149 -162 -163 -175 -176 -187 -188 0
-22 -64 -65 -83 -84 -101 -102 -118 -119 -134 -135 -148 -150 -162 -163 -175 -176 -187 -188 0
-23 -64 -66 -83 -84 -101 -102 -118 -119 -134 -135 -148 -150 -162 -163 -175 -176 -187 -188 0
-23 -65 -66 -83 -85 -101 -102 -118 -119 -134 -135 -148 -150 -162 -163 -175 -176 -187 -188 0
-23 -65 -66 -84 -85 -101 -103 -118 -119 -134 -135 -148 -150 -162 -163 -175 -176 -187 -188 0
-23 -65 -66 -84 -85 -102 -103 -118 -120 -134 -135 -148 -150 -162 -163 -175 -176 -187 -188 0
-23 -65 -66 -84 -85 -102 -103 -119 -120 -134 -136 -148 -150 -162 -163 -175 -176 -187 -188 0
-23 -65 -66 -84 -85 -102 -103 -119 -120 -135 -136 -148 -151 -162 -163 -175 -176 -187 -188 0
-22 -64 -65 -83 -84 -101 -102 -118 -119 -134 -135 -149 -150 -162 -164 -175 -176 -187 -188 0
-23 -64 -66 -83 -84 -101 -102 -118 -119 -134 -135 -149 -150 -162 -164 -175 -176 -187 -188 0
-23 -65 -66 -83 -85 -101 -102 -118 -119 -134 -135 -149 -150 -162 -164 -175 -176 -187 -188 0
-23 -65 -66 -84 -85 -101 -103 -118 -119 -134 -135 -149 -150 -162 -164 -175 -176 -187 -188 0
-23 -65 -66 -84 -85 -102 -103 -118 -120 -134 -135 -149 -150 -162 -164 -175 -176 -187 -188 0
-23 -65 -66 -84 -85 -102 -103 -119 -120 -134 -136 -149 -150 -162 -164 -175 -176 -187 -188 0
-23 -65 -66 -84 -85 -102 -103 -119 -120 -135 -136 -149 -151 -162 -164 -175 -176 -187 -188 0
-23 -65 -66 -84 -85 -102 -103 -119 -120 -135 -136 -150 -151 -162 -165 -175 -176 -187 -188 0
-22 -64 -65 -83 -84 -101 -102 -118 -119 -134 -135 -149 -150 -163 -164 -175 -177 -187 -188 0
-23 -64 -66 -83 -84 -101 -102 -118 -119 -134 -135 -149 -150 -163 -164 -175 -177 -187 -188 0
-23 -65 -66 -83 -85 -101 -102 -118 -119 -134 -135 -149 -150 -163 -164 -175 -177 -187 -188 0
-23 -65 -66 -84 -85 -101 -103 -118 -119 -134 -135 -149 -150 -163 -164 -175 -177 -187 -188 0
-23 -65 -66 -84 -85 -102 -103 -118 -120 -134 -135 -149 -150 -163 -164 -175 -177 -187 -188 0
-23 -65 -66 -84 -85 -102 -103 -119 -120 -134 -136 -149 -150 -163 -164 -175 -177 -187 -188 0
-23 -65 -66 -84 -85 -102 -103 -119 -120 -135 -136 -149 -151 -163 -164 -175 -177 -187 -188 0
-23 -65 -66 -84 -85 -102 -103 -119 -120 -135 -136 -150 -151 -163 -165 -175 -177 -187 -188 0
-23 -65 -66 -84 -85 -102 -103 -119 -120 -135 -136 -150 -151 -164 -165 -175 -178 -187 -188 0
-22 -64 -65 -83 -84 -101 -102 -118 -119 -134 -135 -149 -150 -163 -164 -176 -177 -187 -189 0
-23 -64 -66 -83 -84 -101 -102 -118 -119 -134 -135 -149 -150 -163 -164 -176 -177 -187 -189 0
-23 -65 -66 -83 -85 -101 -102 -118 -119 -134 -135 -149 -150 -163 -164 -176 -177 -187 -189 0
-23 -65 -66 -84 -85 -101 -103 -118 -119 -134 -135 -149 -150 -163 -164 -176 -177 -187 -189 0
-23 -65 -66 -84 -85 -102 -103 -118 -120 -134 -135 -149 -150 -163 -164 -176 -177 -187 -189 0
-23 -65 -66 -84 -85 -102 -103 -119 -120 -134 -136 -149 -150 -163 -164 -176 -177 -187 -189 0
-23 -65 -66 -84 -85 -102 -103 -119 -120 -135 -136 -149 -151 -163 -164 -176 -177 -187 -189 0
-23 -65 -66 -84 -85 -102 -103 -119 -120 -135 -136 -150 -151 -163 -165 -176 -177 -187 -189 0
-23 -65 -66 -84 -85 -102 -103 -119 -120 -135 -136 -150 -151 -164 -165 -176 -178 -187 -189 0
-23 -65 -66 -84 -85 -102 -103 -119 -120 -135 -136 -150 -151 -164 -165 -177 -178 -187 -190 0
-22 -64 -65 -83 -84 -101 -102 -118 -119 -134 -135 -149 -150 -163 -164 -176 -177 -188 -189 0
-23 -64 -66 -83 -84 -101 -102 -118 -119 -134 -135 -149 -150 -163 -164 -176 -177 -188 -189 0
-23 -65 -66 -83 -85 -101 -102 -118 -119 -134 -135 -149 -150 -163 -164 -176 -177 -188 -189 0
-23 -65 -66 -84 -85 -101 -103 -118 -119 -134 -135 -149 -150 -163 -164 -176 -177 -188 -189 0
-23 -65 -66 -84 -85 -102 -103 -118 -120 -134 -135 -149 -150 -163 -164 -176 -177 -188 -189 0
-23 -65 -66 -84 -85 -102 -103 -119 -120 -134 -136 -149 -150 -163 -164 -176 -177 -188 -189 0
-23 -65 -66 -84 -85 -102 -103 -119 -120 -135 -136 -149 -151 -163 -164 -176 -177 -188 -189 0
-23 -65 -66 -84 -85 -102 -103 -119 -120 -135 -136 -150 -151 -163 -165 -176 -177 -188 -189 0
-23 -65 -66 -84 -85 -102 -103 -119 -120 -135 -136 -150 -151 -164 -165 -176 -178 -188 -189 0
-23 -65 -66 -84 -85 -102 -103 -119 -120 -135 -136 -150 -151 -164 -165 -177 -178 -188 -190 0
-23 -65 -66 -84 -85 -102 -103 -119 -120 -135 -136 -150 -151 -164 -165 -177 -178 -189 -190 0
-21 -63 -64 -82 -83 -100 -101 -117 -118 -133 -134 -148 -149 -162 -163 -175 -176 -199 -200 0
-22 -63 -65 -82 -83 -100 -101 -117 -118 -133 -134 -148 -149 -162 -163 -175 -176 -199 -200 0
-23 -63 -66 -82 -83 -100 -101 -117 -118 -133 -134 -148 -149 -162 -163 -175 -176 -199 -200 0
-22 -64 -65 -82 -84 -100 -101 -117 -118 -133 -134 -148 -149 -162 -163 -175 -176 -199 -200 0
-23 -64 -66 -82 -84 -100 -101 -117 -118 -133 -134 -148 -149 -162 -163 -175 -176 -199 -200 0
-23 -65 -66 -82 -85 -100 -101 -117 -118 -133 -134 -148 -149 -162 -163 -175 -176 -199 -200 0
-22 -64 -65 -83 -84 -100 -102 -117 -118 -133 -134 -148 -149 -162 -163 -175 -176 -199 -200 0
-23 -64 -66 -83 -84 -100 -102 -117 -118 -133 -134 -148 -149 -162 -163 -175 -176 -199 -200 0
-23 -65 -66 -83 -85 -100 -102 -117 -118 -133 -134 -148 -149 -162 -163 -175 -176 -199 -200 0
-23 -65 -66 -84 -85 -100 -103 -117 -118 -133 -134 -148 -149 -162 -163 -175 -176 -199 -200 0
-22 -64 -65 -83 -84 -101 -102 -117 -119 -133 -134 -148 -149 -162 -163 -175 -176 -199 -200 0
-23 -64 -66 -83 -84 -101 -102 -117 -119 -133 -134 -148 -149 -162 -163 -175 -176 -199 -200 0
-23 -65 -66 -83 -85 -101 -102 -117 -119 -133 -134 -148 -149 -162 -163 -175 -176 -199 -200 0
-23 -65 -66 -84 -85 -101 -103 -117 -119 -133 -134 -148 -149 -162 -163 -175 -176 -199 -200 0
-23 -65 -66 -84 -85 -102 -103 -117 -120 -133 -134 -148 -149 -162 -163 -175 -176 -199 -200 0
-22 -64 -65 -83 -84 -101 -102 -118 -119 -133 -135 -148 -149 -162 -163 -175 -176 -199 -200 0
-23 -64 -66 -83 -84 -101 -102 -118 -119 -133 -135 -148 -149 -162 -163 -175 -176 -199 -200 0
-23 -65 -66 -83 -85 -101 -102 -118 -119 -133 -135 -148 -149 -162 -163 -175 -176 -199 -200 0
-23 -65 -66 -84 -85 -101 -103 -118 -119 -133 -135 -148 -149 -162 -163 -175 -176 -199 -200 0
-23 -65 -66 -84 -85 -102 -103 -118 -120 -133 -135 -148 -149 -162 -163 -175 -176 -199 -200 0
-23 -65 -66 -84 -85 -102 -103 -119 -120 -133 -136 -148 -149 -162 -163 -175 -176 -199 -200 0
-22 -64 -65 -83 -84 -101 -102 -118 -119 -134 -135 -148 -150 -162 -163 -175 -176 -199 -200 0
-23 -64 -66 -83 -84 -101 -102 -118 -119 -134 -135 -148 -150 -162 -163 -175 -176 -199 -200 0
-23 -65 -66 -83 -85 -101 -102 -118 -119 -134 -135 -148 -150 -162 -163 -175 -176 -199 -200 0
-23 -65 -66 -84 -85 -101 -103 -118 -119 -134 -135 -148 -150 -162 -163 -175 -176 -199 -200 0
-23 -65 -66 -84 -85 -102 -103 -118 -120 -134 -135 -148 -150 -162 -163 -175 -176 -199 -200 0
-23 -65 -66 -84 -85 -102 -103 -119 -120 -134 -136 -148 -150 -162 -163 -175 -176 -199 -200 0
-23 -65 -66 -84 -85 -102 -103 -119 -120 -135 -136 -148 -151 -162 -163 -175 -176 -199 -200 0
-22 -64 -65 -83 -84 -101 -102 -118 -119 -134 -135 -149 -150 -162 -164 -175 -176 -199 -200 0
-23 -64 -66 -83 -84 -101 -102 -118 -119 -134 -135 -149 -150 -162 -164 -175 -176 -199 -200 0
-23 -65 -66 -83 -85 -101 -102 -118 -119 -134 -135 -149 -150 -162 -164 -175 -176 -199 -200 0
-23 -65 -66 -84 -85 -101 -103 -118 -119 -134 -135 -149 -150 -162 -164 -175 -176 -199 -200 0
-23 -65 -66 -84 -85 -102 -103 -118 -120 -134 -135 -149 -150 -162 -164 -175 -176 -199 -200 0
-23 -65 -66 -84 -85 -102 -103 -119 -120 -134 -136 -149 -150 -162 -164 -175 -176 -199 -200 0
-23 -65 -66 -84 -85 -102 -103 -119 -120 -135 -136 -149 -151 -162 -164 -175 -176 -199 -200 0
-23 -65 -66 -84 -85 -102 -103 -119 -120 -135 -136 -150 -151 -162 -165 -175 -176 -199 -200 0
-22 -64 -65 -83 -84 -101 -102 -118 -119 -134 -135 -149 -150 -163 -164 -175 -177 -199 -200 0
-23 -64 -66 -83 -84 -101 -102 -118 -119 -134 -135 -149 -150 -163 -164 -175 -177 -199 -200 0
-23 -65 -66 -83 -85 -101 -102 -118 -119 -134 -135 -149 -150 -163 -164 -175 -177 -199 -200 0
-23 -65 -66 -84 -85 -101 -103 -118 -119 -134 -135 -149 -150 -163 -164 -175 -177 -199 -200 0
-23 -65 -66 -84 -85 -102 -103 -118 -120 -134 -135 -149 -150 -163 -164 -175 -177 -199 -200 0
-23 -65 -66 -84 -85 -102 -103 -119 -120 -134 -136 -149 -150 -163 -164 -175 -177 -199 -200 0
-23 -65 -66 -84 -85 -102 -103 -119 -120 -135 -136 -149 -151 -163 -164 -175 -177 -199 -200 0
-23 -65 -66 -84 -85 -102 -103 -119 -120 -135 -136 -150 -151 -163 -165 -175 -177 -199 -200 0
-23 -65 -66 -84 -85 -102 -103 -119 -120 -135 -136 -150 -151 -164 -165 -175 -178 -199 -200 0
-22 -64 -65 -83 -84 -101 -102 -118 -119 -134 -135 -149 -150 -163 -164 -176 -177 -199 -201 0
-23 -64 -66 -83 -84 -101 -102 -118 -119 -134 -135 -149 -150 -163 -164 -176 -177 -199 -201 0
-23 -65 -66 -83 -85 -101 -102 -118 -119 -134 -135 -149 -150 -163 -164 -176 -177 -199 -201 0
-23 -65 -66 -84 -85 -101 -103 -118 -119 -134 -135 -149 -150 -163 -164 -176 -177 -199 -201 0
-23 -65 -66 -84 -85 -102 -103 -118 -120 -134 -135 -149 -150 -163 -164 -176 -177 -199 -201 0
-23 -65 -66 -84 -85 -102 -103 -119 -120 -134 -136 -149 -150 -163 -164 -176 -177 -199 -201 0
-23 -65 -66 -84 -85 -102 -103 -119 -120 -135 -136 -149 -151 -163 -164 -176 -177 -199 -201 0
-23 -65 -66 -84 -85 -102 -103 -119 -120 -135 -136 -150 -151 -163 -165 -176 -177 -199 -201 0
-23 -65 -66 -84 -85 -102 -103 -119 -120 -135 -136 -150 -151 -164 -165 -176 -178 -199 -201 0
-23 -65 -66 -84 -85 -102 -103 -119 -120 -135 -136 -150 -151 -164 -165 -177 -178 -199 -202 0
-22 -64 -65 -83 -84 -101 -102 -118 -119 -134 -135 -149 -150 -163 -164 -176 -177 -200 -201 0
-23 -64 -66 -83 -84 -101 -102 -118 -119 -134 -135 -149 -150 -163 -164 -176 -177 -200 -201 0
-23 -65 -66 -83 -85 -101 -102 -118 -119 -134 -135 -149 -150 -163 -164 -176 -177 -200 -201 0
-23 -65 -66 -84 -85 -101 -103 -118 -119 -134 -135 -149 -150 -163 -164 -176 -177 -200 -201 0
-23 -65 -66 -84 -85 -102 -103 -118 -120 -134 -135 -149 -150 -163 -164 -176 -177 -200 -201 0
-23 -65 -66 -84 -85 -102 -103 -119 -120 -134 -136 -149 -150 -163 -164 -176 -177 -200 -201 0
-23 -65 -66 -84 -85 -102 -103 -119 -120 -135 -136 -149 -151 -163 -164 -176 -177 -200 -201 0
-23 -65 -66 -84 -85 -102 -103 -119 -120 -135 -136 -150 -151 -163 -165 -176 -177 -200 -201 0
-23 -65 -66 -84 -85 -102 -103 -119 -120 -135 -136 -150 -151 -164 -165 -176 -178 -200 -201 0
-23 -65 -66 -84 -85 -102 -103 -119 -120 -135 -136 -150 -151 -164 -165 -177 -178 -200 -202 0
-23 -65 -66 -84 -85 -102 -103 -119 -120 -135 -136 -150 -151 -164 -165 -177 -178 -201 -202 0
-22 -64 -65 -83 -84 -101 -102 -118 -119 -134 -135 -149 -150 -163 -164 -176 -177 -211 -212 0
-23 -64 -66 -83 -84 -101 -102 -118 -119 -134 -135 -149 -150 -163 -164 -176 -177 -211 -212 0
-23 -65 -66 -83 -85 -101 -102 -118 -119 -134 -135 -149 -150 -163 -164 -176 -177 -211 -212 0
-23 -65 -66 -84 -85 -101 -103 -118 -119 -134 -135 -149 -150 -163 -164 -176 -177 -211 -212 0
-23 -65 -66 -84 -85 -102 -103 -118 -120 -134 -135 -149 -150 -163 -164 -176 -177 -211 -212 0
-23 -65 -66 -84 -85 -102 -103 -119 -120 -134 -136 -149 -150 -163 -164 -176 -177 -211 -212 0
-23 -65 -66 -84 -85 -102 -103 -119 -120 -135 -136 -149 -151 -163 -164 -176 -177 -211 -212 0
-23 -65 -66 -84 -85 -102 -103 -119 -120 -135 -136 -150 -151 -163 -165 -176 -177 -211 -212 0
-23 -65 -66 -84 -85 -102 -103 -119 -120 -135 -136 -150 -151 -164 -165 -176 -178 -211 -212 0
-23 -65 -66 -84 -85 -102 -103 -119 -120 -135 -136 -150 -151 -164 -165 -177 -178 -211 -213 0
-23 -65 -66 -84 -85 -102 -103 -119 -120 -135 -136 -150 -151 -164 -165 -177 -178 -212 -213 0
-23 -65 -66 -84 -85 -102 -103 -119 -120 -135 -136 -150 -151 -164 -165 -177 -178 -222 -223 0
-21 -63 -64 -82 -83 -100 -101 -117 -118 -133 -134 -148 -149 -162 -163 -188 -189 -199 -200 0
-22 -63 -65 -82 -83 -100 -101 -117 -118 -133 -134 -148 -149 -162 -163 -188 -189 -199 -200 0
-23 -63 -66 -82 -83 -100 -101 -117 -118 -133 -134 -148 -149 -162 -163 -188 -189 -199 -200 0
-22 -64 -65 -82 -84 -100 -101 -117 -118 -133 -134 -148 -149 -162 -163 -188 -189 -199 -200 0
-23 -64 -66 -82 -84 -100 -101 -117 -118 -133 -134 -148 -149 -162 -163 -188 -189 -199 -200 0
-23 -65 -66 -82 -85 -100 -101 -117 -118 -133 -134 -148 -149 -162 -163 -188 -189 -199 -200 0
-22 -64 -65 -83 -84 -100 -102 -117 -118 -133 -134 -148 -149 -162 -163 -188 -189 -199 -200 0
-23 -64 -66 -83 -84 -100 -102 -117 -118 -133 -134 -148 -149 -162 -163 -188 -189 -199 -200 0
-23 -65 -66 -83 -85 -100 -102 -117 -118 -133 -134 -148 -149 -162 -163 -188 -189 -199 -200 0
-23 -65 -66 -84 -85 -100 -103 -117 -118 -133 -134 -148 -149 -162 -163 -188 -189 -199 -200 0
-22 -64 -65 -83 -84 -101 -102 -117 -119 -133 -134 -148 -149 -162 -163 -188 -189 -199 -200 0
-23 -64 -66 -83 -84 -101 -102 -117 -119 -133 -134 -148 -149 -162 -163 -188 -189 -199 -200 0
-23 -65 -66 -83 -85 -101 -102 -117 -119 -133 -134 -148 -149 -162 -163 -188 -189 -199 -200 0
-23 -65 -66 -84 -85 -101 -103 -117 -119 -133 -134 -148 -149 -162 -163 -188 -189 -199 -200 0
-23 -65 -66 -84 -85 -102 -103 -117 -120 -133 -134 -148 -149 -162 -163 -188 -189 -199 -200 0
-22 -64 -65 -83 -84 -101 -102 -118 -119 -133 -135 -148 -149 -162 -163 -188 -189 -199 -200 0
-23 -64 -66 -83 -84 -101 -102 -118 -119 -133 -135 -148 -149 -162 -163 -188 -189 -199 -200 0
-23 -65 -66 -83 -85 -101 -102 -118 -119 -133 -135 -148 -149 -162 -163 -188 -189 -199 -200 0
-23 -65 -66 -84 -85 -101 -103 -118 -119 -133 -135 -148 -149 -162 -163 -188 -189 -199 -200 0
-23 -65 -66 -84 -85 -102 -103 -118 -120 -133 -135 -148 -149 -162 -163 -188 -189 -199 -200 0
-23 -65 -66 -84 -85 -102 -103 -119 -120 -133 -136 -148 -149 -162 -163 -188 -189 -199 -200 0
-22 -64 -65 -83 -84 -101 -102 -118 -119 -134 -135 -148 -150 -162 -163 -188 -189 -199 -200 0
-23 -64 -66 -83 -84 -101 -102 -118 -119 -134 -135 -148 -150 -162 -163 -188 -189 -199 -200 0
-23 -65 -66 -83 -85 -101 -102 -118 -119 -134 -135 -148 -150 -162 -163 -188 -189 -199 -200 0
-23 -65 -66 -84 -85 -101 -103 -118 -119 -134 -135 -148 -150 -162 -163 -188 -189 -199 -200 0
-23 -65 -66 -84 -85 -102 -103 -118 -120 -134 -135 -148 -150 -162 -163 -188 -189 -199 -200 0
-23 -65 -66 -84 -85 -102 -103 -119 -120 -134 -136 -148 -150 -162 -163 -188 -189 -199 -200 0
-23 -65 -66 -84 -85 -102 -103 -119 -120 -135 -136 -148 -151 -162 -163 -188 -189 -199 -200 0
-22 -64 -65 -83 -84 -101 -102 -118 -119 -134 -135 -149 -150 -162 -164 -188 -189 -199 -200 0
-23 -64 -66 -83 -84 -101 -102 -118 -119 -134 -135 -149 -150 -162 -164 -188 -189 -199 -200 0
-23 -65 -66 -83 -85 -101 -102 -118 -119 -134 -135 -149 -150 -162 -164 -188 -189 -199 -200 0
-23 -65 -66 -84 -85 -101 -103 -118 -119 -134 -135 -149 -150 -162 -164 -188 -189 -199 -200 0
-23 -65 -66 -84 -85 -102 -103 -118 -120 -134 -135 -149 -150 -162 -164 -188 -189 -199 -200 0
-23 -65 -66 -84 -85 -102 -103 -119 -120 -134 -136 -149 -150 -162 -164 -188 -189 -199 -200 0
-23 -65 -66 -84 -85 -102 -103 -119 -120 -135 -136 -149 -151 -162 -164 -188 -189 -199 -200 0
-23 -65 -66 -84 -85 -102 -103 -119 -120 -135 -136 -150 -151 -162 -165 -188 -189 -199 -200 0
-22 -64 -65 -83 -84 -101 -102 -118 -119 -134 -135 -149 -150 -163 -164 -188 -190 -199 -200 0
-23 -64 -66 -83 -84 -101 -102 -118 -119 -134 -135 -149 -150 -163 -164 -188 -190 -199 -200 0
-23 -65 -66 -83 -85 -101 -102 -118 -119 -134 -135 -149 -150 -163 -164 -188 -190 -199 -200 0
-23 -65 -66 -84 -85 -101 -103 -118 -119 -134 -135 -149 -150 -163 -164 -188 -190 -199 -200 0
-23 -65 -66 -84 -85 -102 -103 -118 -120 -134 -135 -149 -150 -163 -164 -188 -190 -199 -200 0
-23 -65 -66 -84 -85 -102 -103 -119 -120 -134 -136 -149 -150 -163 -164 -188 -190 -199 -200 0
-23 -65 -66 -84 -85 -102 -103 -119 -120 -135 -136 -149 -151 -163 -164 -188 -190 -199 -200 0
-23 -65 -66 -84 -85 -102 -103 -119 -120 -135 -136 -150 -151 -163 -165 -188 -190 -199 -200 0
-23 -65 -66 -84 -85 -102 -103 -119 -120 -135 -136 -150 -151 -164 -165 -188 -191 -199 -200 0
-22 -64 -65 -83 -84 -101 -102 -118 -119 -134 -135 -149 -150 -163 -164 -189 -190 -199 -201 0
-23 -64 -66 -83 -84 -101 -102 -118 -119 -134 -135 -149 -150 -163 -164 -189 -190 -199 -201 0
-23 -65 -66 -83 -85 -101 -102 -118 -119 -134 -135 -149 -150 -163 -164 -189 -190 -199 -201 0
-23 -65 -66 -84 -85 -101 -103 -118 -119 -134 -135 -149 -150 -163 -164 -189 -190 -199 -201 0
-23 -65 -66 -84 -85 -102 -103 -118 -120 -134 -135 -149 -150 -163 -164 -189 -190 -199 -201 0
-23 -65 -66 -84 -85 -102 -103 -119 -120 -134 -136 -149 -150 -163 -164 -189 -190 -199 -201 0
-23 -65 -66 -84 -85 -102 -103 -119 -120 -135 -136 -149 -151 -163 -164 -189 -190 -199 -201 0
-23 -65 -66 -84 -85 -102 -103 -119 -120 -135 -136 -150 -151 -163 -165 -189 -190 -199 -201 0
-23 -65 -66 -84 -85 -102 -103 -119 -120 -135 -136 -150 -151 -164 -165 -189 -191 -199 -201 0
-23 -65 -66 -84 -85 -102 -103 -119 -120 -135 -136 -150 -151 -164 -165 -190 -191 -199 -202 0
-22 -64 -65 -83 -84 -101 -102 -118 -119 -134 -135 -149 -150 -163 -164 -189 -190 -200 -201 0
-23 -64 -66 -83 -84 -101 -102 -118 -119 -134 -135 -149 -150 -163 -164 -189 -190 -200 -201 0
-23 -65 -66 -83 -85 -101 -102 -118 -119 -134 -135 -149 -150 -163 -164 -189 -190 -200 -201 0
-23 -65 -66 -84 -85 -101 -103 -118 -119 -134 -135 -149 -150 -163 -164 -189 -190 -200 -201 0
-23 -65 -66 -84 -85 -102 -103 -118 -120 -134 -135 -149 -150 -163 -164 -189 -190 -200 -201 0
-23 -65 -66 -84 -85 -102 -103 -119 -120 -134 -136 -149 -150 -163 -164 -189 -190 -200 -201 0
-23 -65 -66 -84 -85 -102 -103 -119 -120 -135 -136 -149 -151 -163 -164 -189 -190 -200 -201 0
-23 -65 -66 -84 -85 -102 -103 -119 -120 -135 -136 -150 -151 -163 -165 -189 -190 -200 -201 0
-23 -65 -66 -84 -85 -102 -103 -119 -120 -135 -136 -150 -151 -164 -165 -189 -191 -200 -201 0
-23 -65 -66 -84 -85 -102 -103 -119 -120 -135 -136 -150 -151 -164 -165 -190 -191 -200 -202 0
-23 -65 -66 -84 -85 -102 -103 -119 -120 -135 -136 -150 -151 -164 -165 -190 -191 -201 -202 0
-22 -64 -65 -83 -84 -101 -102 -118 -119 -134 -135 -149 -150 -163 -164 -189 -190 -211 -212 0
-23 -64 -66 -83 -84 -101 -102 -118 -119 -134 -135 -149 -150 -163 -164 -189 -190 -211 -212 0
-23 -65 -66 -83 -85 -101 -102 -118 -119 -134 -135 -149 -150 -163 -164 -189 -190 -211 -212 0
-23 -65 -66 -84 -85 -101 -103 -118 -119 -134 -135 -149 -150 -163 -164 -189 -190 -211 -212 0
-23 -65 -66 -84 -85 -102 -103 -118 -120 -134 -135 -149 -150 -163 -164 -189 -190 -211 -212 0
-23 -65 -66 -84 -85 -102 -103 -119 -120 -134 -136 -149 -150 -163 -164 -189 -190 -211 -212 0
-23 -65 -66 -84 -85 -102 -103 -119 -120 -135 -136 -149 -151 -163 -164 -189 -190 -211 -212 0
-23 -65 -66 -84 -85 -102 -103 -119 -120 -135 -136 -150 -151 -163 -165 -189 -190 -211 -212 0
-23 -65 -66 -84 -85 -102 -103 -119 -120 -135 -136 -150 -151 -164 -165 -189 -191 -211 -212 0
-23 -65 -66 -84 -85 -102 -103 -119 -120 -135 -136 -150 -151 -164 -165 -190 -191 -211 -213 0
-23 -65 -66 -84 -85 -102 -103 -119 -120 -135 -136 -150 -151 -164 -165 -190 -191 -212 -213 0
-23 -65 -66 -84 -85 -102 -103 -119 -120 -135 -136 -150 -151 -164 -165 -190 -191 -222 -223 0
-22 -64 -65 -83 -84 -101 -102 -118 -119 -134 -135 -149 -150 -163 -164 -201 -202 -211 -212 0
-23 -64 -66 -83 -84 -101 -102 -118 -119 -134 -135 -149 -150 -163 -164 -201 -202 -211 -212 0
-23 -65 -66 -83 -85 -101 -102 -118 -119 -134 -135 -149 -150 -163 -164 -201 -202 -211 -212 0
-23 -65 -66 -84 -85 -101 -103 -118 -119 -134 -135 -149 -150 -163 -164 -201 -202 -211 -212 0
-23 -65 -66 -84 -85 -102 -103 -118 -120 -134 -135 -149 -150 -163 -164 -201 -202 -211 -212 0
-23 -65 -66 -84 -85 -102 -103 -119 -120 -134 -136 -149 -150 -163 -164 -201 -202 -211 -212 0
-23 -65 -66 -84 -85 -102 -103 -119 -120 -135 -136 -149 -151 -163 -164 -201 -202 -211 -212 0
-23 -65 -66 -84 -85 -102 -103 -119 -120 -135 -136 -150 -151 -163 -165 -201 -202 -211 -212 0
-23 -65 -66 -84 -85 -102 -103 -119 -120 -135 -136 -150 -151 -164 -165 -201 -203 -211 -212 0
-23 -65 -66 -84 -85 -102 -103 -119 -120 -135 -136 -150 -151 -164 -165 -202 -203 -211 -213 0
-23 -65 -66 -84 -85 -102 -103 -119 -120 -135 -136 -150 -151 -164 -165 -202 -203 -212 -213 0
-23 -65 -66 -84 -85 -102 -103 -119 -120 -135 -136 -150 -151 -164 -165 -202 -203 -222 -223 0
-23 -65 -66 -84 -85 -102 -103 -119 -120 -135 -136 -150 -151 -164 -165 -213 -214 -222 -223 0
-21 -63 -64 -82 -83 -100 -101 -117 -118 -133 -134 -148 -149 -176 -177 -188 -189 -199 -200 0
-22 -63 -65 -82 -83 -100 -101 -117 -118 -133 -134 -148 -149 -176 -177 -188 -189 -199 -200 0
-23 -63 -66 -82 -83 -100 -101 -117 -118 -133 -134 -148 -149 -176 -177 -188 -189 -199 -200 0
-22 -64 -65 -82 -84 -100 -101 -117 -118 -133 -134 -148 -149 -176 -177 -188 -189 -199 -200 0
-23 -64 -66 -82 -84 -100 -101 -117 -118 -133 -134 -148 -149 -176 -177 -188 -189 -199 -200 0
-23 -65 -66 -82 -85 -100 -101 -117 -118 -133 -134 -148 -149 -176 -177 -188 -189 -199 -200 0
-22 -64 -65 -83 -84 -100 -102 -117 -118 -133 -134 -148 -149 -176 -177 -188 -189 -199 -200 0
-23 -64 -66 -83 -84 -100 -102 -117 -118 -133 -134 -148 -149 -176 -177 -188 -189 -199 -200 0
-23 -65 -66 -83 -85 -100 -102 -117 -118 -133 -134 -148 -149 -176 -177 -188 -189 -199 -200 0
-23 -65 -66 -84 -85 -100 -103 -117 -118 -133 -134 -148 -149 -176 -177 -188 -189 -199 -200 0
-22 -64 -65 -83 -84 -101 -102 -117 -119 -133 -134 -148 -149 -176 -177 -188 -189 -199 -200 0
-23 -64 -66 -83 -84 -101 -102 -117 -119 -133 -134 -148 -149 -176 -177 -188 -189 -199 -200 0
-23 -65 -66 -83 -85 -101 -102 -117 -119 -133 -134 -148 -149 -176 -177 -188 -189 -199 -200 0
-23 -65 -66 -84 -85 -101 -103 -117 -119 -133 -134 -148 -149 -176 -177 -188 -189 -199 -200 0
-23 -65 -66 -84 -85 -102 -103 -117 -120 -133 -134 -148 -149 -176 -177 -188 -189 -199 -200 0
-22 -64 -65 -83 -84 -101 -102 -118 -119 -133 -135 -148 -149 -176 -177 -188 -189 -199 -200 0
-23 -64 -66 -83 -84 -101 -102 -118 -119 -133 -135 -148 -149 -176 -177 -188 -189 -199 -200 0
-23 -65 -66 -83 -85 -101 -102 -118 -119 -133 -135 -148 -149 -176 -177 -188 -189 -199 -200 0
-23 -65 -66 -84 -85 -101 -103 -118 -119 -133 -135 -148 -149 -176 -177 -188 -189 -199 -200 0
-23 -65 -66 -84 -85 -102 -103 -118 -120 -133 -135 -148 -149 -176 -177 -188 -189 -199 -200 0
-23 -65 -66 -84 -85 -102 -103 -119 -120 -133 -136 -148 -149 -176 -177 -188 -189 -199 -200 0
-22 -64 -65 -83 -84 -101 -102 -118 -119 -134 -135 -148 -150 -176 -177 -188 -189 -199 -200 0
-23 -64 -66 -83 -84 -101 -102 -118 -119 -134 -135 -148 -150 -176 -177 -188 -189 -199 -200 0
-23 -65 -66 -83 -85 -101 -102 -118 -119 -134 -135 -148 -150 -176 -177 -188 -189 -199 -200 0
-23 -65 -66 -84 -85 -101 -103 -118 -119 -134 -135 -148 -150 -176 -177 -188 -189 -199 -200 0
-23 -65 -66 -84 -85 -102 -103 -118 -120 -134 -135 -148 -150 -176 -177 -188 -189 -199 -200 0
-23 -65 -66 -84 -85 -102 -103 -119 -120 -134 -136 -148 -150 -176 -177 -188 -189 -199 -200 0
-23 -65 -66 -84 -85 -102 -103 -119 -120 -135 -136 -148 -151 -176 -177 -188 -189 -199 -200 0
-22 -64 -65 -83 -84 -101 -102 -118 -119 -134 -135 -149 -150 -176 -178 -188 -189 -199 -200 0
-23 -64 -66 -83 -84 -101 -102 -118 -119 -134 -135 -149 -150 -176 -178 -188 -189 -199 -200 0
-23 -65 -66 -83 -85 -101 -102 -118 -119 -134 -135 -149 -150 -176 -178 -188 -189 -199 -200 0
-23 -65 -66 -84 -85 -101 -103 -118 -119 -134 -135 -149 -150 -176 -178 -188 -189 -199 -200 0
-23 -65 -66 -84 -85 -102 -103 -118 -120 -134 -135 -149 -150 -176 -178 -188 -189 -199 -200 0
-23 -65 -66 -84 -85 -102 -103 -119 -120 -134 -136 -149 -150 -176 -178 -188 -189 -199 -200 0
-23 -65 -66 -84 -85 -102 -103 -119 -120 -135 -136 -149 -151 -176 -178 -188 -189 -199 -200 0
-23 -65 -66 -84 -85 -102 -103 -119 -120 -135 -136 -150 -151 -176 -179 -188 -189 -199 -200 0
-22 -64 -65 -83 -84 -101 -102 -118 -119 -134 -135 -149 -150 -177 -178 -188 -190 -199 -200 0
-23 -64 -66 -83 -84 -101 -102 -118 -119 -134 -135 -149 -150 -177 -178 -188 -190 -199 -200 0
-23 -65 -66 -83 -85 -101 -102 -118 -119 -134 -135 -149 -150 -177 -178 -188 -190 -199 -200 0
-23 -65 -66 -84 -85 -101 -103 -118 -119 -134 -135 -149 -150 -177 -178 -188 -190 -199 -200 0
-23 -65 -66 -84 -85 -102 -103 -118 -120 -134 -135 -149 -150 -177 -178 -188 -190 -199 -200 0
-23 -65 -66 -84 -85 -102 -103 -119 -120 -134 -136 -149 -150 -177 -178 -188 -190 -199 -200 0
-23 -65 -66 -84 -85 -102 -103 -119 -120 -135 -136 -149 -151 -177 -178 -188 -190 -199 -200 0
-23 -65 -66 -84 -85 -102 -103 -119 -120 -135 -136 -150 -151 -177 -179 -188 -190 -199 -200 0
-23 -65 -66 -84 -85 -102 -103 -119 -120 -135 -136 -150 -151 -178 -179 -188 -191 -199 -200 0
-22 -64 -65 -83 -84 -101 -102 -118 -119 -134 -135 -149 -150 -177 -178 -189 -190 -199 -201 0
-23 -64 -66 -83 -84 -101 -102 -118 -119 -134 -135 -149 -150 -177 -178 -189 -190 -199 -201 0
-23 -65 -66 -83 -85 -101 -102 -118 -119 -134 -135 -149 -150 -177 -178 -189 -190 -199 -201 0
-23 -65 -66 -84 -85 -101 -103 -118 -119 -134 -135 -149 -150 -177 -178 -189 -190 -199 -201 0
-23 -65 -66 -84 -85 -102 -103 -118 -120 -134 -135 -149 -150 -177 -178 -189 -190 -199 -201 0
-23 -65 -66 -84 -85 -102 -103 -119 -120 -134 -136 -149 -150 -177 -178 -189 -190 -199 -201 0
-23 -65 -66 -84 -85 -102 -103 -119 -120 -135 -136 -149 -151 -177 -178 -189 -190 -199 -201 0
-23 -65 -66 -84 -85 -102 -103 -119 -120 -135 -136 -150 -151 -177 -179 -189 -190 -199 -201 0
-23 -65 -66 -84 -85 -102 -103 -119 -120 -135 -136 -150 -151 -178 -179 -189 -191 -199 -201 0
-23 -65 -66 -84 -85 -102 -103 -119 -120 -135 -136 -150 -151 -178 -179 -190 -191 -199 -202 0
-22 -64 -65 -83 -84 -101 -102 -118 -119 -134 -135 -149 -150 -177 -178 -189 -190 -200 -201 0
-23 -64 -66 -83 -84 -101 -102 -118 -119 -134 -135 -149 -150 -177 -178 -189 -190 -200 -201 0
-23 -65 -66 -83 -85 -101 -102 -118 -119 -134 -135 -149 -150 -177 -178 -189 -190 -200 -201 0
-23 -65 -66 -84 -85 -101 -103 -118 -119 -134 -135 -149 -150 -177 -178 -189 -190 -200 -201 0
-23 -65 -66 -84 -85 -102 -103 -118 -120 -134 -135 -149 -150 -177 -178 -189 -190 -200 -201 0
-23 -65 -66 -84 -85 -102 -103 -119 -120 -134 -136 -149 -150 -177 -178 -189 -190 -200 -201 0
-23 -65 -66 -84 -85 -102 -103 -119 -120 -135 -136 -149 -151 -177 -178 -189 -190 -200 -201 0
-23 -65 -66 -84 -85 -102 -103 -119 -120 -135 -136 -150 -151 -177 -179 -189 -190 -200 -201 0
-23 -65 -66 -84 -85 -102 -103 -119 -120 -135 -136 -150 -151 -178 -179 -189 -191 -200 -201 0
-23 -65 -66 -84 -85 -102 -103 -119 -120 -135 -136 -150 -151 -178 -179 -190 -191 -200 -202 0
-23 -65 -66 -84 -85 -102 -103 -119 -120 -135 -136 -150 -151 -178 -179 -190 -191 -201 -202 0
-22 -64 -65 -83 -84 -101 -102 -118 -119 -134 -135 -149 -150 -177 -178 -189 -190 -211 -212 0
-23 -64 -66 -83 -84 -101 -102 -118 -119 -134 -135 -149 -150 -177 -178 -189 -190 -211 -212 0
-23 -65 -66 -83 -85 -101 -102 -118 -119 -134 -135 -149 -150 -177 -178 -189 -190 -211 -212 0
-23 -65 -66 -84 -85 -101 -103 -118 -119 -134 -135 -149 -150 -177 -178 -189 -190 -211 -212 0
-23 -65 -66 -84 -85 -102 -103 -118 -120 -134 -135 -149 -150 -177 -178 -189 -190 -211 -212 0
-23 -65 -66 -84 -85 -102 -103 -119 -120 -134 -136 -149 -150 -177 -178 -189 -190 -211 -212 0
-23 -65 -66 -84 -85 -102 -103 -119 -120 -135 -136 -149 -151 -177 -178 -189 -190 -211 -212 0
-23 -65 -66 -84 -85 -102 -103 -119 -120 -135 -136 -150 -151 -177 -179 -189 -190 -211 -212 0
-23 -65 -66 -84 -85 -102 -103 -119 -120 -135 -136 -150 -151 -178 -179 -189 -191 -211 -212 0
-23 -65 -66 -84 -85 -102 -103 -119 -120 -135 -136 -150 -151 -178 -179 -190 -191 -211 -213 0
-23 -65 -66 -84 -85 -102 -103 -119 -120 -135 -136 -150 -151 -178 -179 -190 -191 -212 -213 0
-23 -65 -66 -84 -85 -102 -103 -119 -120 -135 -136 -150 -151 -178 -179 -190 -191 -222 -223 0
-22 -64 -65 -83 -84 -101 -102 -118 -119 -134 -135 -149 -150 -177 -178 -201 -202 -211 -212 0
-23 -64 -66 -83 -84 -101 -102 -118 -119 -134 -135 -149 -150 -177 -178 -201 -202 -211 -212 0
-23 -65 -66 -83 -85 -101 -102 -118 -119 -134 -135 -149 -150 -177 -178 -201 -202 -211 -212 0
-23 -65 -66 -84 -85 -101 -103 -118 -119 -134 -135 -149 -150 -177 -178 -201 -202 -211 -212 0
-23 -65 -66 -84 -85 -102 -103 -118 -120 -134 -135 -149 -150 -177 -178 -201 -202 -211 -212 0
-23 -65 -66 -84 -85 -102 -103 -119 -120 -134 -136 -149 -150 -177 -178 -201 -202 -211 -212 0
-23 -65 -66 -84 -85 -102 -103 -119 -120 -135 -136 -149 -151 -177 -178 -201 -202 -211 -212 0
-23 -65 -66 -84 -85 -102 -103 -119 -120 -135 -136 -150 -151 -177 -179 -201 -202 -211 -212 0
-23 -65 -66 -84 -85 -102 -103 -119 -120 -135 -136 -150 -151 -178 -179 -201 -203 -211 -212 0
-23 -65 -66 -84 -85 -102 -103 -119 -120 -135 -136 -150 -151 -178 -179 -202 -203 -211 -213 0
-23 -65 -66 -84 -85 -102 -103 -119 -120 -135 -136 -150 -151 -178 -179 -202 -203 -212 -213 0
-23 -65 -66 -84 -85 -102 -103 -119 -120 -135 -136 -150 -151 -178 -179 -202 -203 -222 -223 0
-23 -65 -66 -84 -85 -102 -103 -119 -120 -135 -136 -150 -151 -178 -179 -213 -214 -222 -223 0
-22 -64 -65 -83 -84 -101 -102 -118 -119 -134 -135 -149 -150 -190 -191 -201 -202 -211 -212 0
-23 -64 -66 -83 -84 -101 -102 -118 -119 -134 -135 -149 -150 -190 -191 -201 -202 -211 -212 0
-23 -65 -66 -83 -85 -101 -102 -118 -119 -134 -135 -149 -150 -190 -191 -201 -202 -211 -212 0
-23 -65 -66 -84 -85 -101 -103 -118 -119 -134 -135 -149 -150 -190 -191 -201 -202 -211 -212 0
-23 -65 -66 -84 -85 -102 -103 -118 -120 -134 -135 -149 -150 -190 -191 -201 -202 -211 -212 0
-23 -65 -66 -84 -85 -102 -103 -119 -120 -134 -136 -149 -150 -190 -191 -201 -202 -211 -212 0
-23 -65 -66 -84 -85 -102 -103 -119 -120 -135 -136 -149 -151 -190 -191 -201 -202 -211 -212 0
-23 -65 -66 -84 -85 -102 -103 -119 -120 -135 -136 -150 -151 -190 -192 -201 -202 -211 -212 0
-23 -65 -66 -84 -85 -102 -103 -119 -120 -135 -136 -150 -151 -191 -192 -201 -203 -211 -212 0
-23 -65 -66 -84 -85 -102 -103 -119 -120 -135 -136 -150 -151 -191 -192 -202 -203 -211 -213 0
-23 -65 -66 -84 -85 -102 -103 -119 -120 -135 -136 -150 -151 -191 -192 -202 -203 -212 -213 0
-23 -65 -66 -84 -85 -102 -103 -119 -120 -135 -136 -150 -151 -191 -192 -202 -203 -222 -223 0
-23 -65 -66 -84 -85 -102 -103 -119 -120 -135 -136 -150 -151 -191 -192 -213 -214 -222 -223 0
-23 -65 -66 -84 -85 -102 -103 -119 -120 -135 -136 -150 -151 -203 -204 -213 -214 -222 -223 0
-21 -63 -64 -82 -83 -100 -101 -117 -118 -133 -134 -163 -164 -176 -177 -188 -189 -199 -200 0
-22 -63 -65 -82 -83 -100 -101 -117 -118 -133 -134 -163 -164 -176 -177 -188 -189 -199 -200 0
-23 -63 -66 -82 -83 -100 -101 -117 -118 -133 -134 -163 -164 -176 -177 -188 -189 -199 -200 0
-22 -64 -65 -82 -84 -100 -101 -117 -118 -133 -134 -163 -164 -176 -177 -188 -189 -199 -200 0
-23 -64 -66 -82 -84 -100 -101 -117 -118 -133 -134 -163 -164 -176 -177 -188 -189 -199 -200 0
-23 -65 -66 -82 -85 -100 -101 -117 -118 -133 -134 -163 -164 -176 -177 -188 -189 -199 -200 0
-22 -64 -65 -83 -84 -100 -102 -117 -118 -133 -134 -163 -164 -176 -177 -188 -189 -199 -200 0
-23 -64 -66 -83 -84 -100 -102 -117 -118 -133 -134 -163 -164 -176 -177 -188 -189 -199 -200 0
-23 -65 -66 -83 -85 -100 -102 -117 -118 -133 -134 -163 -164 -176 -177 -188 -189 -199 -200 0
-23 -65 -66 -84 -85 -100 -103 -117 -118 -133 -134 -163 -164 -176 -177 -188 -189 -199 -200 0
-22 -64 -65 -83 -84 -101 -102 -117 -119 -133 -134 -163 -164 -176 -177 -188 -189 -199 -200 0
-23 -64 -66 -83 -84 -101 -102 -117 -119 -133 -134 -163 -164 -176 -177 -188 -189 -199 -200 0
-23 -65 -66 -83 -85 -101 -102 -117 -119 -133 -134 -163 -164 -176 -177 -188 -189 -199 -200 0
-23 -65 -66 -84 -85 -101 -103 -117 -119 -133 -134 -163 -164 -176 -177 -188 -189 -199 -200 0
-23 -65 -66 -84 -85 -102 -103 -117 -120 -133 -134 -163 -164 -176 -177 -188 -189 -199 -200 0
-22 -64 -65 -83 -84 -101 -102 -118 -119 -133 -135 -163 -164 -176 -177 -188 -189 -199 -200 0
-23 -64 -66 -83 -84 -101 -102 -118 -119 -133 -135 -163 -164 -176 -177 -188 -189 -199 -200 0
-23 -65 -66 -83 -85 -101 -102 -118 -119 -133 -135 -163 -164 -176 -177 -188 -189 -199 -200 0
-23 -65 -66 -84 -85 -101 -103 -118 -119 -133 -135 -163 -164 -176 -177 -188 -189 -199 -200 0
-23 -65 -66 -84 -85 -102 -103 -118 -120 -133 -135 -163 -164 -176 -177 -188 -189 -199 -200 0
-23 -65 -66 -84 -85 -102 -103 -119 -120 -133 -136 -163 -164 -176 -177 -188 -189 -199 -200 0
-22 -64 -65 -83 -84 -101 -102 -118 -119 -134 -135 -163 -165 -176 -177 -188 -189 -199 -200 0
-23 -64 -66 -83 -84 -101 -102 -118 -119 -134 -135 -163 -165 -176 -177 -188 -189 -199 -200 0
-23 -65 -66 -83 -85 -101 -102 -118 -119 -134 -135 -163 -165 -176 -177 -188 -189 -199 -200 0
-23 -65 -66 -84 -85 -101 -103 -118 -119 -134 -135 -163 -165 -176 -177 -188 -189 -199 -200 0
-23 -65 -66 -84 -85 -102 -103 -118 -120 -134 -135 -163 -165 -176 -177 -188 -189 -199 -200 0
-23 -65 -66 -84 -85 -102 -103 -119 -120 -134 -136 -163 -165 -176 -177 -188 -189 -199 -200 0
-23 -65 -66 -84 -85 -102 -103 -119 -120 -135 -136 -163 -166 -176 -177 -188 -189 -199 -200 0
-22 -64 -65 -83 -84 -101 -102 -118 -119 -134 -135 -164 -165 -176 -178 -188 -189 -199 -200 0
-23 -64 -66 -83 -84 -101 -102 -118 -119 -134 -135 -164 -165 -176 -178 -188 -189 -199 -200 0
-23 -65 -66 -83 -85 -101 -102 -118 -119 -134 -135 -164 -165 -176 -178 -188 -189 -199 -200 0
-23 -65 -66 -84 -85 -101 -103 -118 -119 -134 -135 -164 -165 -176 -178 -188 -189 -199 -200 0
-23 -65 -66 -84 -85 -102 -103 -118 -120 -134 -135 -164 -165 -176 -178 -188 -189 -199 -200 0
-23 -65 -66 -84 -85 -102 -103 -119 -120 -134 -136 -164 -165 -176 -178 -188 -189 -199 -200 0
-23 -65 -66 -84 -85 -102 -103 -119 -120 -135 -136 -164 -166 -176 -178 -188 -189 -199 -200 0
-23 -65 -66 -84 -85 -102 -103 -119 -120 -135 -136 -165 -166 -176 -179 -188 -189 -199 -200 0
-22 -64 -65 -83 -84 -101 -102 -118 -119 -134 -135 -164 -165 -177 -178 -188 -190 -199 -200 0
-23 -64 -66 -83 -84 -101 -102 -118 -119 -134 -135 -164 -165 -177 -178 -188 -190 -199 -200 0
-23 -65 -66 -83 -85 -101 -102 -118 -119 -134 -135 -164 -165 -177 -178 -188 -190 -199 -200 0
-23 -65 -66 -84 -85 -101 -103 -118 -119 -134 -135 -164 -165 -177 -178 -188 -190 -199 -200 0
-23 -65 -66 -84 -85 -102 -103 -118 -120 -134 -135 -164 -165 -177 -178 -188 -190 -199 -200 0
-23 -65 -66 -84 -85 -102 -103 -119 -120 -134 -136 -164 -165 -177 -178 -188 -190 -199 -200 0
-23 -65 -66 -84 -85 -102 -103 -119 -120 -135 -136 -164 -166 -177 -178 -188 -190 -199 -200 0
-23 -65 -66 -84 -85 -102 -103 -119 -120 -135 -136 -165 -166 -177 -179 -188 -190 -199 -200 0
-23 -65 -66 -84 -85 -102 -103 -119 -120 -135 -136 -165 -166 -178 -179 -188 -191 -199 -200 0
-22 -64 -65 -83 -84 -101 -102 -118 -119 -134 -135 -164 -165 -177 -178 -189 -190 -199 -201 0
-23 -64 -66 -83 -84 -101 -102 -118 -119 -134 -135 -164 -165 -177 -178 -189 -190 -199 -201 0
-23 -65 -66 -83 -85 -101 -102 -118 -119 -134 -135 -164 -165 -177 -178 -189 -190 -199 -201 0
-23 -65 -66 -84 -85 -101 -103 -118 -119 -134 -135 -164 -165 -177 -178 -189 -190 -199 -201 0
-23 -65 -66 -84 -85 -102 -103 -118 -120 -134 -135 -164 -165 -177 -178 -189 -190 -199 -201 0
-23 -65 -66 -84 -85 -102 -103 -119 -120 -134 -136 -164 -165 -177 -178 -189 -190 -199 -201 0
-23 -65 -66 -84 -85 -102 -103 -119 -120 -135 -136 -164 -166 -177 -178 -189 -190 -199 -201 0
-23 -65 -66 -84 -85 -102 -103 -119 -120 -135 -136 -165 -166 -177 -179 -189 -190 -199 -201 0
-23 -65 -66 -84 -85 -102 -103 -119 -120 -135 -136 -165 -166 -178 -179 -189 -191 -199 -201 0
-23 -65 -66 -84 -85 -102 -103 -119 -120 -135 -136 -165 -166 -178 -179 -190 -191 -199 -202 0
-22 -64 -65 -83 -84 -101 -102 -118 -119 -134 -135 -164 -165 -177 -178 -189 -190 -200 -201 0
-23 -64 -66 -83 -84 -101 -102 -118 -119 -134 -135 -164 -165 -177 -178 -189 -190 -200 -201 0
-23 -65 -66 -83 -85 -101 -102 -118 -119 -134 -135 -164 -165 -177 -178 -189 -190 -200 -201 0
-23 -65 -66 -84 -85 -101 -103 -118 -119 -134 -135 -164 -165 -177 -178 -189 -190 -200 -201 0
-23 -65 -66 -84 -85 -102 -103 -118 -120 -134 -135 -164 -165 -177 -178 -189 -190 -200 -201 0
-23 -65 -66 -84 -85 -102 -103 -119 -120 -134 -136 -164 -165 -177 -178 -189 -190 -200 -201 0
-23 -65 -66 -84 -85 -102 -103 -119 -120 -135 -136 -164 -166 -177 -178 -189 -190 -200 -201 0
-23 -65 -66 -84 -85 -102 -103 -119 -120 -135 -136 -165 -166 -177 -179 -189 -190 -200 -201 0
-23 -65 -66 -84 -85 -102 -103 -119 -120 -135 -136 -165 -166 -178 -179 -189 -191 -200 -201 0
-23 -65 -66 -84 -85 -102 -103 -119 -120 -135 -136 -165 -166 -178 -179 -190 -191 -200 -202 0
-23 -65 -66 -84 -85 -102 -103 -119 -120 -135 -136 -165 -166 -178 -179 -190 -191 -201 -202 0
-22 -64 -65 -83 -84 -101 -102 -118 -119 -134 -135 -164 -165 -177 -178 -189 -190 -211 -212 0
-23 -64 -66 -83 -84 -101 -102 -118 -119 -134 -135 -164 -165 -177 -178 -189 -190 -211 -212 0
-23 -65 -66 -83 -85 -101 -102 -118 -119 -134 -135 -164 -165 -177 -178 -189 -190 -211 -212 0
-23 -65 -66 -84 -85 -101 -103 -118 -119 -134 -135 -164 -165 -177 -178 -189 -190 -211 -212 0
-23 -65 -66 -84 -85 -102 -103 -118 -120 -134 -135 -164 -165 -177 -178 -189 -190 -211 -212 0
-23 -65 -66 -84 -85 -102 -103 -119 -120 -134 -136 -164 -165 -177 -178 -189 -190 -211 -212 0
-23 -65 -66 -84 -85 -102 -103 -119 -120 -135 -136 -164 -166 -177 -178 -189 -190 -211 -212 0
-23 -65 -66 -84 -85 -102 -103 -119 -120 -135 -136 -165 -166 -177 -179 -189 -190 -211 -212 0
-23 -65 -66 -84 -85 -102 -103 -119 -120 -135 -136 -165 -166 -178 -179 -189 -191 -211 -212 0
-23 -65 -66 -84 -85 -102 -103 -119 -120 -135 -136 -165 -166 -178 -179 -190 -191 -211 -213 0
-23 -65 -66 -84 -85 -102 -103 -119 -120 -135 -136 -165 -166 -178 -179 -190 -191 -212 -213 0
-23 -65 -66 -84 -85 -102 -103 -119 -120 -135 -136 -165 -166 -178 -179 -190 -191 -222 -223 0
-22 -64 -65 -83 -84 -101 -102 -118 -119 -134 -135 -164 -165 -177 -178 -201 -202 -211 -212 0
-23 -64 -66 -83 -84 -101 -102 -118 -119 -134 -135 -164 -165 -177 -178 -201 -202 -211 -212 0
-23 -65 -66 -83 -85 -101 -102 -118 -119 -134 -135 -164 -165 -177 -178 -201 -202 -211 -212 0
-23 -65 -66 -84 -85 -101 -103 -118 -119 -134 -135 -164 -165 -177 -178 -201 -202 -211 -212 0
-23 -65 -66 -84 -85 -102 -103 -118 -120 -134 -135 -164 -165 -177 -178 -201 -202 -211 -212 0
-23 -65 -66 -84 -85 -102 -103 -119 -120 -134 -136 -164 -165 -177 -178 -201 -202 -211 -212 0
-23 -65 -66 -84 -85 -102 -103 -119 -120 -135 -136 -164 -166 -177 -178 -201 -202 -211 -212 0
-23 -65 -66 -84 -85 -102 -103 -119 -120 -135 -136 -165 -166 -177 -179 -201 -202 -211 -212 0
-23 -65 -66 -84 -85 -102 -103 -119 -120 -135 -136 -165 -166 -178 -179 -201 -203 -211 -212 0
-23 -65 -66 -84 -85 -102 -103 -119 -120 -135 -136 -165 -166 -178 -179 -202 -203 -211 -213 0
-23 -65 -66 -84 -85 -102 -103 -119 -120 -135 -136 -165 -166 -178 -179 -202 -203 -212 -213 0
-23 -65 -66 -84 -85 -102 -103 -119 -120 -135 -136 -165 -166 -178 -179 -202 -203 -222 -223 0
-23 -65 -66 -84 -85 -102 -103 -119 -120 -135 -136 -165 -166 -178 -179 -213 -214 -222 -223 0
-22 -64 -65 -83 -84 -101 -102 -118 -119 -134 -135 -164 -165 -190 -191 -201 -202 -211 -212 0
-23 -64 -66 -83 -84 -101 -102 -118 -119 -134 -135 -164 -165 -190 -191 -201 -202 -211 -212 0
-23 -65 -66 -83 -85 -101 -102 -118 -119 -134 -135 -164 -165 -190 -191 -201 -202 -211 -212 0
-23 -65 -66 -84 -85 -101 -103 -118 -119 -134 -135 -164 -165 -190 -191 -201 -202 -211 -212 0
-23 -65 -66 -84 -85 -102 -103 -118 -120 -134 -135 -164 -165 -190 -191 -201 -202 -211 -212 0
-23 -65 -66 -84 -85 -102 -103 -119 -120 -134 -136 -164 -165 -190 -191 -201 -202 -211 -212 0
-23 -65 -66 -84 -85 -102 -103 -119 -120 -135 -136 -164 -166 -190 -191 -201 -202 -211 -212 0
-23 -65 -66 -84 -85 -102 -103 -119 -120 -135 -136 -165 -166 -190 -192 -201 -202 -211 -212 0
-23 -65 -66 -84 -85 -102 -103 -119 -120 -135 -136 -165 -166 -191 -192 -201 -203 -211 -212 0
-23 -65 -66 -84 -85 -102 -103 -119 -120 -135 -136 -165 -166 -191 -192 -202 -203 -211 -213 0
-23 -65 -66 -84 -85 -102 -103 -119 -120 -135 -136 -165 -166 -191 -192 -202 -203 -212 -213 0
-23 -65 -66 -84 -85 -102 -103 -119 -120 -135 -136 -165 -166 -191 -192 -202 -203 -222 -223 0
-23 -65 -66 -84 -85 -102 -103 -119 -120 -135 -136 -165 -166 -191 -192 -213 -214 -222 -223 0
-23 -65 -66 -84 -85 -102 -103 -119 -120 -135 -136 -165 -166 -203 -204 -213 -214 -222 -223 0
-22 -64 -65 -83 -84 -101 -102 -118 -119 -134 -135 -178 -179 -190 -191 -201 -202 -211 -212 0
-23 -64 -66 -83 -84 -101 -102 -118 -119 -134 -135 -178 -179 -190 -191 -201 -202 -211 -212 0
-23 -65 -66 -83 -85 -101 -102 -118 -119 -134 -135 -178 -179 -190 -191 -201 -202 -211 -212 0
-23 -65 -66 -84 -85 -101 -103 -118 -119 -134 -135 -178 -179 -190 -191 -201 -202 -211 -212 0
-23 -65 -66 -84 -85 -102 -103 -118 -120 -134 -135 -178 -179 -190 -191 -201 -202 -211 -212 0
-23 -65 -66 -84 -85 -102 -103 -119 -120 -134 -136 -178 -179 -190 -191 -201 -202 -211 -212 0
-23 -65 -66 -84 -85 -102 -103 -119 -120 -135 -136 -178 -180 -190 -191 -201 -202 -211 -212 0
-23 -65 -66 -84 -85 -102 -103 -119 -120 -135 -136 -179 -180 -190 -192 -201 -202 -211 -212 0
-23 -65 -66 -84 -85 -102 -103 -119 -120 -135 -136 -179 -180 -191 -192 -201 -203 -211 -212 0
-23 -65 -66 -84 -85 -102 -103 -119 -120 -135 -136 -179 -180 -191 -192 -202 -203 -211 -213 0
-23 -65 -66 -84 -85 -102 -103 -119 -120 -135 -136 -179 -180 -191 -192 -202 -203 -212 -213 0
-23 -65 -66 -84 -85 -102 -103 -119 -120 -135 -136 -179 -180 -191 -192 -202 -203 -222 -223 0
-23 -65 -66 -84 -85 -102 -103 -119 -120 -135 -136 -179 -180 -191 -192 -213 -214 -222 -223 0
-23 -65 -66 -84 -85 -102 -103 -119 -120 -135 -136 -179 -180 -203 -204 -213 -214 -222 -223 0
-23 -65 -66 -84 -85 -102 -103 -119 -120 -135 -136 -192 -193 -203 -204 -213 -214 -222 -223 0
-21 -63 -64 -82 -83 -100 -101 -117 -118 -149 -150 -163 -164 -176 -177 -188 -189 -199 -200 0
-22 -63 -65 -82 -83 -100 -101 -117 -118 -149 -150 -163 -164 -176 -177 -188 -189 -199 -200 0
-23 -63 -66 -82 -83 -100 -101 -117 -118 -149 -150 -163 -164 -176 -177 -188 -189 -199 -200 0
-22 -64 -65 -82 -84 -100 -101 -117 -118 -149 -150 -163 -164 -176 -177 -188 -189 -199 -200 0
-23 -64 -66 -82 -84 -100 -101 -117 -118 -149 -150 -163 -164 -176 -177 -188 -189 -199 -200 0
-23 -65 -66 -82 -85 -100 -101 -117 -118 -149 -150 -163 -164 -176 -177 -188 -189 -199 -200 0
-22 -64 -65 -83 -84 -100 -102 -117 -118 -149 -150 -163 -164 -176 -177 -188 -189 -199 -200 0
-23 -64 -66 -83 -84 -100 -102 -117 -118 -149 -150 -163 -164 -176 -177 -188 -189 -199 -200 0
-23 -65 -66 -83 -85 -100 -102 -117 -118 -149 -150 -163 -164 -176 -177 -188 -189 -199 -200 0
-23 -65 -66 -84 -85 -100 -103 -117 -118 -149 -150 -163 -164 -176 -177 -188 -189 -199 -200 0
-22 -64 -65 -83 -84 -101 -102 -117 -119 -149 -150 -163 -164 -176 -177 -188 -189 -199 -200 0
-23 -64 -66 -83 -84 -101 -102 -117 -119 -149 -150 -163 -164 -176 -177 -188 -189 -199 -200 0
-23 -65 -66 -83 -85 -101 -102 -117 -119 -149 -150 -163 -164 -176 -177 -188 -189 -199 -200 0
-23 -65 -66 -84 -85 -101 -103 -117 -119 -149 -150 -163 -164 -176 -177 -188 -189 -199 -200 0
-23 -65 -66 -84 -85 -102 -103 -117 -120 -149 -150 -163 -164 -176 -177 -188 -189 -199 -200 0
-22 -64 -65 -83 -84 -101 -102 -118 -119 -149 -151 -163 -164 -176 -177 -188 -189 -199 -200 0
-23 -64 -66 -83 -84 -101 -102 -118 -119 -149 -151 -163 -164 -176 -177 -188 -189 -199 -200 0
-23 -65 -66 -83 -85 -101 -102 -118 -119 -149 -151 -163 -164 -176 -177 -188 -189 -199 -200 0
-23 -65 -66 -84 -85 -101 -103 -118 -119 -149 -151 -163 -164 -176 -177 -188 -189 -199 -200 0
-23 -65 -66 -84 -85 -102 -103 -118 -120 -149 -151 -163 -164 -176 -177 -188 -189 -199 -200 0
-23 -65 -66 -84 -85 -102 -103 -119 -120 -149 -152 -163 -164 -176 -177 -188 -189 -199 -200 0
-22 -64 -65 -83 -84 -101 -102 -118 -119 -150 -151 -163 -165 -176 -177 -188 -189 -199 -200 0
-23 -64 -66 -83 -84 -101 -102 -118 -119 -150 -151 -163 -165 -176 -177 -188 -189 -199 -200 0
-23 -65 -66 -83 -85 -101 -102 -118 -119 -150 -151 -163 -165 -176 -177 -188 -189 -199 -200 0
-23 -65 -66 -84 -85 -101 -103 -118 -119 -150 -151 -163 -165 -176 -177 -188 -189 -199 -200 0
-23 -65 -66 -84 -85 -102 -103 -118 -120 -150 -151 -163 -165 -176 -177 -188 -189 -199 -200 0
-23 -65 -66 -84 -85 -102 -103 -119 -120 -150 -152 -163 -165 -176 -177 -188 -189 -199 -200 0
-23 -65 -66 -84 -85 -102 -103 -119 -120 -151 -152 -163 -166 -176 -177 -188 -189 -199 -200 0
-22 -64 -65 -83 -84 -101 -102 -118 -119 -150 -151 -164 -165 -176 -178 -188 -189 -199 -200 0
-23 -64 -66 -83 -84 -101 -102 -118 -119 -150 -151 -164 -165 -176 -178 -188 -189 -199 -200 0
-23 -65 -66 -83 -85 -101 -102 -118 -119 -150 -151 -164 -165 -176 -178 -188 -189 -199 -200 0
-23 -65 -66 -84 -85 -101 -103 -118 -119 -150 -151 -164 -165 -176 -178 -188 -189 -199 -200 0
-23 -65 -66 -84 -85 -102 -103 -118 -120 -150 -151 -164 -165 -176 -178 -188 -189 -199 -200 0
-23 -65 -66 -84 -85 -102 -103 -119 -120 -150 -152 -164 -165 -176 -178 -188 -189 -199 -200 0
-23 -65 -66 -84 -85 -102 -103 -119 -120 -151 -152 -164 -166 -176 -178 -188 -189 -199 -200 0
-23 -65 -66 -84 -85 -102 -103 -119 -120 -151 -152 -165 -166 -176 -179 -188 -189 -199 -200 0
-22 -64 -65 -83 -84 -101 -102 -118 -119 -150 -151 -164 -165 -177 -178 -188 -190 -199 -200 0
-23 -64 -66 -83 -84 -101 -102 -118 -119 -150 -151 -164 -165 -177 -178 -188 -190 -199 -200 0
-23 -65 -66 -83 -85 -101 -102 -118 -119 -150 -151 -164 -165 -177 -178 -188 -190 -199 -200 0
-23 -65 -66 -84 -85 -101 -103 -118 -119 -150 -151 -164 -165 -177 -178 -188 -190 -199 -200 0
-23 -65 -66 -84 -85 -102 -103 -118 -120 -150 -151 -164 -165 -177 -178 -188 -190 -199 -200 0
-23 -65 -66 -84 -85 -102 -103 -119 -120 -150 -152 -164 -165 -177 -178 -188 -190 -199 -200 0
-23 -65 -66 -84 -85 -102 -103 -119 -120 -151 -152 -164 -166 -177 -178 -188 -190 -199 -200 0
-23 -65 -66 -84 -85 -102 -103 -119 -120 -151 -152 -165 -166 -177 -179 -188 -190 -199 -200 0
-23 -65 -66 -84 -85 -102 -103 -119 -120 -151 -152 -165 -166 -178 -179 -188 -191 -199 -200 0
-22 -64 -65 -83 -84 -101 -102 -118 -119 -150 -151 -164 -165 -177 -178 -189 -190 -199 -201 0
-23 -64 -66 -83 -84 -101 -102 -118 -119 -150 -151 -164 -165 -177 -178 -189 -190 -199 -201 0
-23 -65 -66 -83 -85 -101 -102 -118 -119 -150 -151 -164 -165 -177 -178 -189 -190 -199 -201 0
-23 -65 -66 -84 -85 -101 -103 -118 -119 -150 -151 -164 -165 -177 -178 -189 -190 -199 -201 0
-23 -65 -66 -84 -85 -102 -103 -118 -120 -150 -151 -164 -165 -177 -178 -189 -190 -199 -201 0
-23 -65 -66 -84 -85 -102 -103 -119 -120 -150 -152 -164 -165 -177 -178 -189 -190 -199 -201 0
-23 -65 -66 -84 -85 -102 -103 -119 -120 -151 -152 -164 -166 -177 -178 -189 -190 -199 -201 0
-23 -65 -66 -84 -85 -102 -103 -119 -120 -151 -152 -165 -166 -177 -179 -189 -190 -199 -201 0
-23 -65 -66 -84 -85 -102 -103 -119 -120 -151 -152 -165 -166 -178 -179 -189 -191 -199 -201 0
-23 -65 -66 -84 -85 -102 -103 -119 -120 -151 -152 -165 -166 -178 -179 -190 -191 -199 -202 0
-22 -64 -65 -83 -84 -101 -102 -118 -119 -150 -151 -164 -165 -177 -178 -189 -190 -200 -201 0
-23 -64 -66 -83 -84 -101 -102 -118 -119 -150 -151 -164 -165 -177 -178 -189 -190 -200 -201 0
-23 -65 -66 -83 -85 -101 -102 -118 -119 -150 -151 -164 -165 -177 -178 -189 -190 -200 -201 0
-23 -65 -66 -84 -85 -101 -103 -118 -119 -150 -151 -164 -165 -177 -178 -189 -190 -200 -201 0
-23 -65 -66 -84 -85 -102 -103 -118 -120 -150 -151 -164 -165 -177 -178 -189 -190 -200 -201 0
-23 -65 -66 -84 -85 -102 -103 -119 -120 -150 -152 -164 -165 -177 -178 -189 -190 -200 -201 0
-23 -65 -66 -84 -85 -102 -103 -119 -120 -151 -152 -164 -166 -177 -178 -189 -190 -200 -201 0
-23 -65 -66 -84 -85 -102 -103 -119 -120 -151 -152 -165 -166 -177 -179 -189 -190 -200 -201 0
-23 -65 -66 -84 -85 -102 -103 -119 -120 -151 -152 -165 -166 -178 -179 -189 -191 -200 -201 0
-23 -65 -66 -84 -85 -102 -103 -119 -120 -151 -152 -165 -166 -178 -179 -190 -191 -200 -202 0
-23 -65 -66 -84 -85 -102 -103 -119 -120 -151 -152 -165 -166 -178 -179 -190 -191 -201 -202 0
-22 -64 -65 -83 -84 -101 -102 -118 -119 -150 -151 -164 -165 -177 -178 -189 -190 -211 -212 0
-23 -64 -66 -83 -84 -101 -102 -118 -119 -150 -151 -164 -165 -177 -178 -189 -190 -211 -212 0
-23 -65 -66 -83 -85 -101 -102 -118 -119 -150 -151 -164 -165 -177 -178 -189 -190 -211 -212 0
-23 -65 -66 -84 -85 -101 -103 -118 -119 -150 -151 -164 -165 -177 -178 -189 -190 -211 -212 0
-23 -65 -66 -84 -85 -102 -103 -118 -120 -150 -151 -164 -165 -177 -178 -189 -190 -211 -212 0
-23 -65 -66 -84 -85 -102 -103 -119 -120 -150 -152 -164 -165 -177 -178 -189 -190 -211 -212 0
-23 -65 -66 -84 -85 -102 -103 -119 -120 -151 -152 -164 -166 -177 -178 -189 -190 -211 -212 0
-23 -65 -66 -84 -85 -102 -103 -119 -120 -151 -152 -165 -166 -177 -179 -189 -190 -211 -212 0
-23 -65 -66 -84 -85 -102 -103 -119 -120 -151 -152 -165 -166 -178 -179 -189 -191 -211 -212 0
-23 -65 -66 -84 -85 -102 -103 -119 -120 -151 -152 -165 -166 -178 -179 -190 -191 -211 -213 0
-23 -65 -66 -84 -85 -102 -103 -119 -120 -151 -152 -165 -166 -178 -179 -190 -191 -212 -213 0
-23 -65 -66 -84 -85 -102 -103 -119 -120 -151 -152 -165 -166 -178 -179 -190 -191 -222 -223 0
-22 -64 -65 -83 -84 -101 -102 -118 -119 -150 -151 -164 -165 -177 -178 -201 -202 -211 -212 0
-23 -64 -66 -83 -84 -101 -102 -118 -119 -150 -151 -164 -165 -177 -178 -201 -202 -211 -212 0
-23 -65 -66 -83 -85 -101 -102 -118 -119 -150 -151 -164 -165 -177 -178 -201 -202 -211 -212 0
-23 -65 -66 -84 -85 -101 -103 -118 -119 -150 -151 -164 -165 -177 -178 -201 -202 -211 -212 0
-23 -65 -66 -84 -85 -102 -103 -118 -120 -150 -151 -164 -165 -177 -178 -201 -202 -211 -212 0
-23 -65 -66 -84 -85 -102 -103 -119 -120 -150 -152 -164 -165 -177 -178 -201 -202 -211 -212 0
-23 -65 -66 -84 -85 -102 -103 -119 -120 -151 -152 -164 -166 -177 -178 -201 -202 -211 -212 0
-23 -65 -66 -84 -85 -102 -103 -119 -120 -151 -152 -165 -166 -177 -179 -201 -202 -211 -212 0
-23 -65 -66 -84 -85 -102 -103 -119 -120 -151 -152 -165 -166 -178 -179 -201 -203 -211 -212 0
-23 -65 -66 -84 -85 -102 -103 -119 -120 -151 -152 -165 -166 -178 -179 -202 -203 -211 -213 0
-23 -65 -66 -84 -85 -102 -103 -119 -120 -151 -152 -165 -166 -178 -179 -202 -203 -212 -213 0
-23 -65 -66 -84 -85 -102 -103 -119 -120 -151 -152 -165 -166 -178 -179 -202 -203 -222 -223 0
-23 -65 -66 -84 -85 -102 -103 -119 -120 -151 -152 -165 -166 -178 -179 -213 -214 -222 -223 0
-22 -64 -65 -83 -84 -101 -102 -118 -119 -150 -151 -164 -165 -190 -191 -201 -202 -211 -212 0
-23 -64 -66 -83 -84 -101 -102 -118 -119 -150 -151 -164 -165 -190 -191 -201 -202 -211 -212 0
-23 -65 -66 -83 -85 -101 -102 -118 -119 -150 -151 -164 -165 -190 -191 -201 -202 -211 -212 0
-23 -65 -66 -84 -85 -101 -103 -118 -119 -150 -151 -164 -165 -190 -191 -201 -202 -211 -212 0
-23 -65 -66 -84 -85 -102 -103 -118 -120 -150 -151 -164 -165 -190 -191 -201 -202 -211 -212 0
-23 -65 -66 -84 -85 -102 -103 -119 -120 -150 -152 -164 -165 -190 -191 -201 -202 -211 -212 0
-23 -65 -66 -84 -85 -102 -103 -119 -120 -151 -152 -164 -166 -190 -191 -201 -202 -211 -212 0
-23 -65 -66 -84 -85 -102 -103 -119 -120 -151 -152 -165 -166 -190 -192 -201 -202 -211 -212 0
-23 -65 -66 -84 -85 -102 -103 -119 -120 -151 -152 -165 -166 -191 -192 -201 -203 -211 -212 0
-23 -65 -66 -84 -85 -102 -103 -119 -120 -151 -152 -165 -166 -191 -192 -202 -203 -211 -213 0
-23 -65 -66 -84 -85 -102 -103 -119 -120 -151 -152 -165 -166 -191 -192 -202 -203 -212 -213 0
-23 -65 -66 -84 -85 -102 -103 -119 -120 -151 -152 -165 -166 -191 -192 -202 -203 -222 -223 0
-23 -65 -66 -84 -85 -102 -103 -119 -120 -151 -152 -165 -166 -191 -192 -213 -214 -222 -223 0
-23 -65 -66 -84 -85 -102 -103 -119 -120 -151 -152 -165 -166 -203 -204 -213 -214 -222 -223 0
-22 -64 -65 -83 -84 -101 -102 -118 -119 -150 -151 -178 -179 -190 -191 -201 -202 -211 -212 0
-23 -64 -66 -83 -84 -101 -102 -118 -119 -150 -151 -178 -179 -190 -191 -201 -202 -211 -212 0
-23 -65 -66 -83 -85 -101 -102 -118 -119 -150 -151 -178 -179 -190 -191 -201 -202 -211 -212 0
-23 -65 -66 -84 -85 -101 -103 -118 -119 -150 -151 -178 -179 -190 -191 -201 -202 -211 -212 0
-23 -65 -66 -84 -85 -102 -103 -118 -120 -150 -151 -178 -179 -190 -191 -201 -202 -211 -212 0
-23 -65 -66 -84 -85 -102 -103 -119 -120 -150 -152 -178 -179 -190 -191 -201 -202 -211 -212 0
-23 -65 -66 -84 -85 -102 -103 -119 -120 -151 -152 -178 -180 -190 -191 -201 -202 -211 -212 0
-23 -65 -66 -84 -85 -102 -103 -119 -120 -151 -152 -179 -180 -190 -192 -201 -202 -211 -212 0
-23 -65 -66 -84 -85 -102 -103 -119 -120 -151 -152 -179 -180 -191 -192 -201 -203 -211 -212 0
-23 -65 -66 -84 -85 -102 -103 -119 -120 -151 -152 -179 -180 -191 -192 -202 -203 -211 -213 0
-23 -65 -66 -84 -85 -102 -103 -119 -120 -151 -152 -179 -180 -191 -192 -202 -203 -212 -213 0
-23 -65 -66 -84 -85 -102 -103 -119 -120 -151 -152 -179 -180 -191 -192 -202 -203 -222 -223 0
-23 -65 -66 -84 -85 -102 -103 -119 -120 -151 -152 -179 -180 -191 -192 -213 -214 -222 -223 0
-23 -65 -66 -84 -85 -102 -103 -119 -120 -151 -152 -179 -180 -203 -204 -213 -214 -222 -223 0
-23 -65 -66 -84 -85 -102 -103 -119 -120 -151 -152 -192 -193 -203 -204 -213 -214 -222 -223 0
-22 -64 -65 -83 -84 -101 -102 -118 -119 -165 -166 -178 -179 -190 -191 -201 -202 -211 -212 0
-23 -64 -66 -83 -84 -101 -102 -118 -119 -165 -166 -178 -179 -190 -191 -201 -202 -211 -212 0
-23 -65 -66 -83 -85 -101 -102 -118 -119 -165 -166 -178 -179 -190 -191 -201 -202 -211 -212 0
-23 -65 -66 -84 -85 -101 -103 -118 -119 -165 -166 -178 -179 -190 -191 -201 -202 -211 -212 0
-23 -65 -66 -84 -85 -102 -103 -118 -120 -165 -166 -178 -179 -190 -191 -201 -202 -211 -212 0
-23 -65 -66 -84 -85 -102 -103 -119 -120 -165 -167 -178 -179 -190 -191 -201 -202 -211 -212 0
-23 -65 -66 -84 -85 -102 -103 -119 -120 -166 -167 -178 -180 -190 -191 -201 -202 -211 -212 0
-23 -65 -66 -84 -85 -102 -103 -119 -120 -166 -167 -179 -180 -190 -192 -201 -202 -211 -212 0
-23 -65 -66 -84 -85 -102 -103 -119 -120 -166 -167 -179 -180 -191 -192 -201 -203 -211 -212 0
-23 -65 -66 -84 -85 -102 -103 -119 -120 -166 -167 -179 -180 -191 -192 -202 -203 -211 -213 0
-23 -65 -66 -84 -85 -102 -103 -119 -120 -166 -167 -179 -180 -191 -192 -202 -203 -212 -213 0
-23 -65 -66 -84 -85 -102 -103 -119 -120 -166 -167 -179 -180 -191 -192 -202 -203 -222 -223 0
-23 -65 -66 -84 -85 -102 -103 -119 -120 -166 -167 -179 -180 -191 -192 -213 -214 -222 -223 0
-23 -65 -66 -84 -85 -102 -103 -119 -120 -166 -167 -179 -180 -203 -204 -213 -214 -222 -223 0
-23 -65 -66 -84 -85 -102 -103 -119 -120 -166 -167 -192 -193 -203 -204 -213 -214 -222 -223 0
-23 -65 -66 -84 -85 -102 -103 -119 -120 -180 -181 -192 -193 -203 -204 -213 -214 -222 -223 0
-21 -63 -64 -82 -83 -100 -101 -134 -135 -149 -150 -163 -164 -176 -177 -188 -189 -199 -200 0
-22 -63 -65 -82 -83 -100 -101 -134 -135 -149 -150 -163 -164 -176 -177 -188 -189 -199 -200 0
-23 -63 -66 -82 -83 -100 -101 -134 -135 -149 -150 -163 -164 -176 -177 -188 -189 -199 -200 0
-22 -64 -65 -82 -84 -100 -101 -134 -135 -149 -150 -163 -164 -176 -177 -188 -189 -199 -200 0
-23 -64 -66 -82 -84 -100 -101 -134 -135 -149 -150 -163 -164 -176 -177 -188 -189 -199 -200 0
-23 -65 -66 -82 -85 -100 -101 -134 -135 -149 -150 -163 -164 -176 -177 -188 -189 -199 -200 0
-22 -64 -65 -83 -84 -100 -102 -134 -135 -149 -150 -163 -164 -176 -177 -188 -189 -199 -200 0
-23 -64 -66 -83 -84 -100 -102 -134 -135 -149 -150 -163 -164 -176 -177 -188 -189 -199 -200 0
-23 -65 -66 -83 -85 -100 -102 -134 -135 -149 -150 -163 -164 -176 -177 -188 -189 -199 -200 0
-23 -65 -66 -84 -85 -100 -103 -134 -135 -149 -150 -163 -164 -176 -177 -188 -189 -199 -200 0
-22 -64 -65 -83 -84 -101 -102 -134 -136 -149 -150 -163 -164 -176 -177 -188 -189 -199 -200 0
-23 -64 -66 -83 -84 -101 -102 -134 -136 -149 -150 -163 -164 -176 -177 -188 -189 -199 -200 0
-23 -65 -66 -83 -85 -101 -102 -134 -136 -149 -150 -163 -164 -176 -177 -188 -189 -199 -200 0
-23 -65 -66 -84 -85 -101 -103 -134 -136 -149 -150 -163 -164 -176 -177 -188 -189 -199 -200 0
-23 -65 -66 -84 -85 -102 -103 -134 -137 -149 -150 -163 -164 -176 -177 -188 -189 -199 -200 0
-22 -64 -65 -83 -84 -101 -102 -135 -136 -149 -151 -163 -164 -176 -177 -188 -189 -199 -200 0
-23 -64 -66 -83 -84 -101 -102 -135 -136 -149 -151 -163 -164 -176 -177 -188 -189 -199 -200 0
-23 -65 -66 -83 -85 -101 -102 -135 -136 -149 -151 -163 -164 -176 -177 -188 -189 -199 -200 0
-23 -65 -66 -84 -85 -101 -103 -135 -136 -149 -151 -163 -164 -176 -177 -188 -189 -199 -200 0
-23 -65 -66 -84 -85 -102 -103 -135 -137 -149 -151 -163 -164 -176 -177 -188 -189 -199 -200 0
-23 -65 -66 -84 -85 -102 -103 -136 -137 -149 -152 -163 -164 -176 -177 -188 -189 -199 -200 0
-22 -64 -65 -83 -84 -101 -102 -135 -136 -150 -151 -163 -165 -176 -177 -188 -189 -199 -200 0
-23 -64 -66 -83 -84 -101 -102 -135 -136 -150 -151 -163 -165 -176 -177 -188 -189 -199 -200 0
-23 -65 -66 -83 -85 -101 -102 -135 -136 -150 -151 -163 -165 -176 -177 -188 -189 -199 -200 0
-23 -65 -66 -84 -85 -101 -103 -135 -136 -150 -151 -163 -165 -176 -177 -188 -189 -199 -200 0
-23 -65 -66 -84 -85 -102 -103 -135 -137 -150 -151 -163 -165 -176 -177 -188 -189 -199 -200 0
-23 -65 -66 -84 -85 -102 -103 -136 -137 -150 -152 -163 -165 -176 -177 -188 -189 -199 -200 0
-23 -65 -66 -84 -85 -102 -103 -136 -137 -151 -152 -163 -166 -176 -177 -188 -189 -199 -200 0
-22 -64 -65 -83 -84 -101 -102 -135 -136 -150 -151 -164 -165 -176 -178 -188 -189 -199 -200 0
-23 -64 -66 -83 -84 -101 -102 -135 -136 -150 -151 -164 -165 -176 -178 -188 -189 -199 -200 0
-23 -65 -66 -83 -85 -101 -102 -135 -136 -150 -151 -164 -165 -176 -178 -188 -189 -199 -200 0
-23 -65 -66 -84 -85 -101 -103 -135 -136 -150 -151 -164 -165 -176 -178 -188 -189 -199 -200 0
-23 -65 -66 -84 -85 -102 -103 -135 -137 -150 -151 -164 -165 -176 -178 -188 -189 -199 -200 0
-23 -65 -66 -84 -85 -102 -103 -136 -137 -150 -152 -164 -165 -176 -178 -188 -189 -199 -200 0
-23 -65 -66 -84 -85 -102 -103 -136 -137 -151 -152 -164 -166 -176 -178 -188 -189 -199 -200 0
-23 -65 -66 -84 -85 -102 -103 -136 -137 -151 -152 -165 -166 -176 -179 -188 -189 -199 -200 0
-22 -64 -65 -83 -84 -101 -102 -135 -136 -150 -151 -164 -165 -177 -178 -188 -190 -199 -200 0
-23 -64 -66 -83 -84 -101 -102 -135 -136 -150 -151 -164 -165 -177 -178 -188 -190 -199 -200 0
-23 -65 -66 -83 -85 -101 -102 -135 -136 -150 -151 -164 -165 -177 -178 -188 -190 -199 -200 0
-23 -65 -66 -84 -85 -101 -103 -135 -136 -150 -151 -164 -165 -177 -178 -188 -190 -199 -200 0
-23 -65 -66 -84 -85 -102 -103 -135 -137 -150 -151 -164 -165 -177 -178 -188 -190 -199 -200 0
-23 -65 -66 -84 -85 -102 -103 -136 -137 -150 -152 -164 -165 -177 -178 -188 -190 -199 -200 0
-23 -65 -66 -84 -85 -102 -103 -136 -137 -151 -152 -164 -166 -177 -178 -188 -190 -199 -200 0
-23 -65 -66 -84 -85 -102 -103 -136 -137 -151 -152 -165 -166 -177 -179 -188 -190 -199 -200 0
-23 -65 -66 -84 -85 -102 -103 -136 -137 -151 -152 -165 -166 -178 -179 -188 -191 -199 -200 0
-22 -64 -65 -83 -84 -101 -102 -135 -136 -150 -151 -164 -165 -177 -178 -189 -190 -199 -201 0
-23 -64 -66 -83 -84 -101 -102 -135 -136 -150 -151 -164 -165 -177 -178 -189 -190 -199 -201 0
-23 -65 -66 -83 -85 -101 -102 -135 -136 -150 -151 -164 -165 -177 -178 -189 -190 -199 -201 0
-23 -65 -66 -84 -85 -101 -103 -135 -136 -150 -151 -164 -165 -177 -178 -189 -190 -199 -201 0
-23 -65 -66 -84 -85 -102 -103 -135 -137 -150 -151 -164 -165 -177 -178 -189 -190 -199 -201 0
-23 -65 -66 -84 -85 -102 -103 -136 -137 -150 -152 -164 -165 -177 -178 -189 -190 -199 -201 0
-23 -65 -66 -84 -85 -102 -103 -136 -137 -151 -152 -164 -166 -177 -178 -189 -190 -199 -201 0
-23 -65 -66 -84 -85 -102 -103 -136 -137 -151 -152 -165 -166 -177 -179 -189 -190 -199 -201 0
-23 -65 -66 -84 -85 -102 -103 -136 -137 -151 -152 -165 -166 -178 -179 -189 -191 -199 -201 0
-23 -65 -66 -84 -85 -102 -103 -136 -137 -151 -152 -165 -166 -178 -179 -190 -191 -199 -202 0
-22 -64 -65 -83 -84 -101 -102 -135 -136 -150 -151 -164 -165 -177 -178 -189 -190 -200 -201 0
-23 -64 -66 -83 -84 -101 -102 -135 -136 -150 -151 -164 -165 -177 -178 -189 -190 -200 -201 0
-23 -65 -66 -83 -85 -101 -102 -135 -136 -150 -151 -164 -165 -177 -178 -189 -190 -200 -201 0
-23 -65 -66 -84 -85 -101 -103 -135 -136 -150 -151 -164 -165 -177 -178 -189 -190 -200 -201 0
-23 -65 -66 -84 -85 -102 -103 -135 -137 -150 -151 -164 -165 -177 -178 -189 -190 -200 -201 0
-23 -65 -66 -84 -85 -102 -103 -136 -137 -150 -152 -164 -165 -177 -178 -189 -190 -200 -201 0
-23 -65 -66 -84 -85 -102 -103 -136 -137 -151 -152 -164 -166 -177 -178 -189 -190 -200 -201 0
-23 -65 -66 -84 -85 -102 -103 -136 -137 -151 -152 -165 -166 -177 -179 -189 -190 -200 -201 0
-23 -65 -66 -84 -85 -102 -103 -136 -137 -151 -152 -165 -166 -178 -179 -189 -191 -200 -201 0
-23 -65 -66 -84 -85 -102 -103 -136 -137 -151 -152 -165 -166 -178 -179 -190 -191 -200 -202 0
-23 -65 -66 -84 -85 -102 -103 -136 -137 -151 -152 -165 -166 -178 -179 -190 -191 -201 -202 0
-22 -64 -65 -83 -84 -101 -102 -135 -136 -150 -151 -164 -165 -177 -178 -189 -190 -211 -212 0
-23 -64 -66 -83 -84 -101 -102 -135 -136 -150 -151 -164 -165 -177 -178 -189 -190 -211 -212 0
-23 -65 -66 -83 -85 -101 -102 -135 -136 -150 -151 -164 -165 -177 -178 -189 -190 -211 -212 0
-23 -65 -66 -84 -85 -101 -103 -135 -136 -150 -151 -164 -165 -177 -178 -189 -190 -211 -212 0
-23 -65 -66 -84 -85 -102 -103 -135 -137 -150 -151 -164 -165 -177 -178 -189 -190 -211 -212 0
-23 -65 -66 -84 -85 -102 -103 -136 -137 -150 -152 -164 -165 -177 -178 -189 -190 -211 -212 0
-23 -65 -66 -84 -85 -102 -103 -136 -137 -151 -152 -164 -166 -177 -178 -189 -190 -211 -212 0
-23 -65 -66 -84 -85 -102 -103 -136 -137 -151 -152 -165 -166 -177 -179 -189 -190 -211 -212 0
-23 -65 -66 -84 -85 -102 -103 -136 -137 -151 -152 -165 -166 -178 -179 -189 -191 -211 -212 0
-23 -65 -66 -84 -85 -102 -103 -136 -137 -151 -152 -165 -166 -178 -179 -190 -191 -211 -213 0
-23 -65 -66 -84 -85 -102 -103 -136 -137 -151 -152 -165 -166 -178 -179 -190 -191 -212 -213 0
-23 -65 -66 -84 -85 -102 -103 -136 -137 -151 -152 -165 -166 -178 -179 -190 -191 -222 -223 0
-22 -64 -65 -83 -84 -101 -102 -135 -136 -150 -151 -164 -165 -177 -178 -201 -202 -211 -212 0
-23 -64 -66 -83 -84 -101 -102 -135 -136 -150 -151 -164 -165 -177 -178 -201 -202 -211 -212 0
-23 -65 -66 -83 -85 -101 -102 -135 -136 -150 -151 -164 -165 -177 -178 -201 -202 -211 -212 0
-23 -65 -66 -84 -85 -101 -103 -135 -136 -150 -151 -164 -165 -177 -178 -201 -202 -211 -212 0
-23 -65 -66 -84 -85 -102 -103 -135 -137 -150 -151 -164 -165 -177 -178 -201 -202 -211 -212 0
-23 -65 -66 -84 -85 -102 -103 -136 -137 -150 -152 -164 -165 -177 -178 -201 -202 -211 -212 0
-23 -65 -66 -84 -85 -102 -103 -136 -137 -151 -152 -164 -166 -177 -178 -201 -202 -211 -212 0
-23 -65 -66 -84 -85 -102 -103 -136 -137 -151 -152 -165 -166 -177 -179 -201 -202 -211 -212 0
-23 -65 -66 -84 -85 -102 -103 -136 -137 -151 -152 -165 -166 -178 -179 -201 -203 -211 -212 0
-23 -65 -66 -84 -85 -102 -103 -136 -137 -151 -152 -165 -166 -178 -179 -202 -203 -211 -213 0
-23 -65 -66 -84 -85 -102 -103 -136 -137 -151 -152 -165 -166 -178 -179 -202 -203 -212 -213 0
-23 -65 -66 -84 -85 -102 -103 -136 -137 -151 -152 -165 -166 -178 -179 -202 -203 -222 -223 0
-23 -65 -66 -84 -85 -102 -103 -136 -137 -151 -152 -165 -166 -178 -179 -213 -214 -222 -223 0
-22 -64 -65 -83 -84 -101 -102 -135 -136 -150 -151 -164 -165 -190 -191 -201 -202 -211 -212 0
-23 -64 -66 -83 -84 -101 -102 -135 -136 -150 -151 -164 -165 -190 -191 -201 -202 -211 -212 0
-23 -65 -66 -83 -85 -101 -102 -135 -136 -150 -151 -164 -165 -190 -191 -201 -202 -211 -212 0
-23 -65 -66 -84 -85 -101 -103 -135 -136 -150 -151 -164 -165 -190 -191 -201 -202 -211 -212 0
-23 -65 -66 -84 -85 -102 -103 -135 -137 -150 -151 -164 -165 -190 -191 -201 -202 -211 -212 0
-23 -65 -66 -84 -85 -102 -103 -136 -137 -150 -152 -164 -165 -190 -191 -201 -202 -211 -212 0
-23 -65 -66 -84 -85 -102 -103 -136 -137 -151 -152 -164 -166 -190 -191 -201 -202 -211 -212 0
-23 -65 -66 -84 -85 -102 -103 -136 -137 -151 -152 -165 -166 -190 -192 -201 -202 -211 -212 0
-23 -65 -66 -84 -85 -102 -103 -136 -137 -151 -152 -165 -166 -191 -192 -201 -203 -211 -212 0
-23 -65 -66 -84 -85 -102 -103 -136 -137 -151 -152 -165 -166 -191 -192 -202 -203 -211 -213 0
-23 -65 -66 -84 -85 -102 -103 -136 -137 -151 -152 -165 -166 -191 -192 -202 -203 -212 -213 0
-23 -65 -66 -84 -85 -102 -103 -136 -137 -151 -152 -165 -166 -191 -192 -202 -203 -222 -223 0
-23 -65 -66 -84 -85 -102 -103 -136 -137 -151 -152 -165 -166 -191 -192 -213 -214 -222 -223 0
-23 -65 -66 -84 -85 -102 -103 -136 -137 -151 -152 -165 -166 -203 -204 -213 -214 -222 -223 0
-22 -64 -65 -83 -84 -101 -102 -135 -136 -150 -151 -178 -179 -190 -191 -201 -202 -211 -212 0
-23 -64 -66 -83 -84 -101 -102 -135 -136 -150 -151 -178 -179 -190 -191 -201 -202 -211 -212 0
-23 -65 -66 -83 -85 -101 -102 -135 -136 -150 -151 -178 -179 -190 -191 -201 -202 -211 -212 0
-23 -65 -66 -84 -85 -101 -103 -135 -136 -150 -151 -178 -179 -190 -191 -201 -202 -211 -212 0
-23 -65 -66 -84 -85 -102 -103 -135 -137 -150 -151 -178 -179 -190 -191 -201 -202 -211 -212 0
-23 -65 -66 -84 -85 -102 -103 -136 -137 -150 -152 -178 -179 -190 -191 -201 -202 -211 -212 0
-23 -65 -66 -84 -85 -102 -103 -136 -137 -151 -152 -178 -180 -190 -191 -201 -202 -211 -212 0
-23 -65 -66 -84 -85 -102 -103 -136 -137 -151 -152 -179 -180 -190 -192 -201 -202 -211 -212 0
-23 -65 -66 -84 -85 -102 -103 -136 -137 -151 -152 -179 -180 -191 -192 -201 -203 -211 -212 0
-23 -65 -66 -84 -85 -102 -103 -136 -137 -151 -152 -179 -180 -191 -192 -202 -203 -211 -213 0
-23 -65 -66 -84 -85 -102 -103 -136 -137 -151 -152 -179 -180 -191 -192 -202 -203 -212 -213 0
-23 -65 -66 -84 -85 -102 -103 -136 -137 -151 -152 -179 -180 -191 -192 -202 -203 -222 -223 0
-23 -65 -66 -84 -85 -102 -103 -136 -137 -151 -152 -179 -180 -191 -192 -213 -214 -222 -223 0
-23 -65 -66 -84 -85 -102 -103 -136 -137 -151 -152 -179 -180 -203 -204 -213 -214 -222 -223 0
-23 -65 -66 -84 -85 -102 -103 -136 -137 -151 -152 -192 -193 -203 -204 -213 -214 -222 -223 0
-22 -64 -65 -83 -84 -101 -102 -135 -136 -165 -166 -178 -179 -190 -191 -201 -202 -211 -212 0
-23 -64 -66 -83 -84 -101 -102 -135 -136 -165 -166 -178 -179 -190 -191 -201 -202 -211 -212 0
-23 -65 -66 -83 -85 -101 -102 -135 -136 -165 -166 -178 -179 -190 -191 -201 -202 -211 -212 0
-23 -65 -66 -84 -85 -101 -103 -135 -136 -165 -166 -178 -179 -190 -191 -201 -202 -211 -212 0
-23 -65 -66 -84 -85 -102 -103 -135 -137 -165 -166 -178 -179 -190 -191 -201 -202 -211 -212 0
-23 -65 -66 -84 -85 -102 -103 -136 -137 -165 -167 -178 -179 -190 -191 -201 -202 -211 -212 0
-23 -65 -66 -84 -85 -102 -103 -136 -137 -166 -167 -178 -180 -190 -191 -201 -202 -211 -212 0
-23 -65 -66 -84 -85 -102 -103 -136 -137 -166 -167 -179 -180 -190 -192 -201 -202 -211 -212 0
-23 -65 -66 -84 -85 -102 -103 -136 -137 -166 -167 -179 -180 -191 -192 -201 -203 -211 -212 0
-23 -65 -66 -84 -85 -102 -103 -136 -137 -166 -167 -179 -180 -191 -192 -202 -203 -211 -213 0
-23 -65 -66 -84 -85 -102 -103 -136 -137 -166 -167 -179 -180 -191 -192 -202 -203 -212 -213 0
-23 -65 -66 -84 -85 -102 -103 -136 -137 -166 -167 -179 -180 -191 -192 -202 -203 -222 -223 0
-23 -65 -66 -84 -85 -102 -103 -136 -137 -166 -167 -179 -180 -191 -192 -213 -214 -222 -223 0
-23 -65 -66 -84 -85 -102 -103 -136 -137 -166 -167 -179 -180 -203 -204 -213 -214 -222 -223 0
-23 -65 -66 -84 -85 -102 -103 -136 -137 -166 -167 -192 -193 -203 -204 -213 -214 -222 -223 0
-23 -65 -66 -84 -85 -102 -103 -136 -137 -180 -181 -192 -193 -203 -204 -213 -214 -222 -223 0
-22 -64 -65 -83 -84 -101 -102 -151 -152 -165 -166 -178 -179 -190 -191 -201 -202 -211 -212 0
-23 -64 -66 -83 -84 -101 -102 -151 -152 -165 -166 -178 -179 -190 -191 -201 -202 -211 -212 0
-23 -65 -66 -83 -85 -101 -102 -151 -152 -165 -166 -178 -179 -190 -191 -201 -202 -211 -212 0
-23 -65 -66 -84 -85 -101 -103 -151 -152 -165 -166 -178 -179 -190 -191 -201 -202 -211 -212 0
-23 -65 -66 -84 -85 -102 -103 -151 -153 -165 -166 -178 -179 -190 -191 -201 -202 -211 -212 0
-23 -65 -66 -84 -85 -102 -103 -152 -153 -165 -167 -178 -179 -190 -191 -201 -202 -211 -212 0
-23 -65 -66 -84 -85 -102 -103 -152 -153 -166 -167 -178 -180 -190 -191 -201 -202 -211 -212 0
-23 -65 -66 -84 -85 -102 -103 -152 -153 -166 -167 -179 -180 -190 -192 -201 -202 -211 -212 0
-23 -65 -66 -84 -85 -102 -103 -152 -153 -166 -167 -179 -180 -191 -192 -201 -203 -211 -212 0
-23 -65 -66 -84 -85 -102 -103 -152 -153 -166 -167 -179 -180 -191 -192 -202 -203 -211 -213 0
-23 -65 -66 -84 -85 -102 -103 -152 -153 -166 -167 -179 -180 -191 -192 -202 -203 -212 -213 0
-23 -65 -66 -84 -85 -102 -103 -152 -153 -166 -167 -179 -180 -191 -192 -202 -203 -222 -223 0
-23 -65 -66 -84 -85 -102 -103 -152 -153 -166 -167 -179 -180 -191 -192 -213 -214 -222 -223 0
-23 -65 -66 -84 -85 -102 -103 -152 -153 -166 -167 -179 -180 -203 -204 -213 -214 -222 -223 0
-23 -65 -66 -84 -85 -102 -103 -152 -153 -166 -167 -192 -193 -203 -204 -213 -214 -222 -223 0
-23 -65 -66 -84 -85 -102 -103 -152 -153 -180 -181 -192 -193 -203 -204 -213 -214 -222 -223 0
-23 -65 -66 -84 -85 -102 -103 -167 -168 -180 -181 -192 -193 -203 -204 -213 -214 -222 -223 0
-21 -63 -64 -82 -83 -118 -119 -134 -135 -149 -150 -163 -164 -176 -177 -188 -189 -199 -200 0
-22 -63 -65 -82 -83 -118 -119 -134 -135 -149 -150 -163 -164 -176 -177 -188 -189 -199 -200 0
-23 -63 -66 -82 -83 -118 -119 -134 -135 -149 -150 -163 -164 -176 -177 -188 -189 -199 -200 0
-22 -64 -65 -82 -84 -118 -119 -134 -135 -149 -150 -163 -164 -176 -177 -188 -189 -199 -200 0
-23 -64 -66 -82 -84 -118 -119 -134 -135 -149 -150 -163 -164 -176 -177 -188 -189 -199 -200 0
-23 -65 -66 -82 -85 -118 -119 -134 -135 -149 -150 -163 -164 -176 -177 -188 -189 -199 -200 0
-22 -64 -65 -83 -84 -118 -120 -134 -135 -149 -150 -163 -164 -176 -177 -188 -189 -199 -200 0
-23 -64 -66 -83 -84 -118 -120 -134 -135 -149 -150 -163 -164 -176 -177 -188 -189 -199 -200 0
-23 -65 -66 -83 -85 -118 -120 -134 -135 -149 -150 -163 -164 -176 -177 -188 -189 -199 -200 0
-23 -65 -66 -84 -85 -118 -121 -134 -135 -149 -150 -163 -164 -176 -177 -188 -189 -199 -200 0
-22 -64 -65 -83 -84 -119 -120 -134 -136 -149 -150 -163 -164 -176 -177 -188 -189 -199 -200 0
-23 -64 -66 -83 -84 -119 -120 -134 -136 -149 -150 -163 -164 -176 -177 -188 -189 -199 -200 0
-23 -65 -66 -83 -85 -119 -120 -134 -136 -149 -150 -163 -164 -176 -177 -188 -189 -199 -200 0
-23 -65 -66 -84 -85 -119 -121 -134 -136 -149 -150 -163 -164 -176 -177 -188 -189 -199 -200 0
-23 -65 -66 -84 -85 -120 -121 -134 -137 -149 -150 -163 -164 -176 -177 -188 -189 -199 -200 0
-22 -64 -65 -83 -84 -119 -120 -135 -136 -149 -151 -163 -164 -176 -177 -188 -189 -199 -200 0
-23 -64 -66 -83 -84 -119 -120 -135 -136 -149 -151 -163 -164 -176 -177 -188 -189 -199 -200 0
-23 -65 -66 -83 -85 -119 -120 -135 -136 -149 -151 -163 -164 -176 -177 -188 -189 -199 -200 0
-23 -65 -66 -84 -85 -119 -121 -135 -136 -149 -151 -163 -164 -176 -177 -188 -189 -199 -200 0
-23 -65 -66 -84 -85 -120 -121 -135 -137 -149 -151 -163 -164 -176 -177 -188 -189 -199 -200 0
-23 -65 -66 -84 -85 -120 -121 -136 -137 -149 -152 -163 -164 -176 -177 -188 -189 -199 -200 0
-22 -64 -65 -83 -84 -119 -120 -135 -136 -150 -151 -163 -165 -176 -177 -188 -189 -199 -200 0
-23 -64 -66 -83 -84 -119 -120 -135 -136 -150 -151 -163 -165 -176 -177 -188 -189 -199 -200 0
-23 -65 -66 -83 -85 -119 -120 -135 -136 -150 -151 -163 -165 -176 -177 -188 -189 -199 -200 0
-23 -65 -66 -84 -85 -119 -121 -135 -136 -150 -151 -163 -165 -176 -177 -188 -189 -199 -200 0
-23 -65 -66 -84 -85 -120 -121 -135 -137 -150 -151 -163 -165 -176 -177 -188 -189 -199 -200 0
-23 -65 -66 -84 -85 -120 -121 -136 -137 -150 -152 -163 -165 -176 -177 -188 -189 -199 -200 0
-23 -65 -66 -84 -85 -120 -121 -136 -137 -151 -152 -163 -166 -176 -177 -188 -189 -199 -200 0
-22 -64 -65 -83 -84 -119 -120 -135 -136 -150 -151 -164 -165 -176 -178 -188 -189 -199 -200 0
-23 -64 -66 -83 -84 -119 -120 -135 -136 -150 -151 -164 -165 -176 -178 -188 -189 -199 -200 0
-23 -65 -66 -83 -85 -119 -120 -135 -136 -150 -151 -164 -165 -176 -178 -188 -189 -199 -200 0
-23 -65 -66 -84 -85 -119 -121 -135 -136 -150 -151 -164 -165 -176 -178 -188 -189 -199 -200 0
-23 -65 -66 -84 -85 -120 -121 -135 -137 -150 -151 -164 -165 -176 -178 -188 -189 -199 -200 0
-23 -65 -66 -84 -85 -120 -121 -136 -137 -150 -152 -164 -165 -176 -178 -188 -189 -199 -200 0
-23 -65 -66 -84 -85 -120 -121 -136 -137 -151 -152 -164 -166 -176 -178 -188 -189 -199 -200 0
-23 -65 -66 -84 -85 -120 -121 -136 -137 -151 -152 -165 -166 -176 -179 -188 -189 -199 -200 0
-22 -64 -65 -83 -84 -119 -120 -135 -136 -150 -151 -164 -165 -177 -178 -188 -190 -199 -200 0
-23 -64 -66 -83 -84 -119 -120 -135 -136 -150 -151 -164 -165 -177 -178 -188 -190 -199 -200 0
-23 -65 -66 -83 -85 -119 -120 -135 -136 -150 -151 -164 -165 -177 -178 -188 -190 -199 -200 0
-23 -65 -66 -84 -85 -119 -121 -135 -136 -150 -151 -164 -165 -177 -178 -188 -190 -199 -200 0
-23 -65 -66 -84 -85 -120 -121 -135 -137 -150 -151 -164 -165 -177 -178 -188 -190 -199 -200 0
-23 -65 -66 -84 -85 -120 -121 -136 -137 -150 -152 -164 -165 -177 -178 -188 -190 -199 -200 0
-23 -65 -66 -84 -85 -120 -121 -136 -137 -151 -152 -164 -166 -177 -178 -188 -190 -199 -200 0
-23 -65 -66 -84 -85 -120 -121 -136 -137 -151 -152 -165 -166 -177 -179 -188 -190 -199 -200 0
-23 -65 -66 -84 -85 -120 -121 -136 -137 -151 -152 -165 -166 -178 -179 -188 -191 -199 -200 0
-22 -64 -65 -83 -84 -119 -120 -135 -136 -150 -151 -164 -165 -177 -178 -189 -190 -199 -201 0
-23 -64 -66 -83 -84 -119 -120 -135 -136 -150 -151 -164 -165 -177 -178 -189 -190 -199 -201 0
-23 -65 -66 -83 -85 -119 -120 -135 -136 -150 -151 -164 -165 -177 -178 -189 -190 -199 -201 0
-23 -65 -66 -84 -85 -119 -121 -135 -136 -150 -151 -164 -165 -177 -178 -189 -190 -199 -201 0
-23 -65 -66 -84 -85 -120 -121 -135 -137 -150 -151 -164 -165 -177 -178 -189 -190 -199 -201 0
-23 -65 -66 -84 -85 -120 -121 -136 -137 -150 -152 -164 -165 -177 -178 -189 -190 -199 -201 0
-23 -65 -66 -84 -85 -120 -121 -136 -137 -151 -152 -164 -166 -177 -178 -189 -190 -199 -201 0
-23 -65 -66 -84 -85 -120 -121 -136 -137 -151 -152 -165 -166 -177 -179 -189 -190 -199 -201 0
-23 -65 -66 -84 -85 -120 -121 -136 -137 -151 -152 -165 -166 -178 -179 -189 -191 -199 -201 0
-23 -65 -66 -84 -85 -120 -121 -136 -137 -151 -152 -165 -166 -178 -179 -190 -191 -199 -202 0
-22 -64 -65 -83 -84 -119 -120 -135 -136 -150 -151 -164 -165 -177 -178 -189 -190 -200 -201 0
-23 -64 -66 -83 -84 -119 -120 -135 -136 -150 -151 -164 -165 -177 -178 -189 -190 -200 -201 0
-23 -65 -66 -83 -85 -119 -120 -135 -136 -150 -151 -164 -165 -177 -178 -189 -190 -200 -201 0
-23 -65 -66 -84 -85 -119 -121 -135 -136 -150 -151 -164 -165 -177 -178 -189 -190 -200 -201 0
-23 -65 -66 -84 -85 -120 -121 -135 -137 -150 -151 -164 -165 -177 -178 -189 -190 -200 -201 0
-23 -65 -66 -84 -85 -120 -121 -136 -137 -150 -152 -164 -165 -177 -178 -189 -190 -200 -201 0
-23 -65 -66 -84 -85 -120 -121 -136 -137 -151 -152 -164 -166 -177 -178 -189 -190 -200 -201 0
-23 -65 -66 -84 -85 -120 -121 -136 -137 -151 -152 -165 -166 -177 -179 -189 -190 -200 -201 0
-23 -65 -66 -84 -85 -120 -121 -136 -137 -151 -152 -165 -166 -178 -179 -189 -191 -200 -201 0
-23 -65 -66 -84 -85 -120 -121 -136 -137 -151 -152 -165 -166 -178 -179 -190 -191 -200 -202 0
-23 -65 -66 -84 -85 -120 -121 -136 -137 -151 -152 -165 -166 -178 -179 -190 -191 -201 -202 0
-22 -64 -65 -83 -84 -119 -120 -135 -136 -150 -151 -164 -165 -177 -178 -189 -190 -211 -212 0
-23 -64 -66 -83 -84 -119 -120 -135 -136 -150 -151 -164 -165 -177 -178 -189 -190 -211 -212 0
-23 -65 -66 -83 -85 -119 -120 -135 -136 -150 -151 -164 -165 -177 -178 -189 -190 -211 -212 0
-23 -65 -66 -84 -85 -119 -121 -135 -136 -150 -151 -164 -165 -177 -178 -189 -190 -211 -212 0
-23 -65 -66 -84 -85 -120 -121 -135 -137 -150 -151 -164 -165 -177 -178 -189 -190 -211 -212 0
-23 -65 -66 -84 -85 -120 -121 -136 -137 -150 -152 -164 -165 -177 -178 -189 -190 -211 -212 0
-23 -65 -66 -84 -85 -120 -121 -136 -137 -151 -152 -164 -166 -177 -178 -189 -190 -211 -212 0
-23 -65 -66 -84 -85 -120 -121 -136 -137 -151 -152 -165 -166 -177 -179 -189 -190 -211 -212 0
-23 -65 -66 -84 -85 -120 -121 -136 -137 -151 -152 -165 -166 -178 -179 -189 -191 -211 -212 0
-23 -65 -66 -84 -85 -120 -121 -136 -137 -151 -152 -165 -166 -178 -179 -190 -191 -211 -213 0
-23 -65 -66 -84 -85 -120 -121 -136 -137 -151 -152 -165 -166 -178 -179 -190 -191 -212 -213 0
-23 -65 -66 -84 -85 -120 -121 -136 -137 -151 -152 -165 -166 -178 -179 -190 -191 -222 -223 0
-22 -64 -65 -83 -84 -119 -120 -135 -136 -150 -151 -164 -165 -177 -178 -201 -202 -211 -212 0
-23 -64 -66 -83 -84 -119 -120 -135 -136 -150 -151 -164 -165 -177 -178 -201 -202 -211 -212 0
-23 -65 -66 -83 -85 -119 -120 -135 -136 -150 -151 -164 -165 -177 -178 -201 -202 -211 -212 0
-23 -65 -66 -84 -85 -119 -121 -135 -136 -150 -151 -164 -165 -177 -178 -201 -202 -211 -212 0
-23 -65 -66 -84 -85 -120 -121 -135 -137 -150 -151 -164 -165 -177 -178 -201 -202 -211 -212 0
-23 -65 -66 -84 -85 -120 -121 -136 -137 -150 -152 -164 -165 -177 -178 -201 -202 -211 -212 0
-23 -65 -66 -84 -85 -120 -121 -136 -137 -151 -152 -164 -166 -177 -178 -201 -202 -211 -212 0
-23 -65 -66 -84 -85 -120 -121 -136 -137 -151 -152 -165 -166 -177 -179 -201 -202 -211 -212 0
-23 -65 -66 -84 -85 -120 -121 -136 -137 -151 -152 -165 -166 -178 -179 -201 -203 -211 -212 0
-23 -65 -66 -84 -85 -120 -121 -136 -137 -151 -152 -165 -166 -178 -179 -202 -203 -211 -213 0
-23 -65 -66 -84 -85 -120 -121 -136 -137 -151 -152 -165 -166 -178 -179 -202 -203 -212 -213 0
-23 -65 -66 -84 -85 -120 -121 -136 -137 -151 -152 -165 -166 -178 -179 -202 -203 -222 -223 0
-23 -65 -66 -84 -85 -120 -121 -136 -137 -151 -152 -165 -166 -178 -179 -213 -214 -222 -223 0
-22 -64 -65 -83 -84 -119 -120 -135 -136 -150 -151 -164 -165 -190 -191 -201 -202 -211 -212 0
-23 -64 -66 -83 -84 -119 -120 -135 -136 -150 -151 -164 -165 -190 -191 -201 -202 -211 -212 0
-23 -65 -66 -83 -85 -119 -120 -135 -136 -150 -151 -164 -165 -190 -191 -201 -202 -211 -212 0
-23 -65 -66 -84 -85 -119 -121 -135 -136 -150 -151 -164 -165 -190 -191 -201 -202 -211 -212 0
-23 -65 -66 -84 -85 -120 -121 -135 -137 -150 -151 -164 -165 -190 -191 -201 -202 -211 -212 0
-23 -65 -66 -84 -85 -120 -121 -136 -137 -150 -152 -164 -165 -190 -191 -201 -202 -211 -212 0
-23 -65 -66 -84 -85 -120 -121 -136 -137 -151 -152 -164 -166 -190 -191 -201 -202 -211 -212 0
-23 -65 -66 -84 -85 -120 -121 -136 -137 -151 -152 -165 -166 -190 -192 -201 -202 -211 -212 0
-23 -65 -66 -84 -85 -120 -121 -136 -137 -151 -152 -165 -166 -191 -192 -201 -203 -211 -212 0
-23 -65 -66 -84 -85 -120 -121 -136 -137 -151 -152 -165 -166 -191 -192 -202 -203 -211 -213 0
-23 -65 -66 -84 -85 -120 -121 -136 -137 -151 -152 -165 -166 -191 -192 -202 -203 -212 -213 0
-23 -65 -66 -84 -85 -120 -121 -136 -137 -151 -152 -165 -166 -191 -192 -202 -203 -222 -223 0
-23 -65 -66 -84 -85 -120 -121 -136 -137 -151 -152 -165 -166 -191 -192 -213 -214 -222 -223 0
-23 -65 -66 -84 -85 -120 -121 -136 -137 -151 -152 -165 -166 -203 -204 -213 -214 -222 -223 0
-22 -64 -65 -83 -84 -119 -120 -135 -136 -150 -151 -178 -179 -190 -191 -201 -202 -211 -212 0
-23 -64 -66 -83 -84 -119 -120 -135 -136 -150 -151 -178 -179 -190 -191 -201 -202 -211 -212 0
-23 -65 -66 -83 -85 -119 -120 -135 -136 -150 -151 -178 -179 -190 -191 -201 -202 -211 -212 0
-23 -65 -66 -84 -85 -119 -121 -135 -136 -150 -151 -178 -179 -190 -191 -201 -202 -211 -212 0
-23 -65 -66 -84 -85 -120 -121 -135 -137 -150 -151 -178 -179 -190 -191 -201 -202 -211 -212 0
-23 -65 -66 -84 -85 -120 -121 -136 -137 -150 -152 -178 -179 -190 -191 -201 -202 -211 -212 0
-23 -65 -66 -84 -85 -120 -121 -136 -137 -151 -152 -178 -180 -190 -191 -201 -202 -211 -212 0
-23 -65 -66 -84 -85 -120 -121 -136 -137 -151 -152 -179 -180 -190 -192 -201 -202 -211 -212 0
-23 -65 -66 -84 -85 -120 -121 -136 -137 -151 -152 -179 -180 -191 -192 -201 -203 -211 -212 0
-23 -65 -66 -84 -85 -120 -121 -136 -137 -151 -152 -179 -180 -191 -192 -202 -203 -211 -213 0
-23 -65 -66 -84 -85 -120 -121 -136 -137 -151 -152 -179 -180 -191 -192 -202 -203 -212 -213 0
-23 -65 -66 -84 -85 -120 -121 -136 -137 -151 -152 -179 -180 -191 -192 -202 -203 -222 -223 0
-23 -65 -66 -84 -85 -120 -121 -136 -137 -151 -152 -179 -180 -191 -192 -213 -214 -222 -223 0
-23 -65 -66 -84 -85 -120 -121 -136 -137 -151 -152 -179 -180 -203 -204 -213 -214 -222 -223 0
-23 -65 -66 -84 -85 -120 -121 -136 -137 -151 -152 -192 -193 -203 -204 -213 -214 -222 -223 0
-22 -64 -65 -83 -84 -119 -120 -135 -136 -165 -166 -178 -179 -190 -191 -201 -202 -211 -212 0
-23 -64 -66 -83 -84 -119 -120 -135 -136 -165 -166 -178 -179 -190 -191 -201 -202 -211 -212 0
-23 -65 -66 -83 -85 -119 -120 -135 -136 -165 -166 -178 -179 -190 -191 -201 -202 -211 -212 0
-23 -65 -66 -84 -85 -119 -121 -135 -136 -165 -166 -178 -179 -190 -191 -201 -202 -211 -212 0
-23 -65 -66 -84 -85 -120 -121 -135 -137 -165 -166 -178 -179 -190 -191 -201 -202 -211 -212 0
-23 -65 -66 -84 -85 -120 -121 -136 -137 -165 -167 -178 -179 -190 -191 -201 -202 -211 -212 0
-23 -65 -66 -84 -85 -120 -121 -136 -137 -166 -167 -178 -180 -190 -191 -201 -202 -211 -212 0
-23 -65 -66 -84 -85 -120 -121 -136 -137 -166 -167 -179 -180 -190 -192 -201 -202 -211 -212 0
-23 -65 -66 -84 -85 -120 -121 -136 -137 -166 -167 -179 -180 -191 -192 -201 -203 -211 -212 0
-23 -65 -66 -84 -85 -120 -121 -136 -137 -166 -167 -179 -180 -191 -192 -202 -203 -211 -213 0
-23 -65 -66 -84 -85 -120 -121 -136 -137 -166 -167 -179 -180 -191 -192 -202 -203 -212 -213 0
-23 -65 -66 -84 -85 -120 -121 -136 -137 -166 -167 -179 -180 -191 -192 -202 -203 -222 -223 0
-23 -65 -66 -84 -85 -120 -121 -136 -137 -166 -167 -179 -180 -191 -192 -213 -214 -222 -223 0
-23 -65 -66 -84 -85 -120 -121 -136 -137 -166 -167 -179 -180 -203 -204 -213 -214 -222 -223 0
-23 -65 -66 -84 -85 -120 -121 -136 -137 -166 -167 -192 -193 -203 -204 -213 -214 -222 -223 0
-23 -65 -66 -84 -85 -120 -121 -136 -137 -180 -181 -192 -193 -203 -204 -213 -214 -222 -223 0
-22 -64 -65 -83 -84 -119 -120 -151 -152 -165 -166 -178 -179 -190 -191 -201 -202 -211 -212 0
-23 -64 -66 -83 -84 -119 -120 -151 -152 -165 -166 -178 -179 -190 -191 -201 -202 -211 -212 0
-23 -65 -66 -83 -85 -119 -120 -151 -152 -165 -166 -178 -179 -190 -191 -201 -202 -211 -212 0
-23 -65 -66 -84 -85 -119 -121 -151 -152 -165 -166 -178 -179 -190 -191 -201 -202 -211 -212 0
-23 -65 -66 -84 -85 -120 -121 -151 -153 -165 -166 -178 -179 -190 -191 -201 -202 -211 -212 0
-23 -65 -66 -84 -85 -120 -121 -152 -153 -165 -167 -178 -179 -190 -191 -201 -202 -211 -212 0
-23 -65 -66 -84 -85 -120 -121 -152 -153 -166 -167 -178 -180 -190 -191 -201 -202 -211 -212 0
-23 -65 -66 -84 -85 -120 -121 -152 -153 -166 -167 -179 -180 -190 -192 -201 -202 -211 -212 0
-23 -65 -66 -84 -85 -120 -121 -152 -153 -166 -167 -179 -180 -191 -192 -201 -203 -211 -212 0
-23 -65 -66 -84 -85 -120 -121 -152 -153 -166 -167 -179 -180 -191 -192 -202 -203 -211 -213 0
-23 -65 -66 -84 -85 -120 -121 -152 -153 -166 -167 -179 -180 -191 -192 -202 -203 -212 -213 0
-23 -65 -66 -84 -85 -120 -121 -152 -153 -166 -167 -179 -180 -191 -192 -202 -203 -222 -223 0
-23 -65 -66 -84 -85 -120 -121 -152 -153 -166 -167 -179 -180 -191 -192 -213 -214 -222 -223 0
-23 -65 -66 -84 -85 -120 -121 -152 -153 -166 -167 -179 -180 -203 -204 -213 -214 -222 -223 0
-23 -65 -66 -84 -85 -120 -121 -152 -153 -166 -167 -192 -193 -203 -204 -213 -214 -222 -223 0
-23 -65 -66 -84 -85 -120 -121 -152 -153 -180 -181 -192 -193 -203 -204 -213 -214 -222 -223 0
-23 -65 -66 -84 -85 -120 -121 -167 -168 -180 -181 -192 -193 -203 -204 -213 -214 -222 -223 0
-22 -64 -65 -83 -84 -136 -137 -151 -152 -165 -166 -178 -179 -190 -191 -201 -202 -211 -212 0
-23 -64 -66 -83 -84 -136 -137 -151 -152 -165 -166 -178 -179 -190 -191 -201 -202 -211 -212 0
-23 -65 -66 -83 -85 -136 -137 -151 -152 -165 -166 -178 -179 -190 -191 -201 -202 -211 -212 0
-23 -65 -66 -84 -85 -136 -138 -151 -152 -165 -166 -178 -179 -190 -191 -201 -202 -211 -212 0
-23 -65 -66 -84 -85 -137 -138 -151 -153 -165 -166 -178 -179 -190 -191 -201 -202 -211 -212 0
-23 -65 -66 -84 -85 -137 -138 -152 -153 -165 -167 -178 -179 -190 -191 -201 -202 -211 -212 0
-23 -65 -66 -84 -85 -137 -138 -152 -153 -166 -167 -178 -180 -190 -191 -201 -202 -211 -212 0
-23 -65 -66 -84 -85 -137 -138 -152 -153 -166 -167 -179 -180 -190 -192 -201 -202 -211 -212 0
-23 -65 -66 -84 -85 -137 -138 -152 -153 -166 -167 -179 -180 -191 -192 -201 -203 -211 -212 0
-23 -65 -66 -84 -85 -137 -138 -152 -153 -166 -167 -179 -180 -191 -192 -202 -203 -211 -213 0
-23 -65 -66 -84 -85 -137 -138 -152 -153 -166 -167 -179 -180 -191 -192 -202 -203 -212 -213 0
-23 -65 -66 -84 -85 -137 -138 -152 -153 -166 -167 -179 -180 -191 -192 -202 -203 -222 -223 0
-23 -65 -66 -84 -85 -137 -138 -152 -153 -166 -167 -179 -180 -191 -192 -213 -214 -222 -223 0
-23 -65 -66 -84 -85 -137 -138 -152 -153 -166 -167 -179 -180 -203 -204 -213 -214 -222 -223 0
-23 -65 -66 -84 -85 -137 -138 -152 -153 -166 -167 -192 -193 -203 -204 -213 -214 -222 -223 0
-23 -65 -66 -84 -85 -137 -138 -152 -153 -180 -181 -192 -193 -203 -204 -213 -214 -222 -223 0
-23 -65 -66 -84 -85 -137 -138 -167 -168 -180 -181 -192 -193 -203 -204 -213 -214 -222 -223 0
-23 -65 -66 -84 -85 -153 -154 -167 -168 -180 -181 -192 -193 -203 -204 -213 -214 -222 -223 0
-21 -63 -64 -101 -102 -118 -119 -134 -135 -149 -150 -163 -164 -176 -177 -188 -189 -199 -200 0
-22 -63 -65 -101 -102 -118 -119 -134 -135 -149 -150 -163 -164 -176 -177 -188 -189 -199 -200 0
-23 -63 -66 -101 -102 -118 -119 -134 -135 -149 -150 -163 -164 -176 -177 -188 -189 -199 -200 0
-22 -64 -65 -101 -103 -118 -119 -134 -135 -149 -150 -163 -164 -176 -177 -188 -189 -199 -200 0
-23 -64 -66 -101 -103 -118 -119 -134 -135 -149 -150 -163 -164 -176 -177 -188 -189 -199 -200 0
-23 -65 -66 -101 -104 -118 -119 -134 -135 -149 -150 -163 -164 -176 -177 -188 -189 -199 -200 0
-22 -64 -65 -102 -103 -118 -120 -134 -135 -149 -150 -163 -164 -176 -177 -188 -189 -199 -200 0
-23 -64 -66 -102 -103 -118 -120 -134 -135 -149 -150 -163 -164 -176 -177 -188 -189 -199 -200 0
-23 -65 -66 -102 -104 -118 -120 -134 -135 -149 -150 -163 -164 -176 -177 -188 -189 -199 -200 0
-23 -65 -66 -103 -104 -118 -121 -134 -135 -149 -150 -163 -164 -176 -177 -188 -189 -199 -200 0
-22 -64 -65 -102 -103 -119 -120 -134 -136 -149 -150 -163 -164 -176 -177 -188 -189 -199 -200 0
-23 -64 -66 -102 -103 -119 -120 -134 -136 -149 -150 -163 -164 -176 -177 -188 -189 -199 -200 0
-23 -65 -66 -102 -104 -119 -120 -134 -136 -149 -150 -163 -164 -176 -177 -188 -189 -199 -200 0
-23 -65 -66 -103 -104 -119 -121 -134 -136 -149 -150 -163 -164 -176 -177 -188 -189 -199 -200 0
-23 -65 -66 -103 -104 -120 -121 -134 -137 -149 -150 -163 -164 -176 -177 -188 -189 -199 -200 0
-22 -64 -65 -102 -103 -119 -120 -135 -136 -149 -151 -163 -164 -176 -177 -188 -189 -199 -200 0
-23 -64 -66 -102 -103 -119 -120 -135 -136 -149 -151 -163 -164 -176 -177 -188 -189 -199 -200 0
-23 -65 -66 -102 -104 -119 -120 -135 -136 -149 -151 -163 -164 -176 -177 -188 -189 -199 -200 0
-23 -65 -66 -103 -104 -119 -121 -135 -136 -149 -151 -163 -164 -176 -177 -188 -189 -199 -200 0
-23 -65 -66 -103 -104 -120 -121 -135 -137 -149 -151 -163 -164 -176 -177 -188 -189 -199 -200 0
-23 -65 -66 -103 -104 -120 -121 -136 -137 -149 -152 -163 -164 -176 -177 -188 -189 -199 -200 0
-22 -64 -65 -102 -103 -119 -120 -135 -136 -150 -151 -163 -165 -176 -177 -188 -189 -199 -200 0
-23 -64 -66 -102 -103 -119 -120 -135 -136 -150 -151 -163 -165 -176 -177 -188 -189 -199 -200 0
-23 -65 -66 -102 -104 -119 -120 -135 -136 -150 -151 -163 -165 -176 -177 -188 -189 -199 -200 0
-23 -65 -66 -103 -104 -119 -121 -135 -136 -150 -151 -163 -165 -176 -177 -188 -189 -199 -200 0
-23 -65 -66 -103 -104 -120 -121 -135 -137 -150 -151 -163 -165 -176 -177 -188 -189 -199 -200 0
-23 -65 -66 -103 -104 -120 -121 -136 -137 -150 -152 -163 -165 -176 -177 -188 -189 -199 -200 0
-23 -65 -66 -103 -104 -120 -121 -136 -137 -151 -152 -163 -166 -176 -177 -188 -189 -199 -200 0
-22 -64 -65 -102 -103 -119 -120 -135 -136 -150 -151 -164 -165 -176 -178 -188 -189 -199 -200 0
-23 -64 -66 -102 -103 -119 -120 -135 -136 -150 -151 -164 -165 -176 -178 -188 -189 -199 -200 0
-23 -65 -66 -102 -104 -119 -120 -135 -136 -150 -151 -164 -165 -176 -178 -188 -189 -199 -200 0
-23 -65 -66 -103 -104 -119 -121 -135 -136 -150 -151 -164 -165 -176 -178 -188 -189 -199 -200 0
-23 -65 -66 -103 -104 -120 -121 -135 -137 -150 -151 -164 -165 -176 -178 -188 -189 -199 -200 0
-23 -65 -66 -103 -104 -120 -121 -136 -137 -150 -152 -164 -165 -176 -178 -188 -189 -199 -200 0
-23 -65 -66 -103 -104 -120 -121 -136 -137 -151 -152 -164 -166 -176 -178 -188 -189 -199 -200 0
-23 -65 -66 -103 -104 -120 -121 -136 -137 -151 -152 -165 -166 -176 -179 -188 -189 -199 -200 0
-22 -64 -65 -102 -103 -119 -120 -135 -136 -150 -151 -164 -165 -177 -178 -188 -190 -199 -200 0
-23 -64 -66 -102 -103 -119 -120 -135 -136 -150 -151 -164 -165 -177 -178 -188 -190 -199 -200 0
-23 -65 -66 -102 -104 -119 -120 -135 -136 -150 -151 -164 -165 -177 -178 -188 -190 -199 -200 0
-23 -65 -66 -103 -104 -119 -121 -135 -136 -150 -151 -164 -165 -177 -178 -188 -190 -199 -200 0
-23 -65 -66 -103 -104 -120 -121 -135 -137 -150 -151 -164 -165 -177 -178 -188 -190 -199 -200 0
-23 -65 -66 -103 -104 -120 -121 -136 -137 -150 -152 -164 -165 -177 -178 -188 -190 -199 -200 0
-23 -65 -66 -103 -104 -120 -121 -136 -137 -151 -152 -164 -166 -177 -178 -188 -190 -199 -200 0
-23 -65 -66 -103 -104 -120 -121 -136 -137 -151 -152 -165 -166 -177 -179 -188 -190 -199 -200 0
-23 -65 -66 -103 -104 -120 -121 -136 -137 -151 -152 -165 -166 -178 -179 -188 -191 -199 -200 0
-22 -64 -65 -102 -103 -119 -120 -135 -136 -150 -151 -164 -165 -177 -178 -189 -190 -199 -201 0
-23 -64 -66 -102 -103 -119 -120 -135 -136 -150 -151 -164 -165 -177 -178 -189 -190 -199 -201 0
-23 -65 -66 -102 -104 -119 -120 -135 -136 -150 -151 -164 -165 -177 -178 -189 -190 -199 -201 0
-23 -65 -66 -103 -104 -119 -121 -135 -136 -150 -151 -164 -165 -177 -178 -189 -190 -199 -201 0
-23 -65 -66 -103 -104 -120 -121 -135 -137 -150 -151 -164 -165 -177 -178 -189 -190 -199 -201 0
-23 -65 -66 -103 -104 -120 -121 -136 -137 -150 -152 -164 -165 -177 -178 -189 -190 -199 -201 0
-23 -65 -66 -103 -104 -120 -121 -136 -137 -151 -152 -164 -166 -177 -178 -189 -190 -199 -201 0
-23 -65 -66 -103 -104 -120 -121 -136 -137 -151 -152 -165 -166 -177 -179 -189 -190 -199 -201 0
-23 -65 -66 -103 -104 -120 -121 -136 -137 -151 -152 -165 -166 -178 -179 -189 -191 -199 -201 0
-23 -65 -66 -103 -104 -120 -121 -136 -137 -151 -152 -165 -166 -178 -179 -190 -191 -199 -202 0
-22 -64 -65 -102 -103 -119 -120 -135 -136 -150 -151 -164 -165 -177 -178 -189 -190 -200 -201 0
-23 -64 -66 -102 -103 -119 -120 -135 -136 -150 -151 -164 -165 -177 -178 -189 -190 -200 -201 0
-23 -65 -66 -102 -104 -119 -120 -135 -136 -150 -151 -164 -165 -177 -178 -189 -190 -200 -201 0
-23 -65 -66 -103 -104 -119 -121 -135 -136 -150 -151 -164 -165 -177 -178 -189 -190 -200 -201 0
-23 -65 -66 -103 -104 -120 -121 -135 -137 -150 -151 -164 -165 -177 -178 -189 -190 -200 -201 0
-23 -65 -66 -103 -104 -120 -121 -136 -137 -150 -152 -164 -165 -177 -178 -189 -190 -200 -201 0
-23 -65 -66 -103 -104 -120 -121 -136 -137 -151 -152 -164 -166 -177 -178 -189 -190 -200 -201 0
-23 -65 -66 -103 -104 -120 -121 -136 -137 -151 -152 -165 -166 -177 -179 -189 -190 -200 -201 0
-23 -65 -66 -103 -104 -120 -121 -136 -137 -151 -152 -165 -166 -178 -179 -189 -191 -200 -201 0
-23 -65 -66 -103 -104 -120 -121 -136 -137 -151 -152 -165 -166 -178 -179 -190 -191 -200 -202 0
-23 -65 -66 -103 -104 -120 -121 -136 -137 -151 -152 -165 -166 -178 -179 -190 -191 -201 -202 0
-22 -64 -65 -102 -103 -119 -120 -135 -136 -150 -151 -164 -165 -177 -178 -189 -190 -211 -212 0
-23 -64 -66 -102 -103 -119 -120 -135 -136 -150 -151 -164 -165 -177 -178 -189 -190 -211 -212 0
-23 -65 -66 -102 -104 -119 -120 -135 -136 -150 -151 -164 -165 -177 -178 -189 -190 -211 -212 0
-23 -65 -66 -103 -104 -119 -121 -135 -136 -150 -151 -164 -165 -177 -178 -189 -190 -211 -212 0
-23 -65 -66 -103 -104 -120 -121 -135 -137 -150 -151 -164 -165 -177 -178 -189 -190 -211 -212 0
-23 -65 -66 -103 -104 -120 -121 -136 -137 -150 -152 -164 -165 -177 -178 -189 -190 -211 -212 0
-23 -65 -66 -103 -104 -120 -121 -136 -137 -151 -152 -164 -166 -177 -178 -189 -190 -211 -212 0
-23 -65 -66 -103 -104 -120 -121 -136 -137 -151 -152 -165 -166 -177 -179 -189 -190 -211 -212 0
-23 -65 -66 -103 -104 -120 -121 -136 -137 -151 -152 -165 -166 -178 -179 -189 -191 -211 -212 0
-23 -65 -66 -103 -104 -120 -121 -136 -137 -151 -152 -165 -166 -178 -179 -190 -191 -211 -213 0
-23 -65 -66 -103 -104 -120 -121 -136 -137 -151 -152 -165 -166 -178 -179 -190 -191 -212 -213 0
-23 -65 -66 -103 -104 -120 -121 -136 -137 -151 -152 -165 -166 -178 -179 -190 -191 -222 -223 0
-22 -64 -65 -102 -103 -119 -120 -135 -136 -150 -151 -164 -165 -177 -178 -201 -202 -211 -212 0
-23 -64 -66 -102 -103 -119 -120 -135 -136 -150 -151 -164 -165 -177 -178 -201 -202 -211 -212 0
-23 -65 -66 -102 -104 -119 -120 -135 -136 -150 -151 -164 -165 -177 -178 -201 -202 -211 -212 0
-23 -65 -66 -103 -104 -119 -121 -135 -136 -150 -151 -164 -165 -177 -178 -201 -202 -211 -212 0
-23 -65 -66 -103 -104 -120 -121 -135 -137 -150 -151 -164 -165 -177 -178 -201 -202 -211 -212 0
-23 -65 -66 -103 -104 -120 -121 -136 -137 -150 -152 -164 -165 -177 -178 -201 -202 -211 -212 0
-23 -65 -66 -103 -104 -120 -121 -136 -137 -151 -152 -164 -166 -177 -178 -201 -202 -211 -212 0
-23 -65 -66 -103 -104 -120 -121 -136 -137 -151 -152 -165 -166 -177 -179 -201 -202 -211 -212 0
-23 -65 -66 -103 -104 -120 -121 -136 -137 -151 -152 -165 -166 -178 -179 -201 -203 -211 -212 0
-23 -65 -66 -103 -104 -120 -121 -136 -137 -151 -152 -165 -166 -178 -179 -202 -203 -211 -213 0
-23 -65 -66 -103 -104 -120 -121 -136 -137 -151 -152 -165 -166 -178 -179 -202 -203 -212 -213 0
-23 -65 -66 -103 -104 -120 -121 -136 -137 -151 -152 -165 -166 -178 -179 -202 -203 -222 -223 0
-23 -65 -66 -103 -104 -120 -121 -136 -137 -151 -152 -165 -166 -178 -179 -213 -214 -222 -223 0
-22 -64 -65 -102 -103 -119 -120 -135 -136 -150 -151 -164 -165 -190 -191 -201 -202 -211 -212 0
-23 -64 -66 -102 -103 -119 -120 -135 -136 -150 -151 -164 -165 -190 -191 -201 -202 -211 -212 0
-23 -65 -66 -102 -104 -119 -120 -135 -136 -150 -151 -164 -165 -190 -191 -201 -202 -211 -212 0
-23 -65 -66 -103 -104 -119 -121 -135 -136 -150 -151 -164 -165 -190 -191 -201 -202 -211 -212 0
-23 -65 -66 -103 -104 -120 -121 -135 -137 -150 -151 -164 -165 -190 -191 -201 -202 -211 -212 0
-23 -65 -66 -103 -104 -120 -121 -136 -137 -150 -152 -164 -165 -190 -191 -201 -202 -211 -212 0
-23 -65 -66 -103 -104 -120 -121 -136 -137 -151 -152 -164 -166 -190 -191 -201 -202 -211 -212 0
-23 -65 -66 -103 -104 -120 -121 -136 -137 -151 -152 -165 -166 -190 -192 -201 -202 -211 -212 0
-23 -65 -66 -103 -104 -120 -121 -136 -137 -151 -152 -165 -166 -191 -192 -201 -203 -211 -212 0
-23 -65 -66 -103 -104 -120 -121 -136 -137 -151 -152 -165 -166 -191 -192 -202 -203 -211 -213 0
-23 -65 -66 -103 -104 -120 -121 -136 -137 -151 -152 -165 -166 -191 -192 -202 -203 -212 -213 0
-23 -65 -66 -103 -104 -120 -121 -136 -137 -151 -152 -165 -166 -191 -192 -202 -203 -222 -223 0
-23 -65 -66 -103 -104 -120 -121 -136 -137 -151 -152 -165 -166 -191 -192 -213 -214 -222 -223 0
-23 -65 -66 -103 -104 -120 -121 -136 -137 -151 -152 -165 -166 -203 -204 -213 -214 -222 -223 0
-22 -64 -65 -102 -103 -119 -120 -135 -136 -150 -151 -178 -179 -190 -191 -201 -202 -211 -212 0
-23 -64 -66 -102 -103 -119 -120 -135 -136 -150 -151 -178 -179 -190 -191 -201 -202 -211 -212 0
-23 -65 -66 -102 -104 -119 -120 -135 -136 -150 -151 -178 -179 -190 -191 -201 -202 -211 -212 0
-23 -65 -66 -103 -104 -119 -121 -135 -136 -150 -151 -178 -179 -190 -191 -201 -202 -211 -212 0
-23 -65 -66 -103 -104 -120 -121 -135 -137 -150 -151 -178 -179 -190 -191 -201 -202 -211 -212 0
-23 -65 -66 -103 -104 -120 -121 -136 -137 -150 -152 -178 -179 -190 -191 -201 -202 -211 -212 0
-23 -65 -66 -103 -104 -120 -121 -136 -137 -151 -152 -178 -180 -190 -191 -201 -202 -211 -212 0
-23 -65 -66 -103 -104 -120 -121 -136 -137 -151 -152 -179 -180 -190 -192 -201 -202 -211 -212 0
-23 -65 -66 -103 -104 -120 -121 -136 -137 -151 -152 -179 -180 -191 -192 -201 -203 -211 -212 0
-23 -65 -66 -103 -104 -120 -121 -136 -137 -151 -152 -179 -180 -191 -192 -202 -203 -211 -213 0
-23 -65 -66 -103 -104 -120 -121 -136 -137 -151 -152 -179 -180 -191 -192 -202 -203 -212 -213 0
-23 -65 -66 -103 -104 -120 -121 -136 -137 -151 -152 -179 -180 -191 -192 -202 -203 -222 -223 0
-23 -65 -66 -103 -104 -120 -121 -136 -137 -151 -152 -179 -180 -191 -192 -213 -214 -222 -223 0
-23 -65 -66 -103 -104 -120 -121 -136 -137 -151 -152 -179 -180 -203 -204 -213 -214 -222 -223 0
-23 -65 -66 -103 -104 -120 -121 -136 -137 -151 -152 -192 -193 -203 -204 -213 -214 -222 -223 0
-22 -64 -65 -102 -103 -119 -120 -135 -136 -165 -166 -178 -179 -190 -191 -201 -202 -211 -212 0
-23 -64 -66 -102 -103 -119 -120 -135 -136 -165 -166 -178 -179 -190 -191 -201 -202 -211 -212 0
-23 -65 -66 -102 -104 -119 -120 -135 -136 -165 -166 -178 -179 -190 -191 -201 -202 -211 -212 0
-23 -65 -66 -103 -104 -119 -121 -135 -136 -165 -166 -178 -179 -190 -191 -201 -202 -211 -212 0
-23 -65 -66 -103 -104 -120 -121 -135 -137 -165 -166 -178 -179 -190 -191 -201 -202 -211 -212 0
-23 -65 -66 -103 -104 -120 -121 -136 -137 -165 -167 -178 -179 -190 -191 -201 -202 -211 -212 0
-23 -65 -66 -103 -104 -120 -121 -136 -137 -166 -167 -178 -180 -190 -191 -201 -202 -211 -212 0
-23 -65 -66 -103 -104 -120 -121 -136 -137 -166 -167 -179 -180 -190 -192 -201 -202 -211 -212 0
-23 -65 -66 -103 -104 -120 -121 -136 -137 -166 -167 -179 -180 -191 -192 -201 -203 -211 -212 0
-23 -65 -66 -103 -104 -120 -121 -136 -137 -166 -167 -179 -180 -191 -192 -202 -203 -211 -213 0
-23 -65 -66 -103 -104 -120 -121 -136 -137 -166 -167 -179 -180 -191 -192 -202 -203 -212 -213 0
-23 -65 -66 -103 -104 -120 -121 -136 -137 -166 -167 -179 -180 -191 -192 -202 -203 -222 -223 0
-23 -65 -66 -103 -104 -120 -121 -136 -137 -166 -167 -179 -180 -191 -192 -213 -214 -222 -223 0
-23 -65 -66 -103 -104 -120 -121 -136 -137 -166 -167 -179 -180 -203 -204 -213 -214 -222 -223 0
-23 -65 -66 -103 -104 -120 -121 -136 -137 -166 -167 -192 -193 -203 -204 -213 -214 -222 -223 0
-23 -65 -66 -103 -104 -120 -121 -136 -137 -180 -181 -192 -193 -203 -204 -213 -214 -222 -223 0
-22 -64 -65 -102 -103 -119 -120 -151 -152 -165 -166 -178 -179 -190 -191 -201 -202 -211 -212 0
-23 -64 -66 -102 -103 -119 -120 -151 -152 -165 -166 -178 -179 -190 -191 -201 -202 -211 -212 0
-23 -65 -66 -102 -104 -119 -120 -151 -152 -165 -166 -178 -179 -190 -191 -201 -202 -211 -212 0
-23 -65 -66 -103 -104 -119 -121 -151 -152 -165 -166 -178 -179 -190 -191 -201 -202 -211 -212 0
-23 -65 -66 -103 -104 -120 -121 -151 -153 -165 -166 -178 -179 -190 -191 -201 -202 -211 -212 0
-23 -65 -66 -103 -104 -120 -121 -152 -153 -165 -167 -178 -179 -190 -191 -201 -202 -211 -212 0
-23 -65 -66 -103 -104 -120 -121 -152 -153 -166 -167 -178 -180 -190 -191 -201 -202 -211 -212 0
-23 -65 -66 -103 -104 -120 -121 -152 -153 -166 -167 -179 -180 -190 -192 -201 -202 -211 -212 0
-23 -65 -66 -103 -104 -120 -121 -152 -153 -166 -167 -179 -180 -191 -192 -201 -203 -211 -212 0
-23 -65 -66 -103 -104 -120 -121 -152 -153 -166 -167 -179 -180 -191 -192 -202 -203 -211 -213 0
-23 -65 -66 -103 -104 -120 -121 -152 -153 -166 -167 -179 -180 -191 -192 -202 -203 -212 -213 0
-23 -65 -66 -103 -104 -120 -121 -152 -153 -166 -167 -179 -180 -191 -192 -202 -203 -222 -223 0
-23 -65 -66 -103 -104 -120 -121 -152 -153 -166 -167 -179 -180 -191 -192 -213 -214 -222 -223 0
-23 -65 -66 -103 -104 -120 -121 -152 -153 -166 -167 -179 -180 -203 -204 -213 -214 -222 -223 0
-23 -65 -66 -103 -104 -120 -121 -152 -153 -166 -167 -192 -193 -203 -204 -213 -214 -222 -223 0
-23 -65 -66 -103 -104 -120 -121 -152 -153 -180 -181 -192 -193 -203 -204 -213 -214 -222 -223 0
-23 -65 -66 -103 -104 -120 -121 -167 -168 -180 -181 -192 -193 -203 -204 -213 -214 -222 -223 0
-22 -64 -65 -102 -103 -136 -137 -151 -152 -165 -166 -178 -179 -190 -191 -201 -202 -211 -212 0
-23 -64 -66 -102 -103 -136 -137 -151 -152 -165 -166 -178 -179 -190 -191 -201 -202 -211 -212 0
-23 -65 -66 -102 -104 -136 -137 -151 -152 -165 -166 -178 -179 -190 -191 -201 -202 -211 -212 0
-23 -65 -66 -103 -104 -136 -138 -151 -152 -165 -166 -178 -179 -190 -191 -201 -202 -211 -212 0
-23 -65 -66 -103 -104 -137 -138 -151 -153 -165 -166 -178 -179 -190 -191 -201 -202 -211 -212 0
-23 -65 -66 -103 -104 -137 -138 -152 -153 -165 -167 -178 -179 -190 -191 -201 -202 -211 -212 0
-23 -65 -66 -103 -104 -137 -138 -152 -153 -166 -167 -178 -180 -190 -191 -201 -202 -211 -212 0
-23 -65 -66 -103 -104 -137 -138 -152 -153 -166 -167 -179 -180 -190 -192 -201 -202 -211 -212 0
-23 -65 -66 -103 -104 -137 -138 -152 -153 -166 -167 -179 -180 -191 -192 -201 -203 -211 -212 0
-23 -65 -66 -103 -104 -137 -138 -152 -153 -166 -167 -179 -180 -191 -192 -202 -203 -211 -213 0
-23 -65 -66 -103 -104 -137 -138 -152 -153 -166 -167 -179 -180 -191 -192 -202 -203 -212 -213 0
-23 -65 -66 -103 -104 -137 -138 -152 -153 -166 -167 -179 -180 -191 -192 -202 -203 -222 -223 0
-23 -65 -66 -103 -104 -137 -138 -152 -153 -166 -167 -179 -180 -191 -192 -213 -214 -222 -223 0
-23 -65 -66 -103 -104 -137 -138 -152 -153 -166 -167 -179 -180 -203 -204 -213 -214 -222 -223 0
-23 -65 -66 -103 -104 -137 -138 -152 -153 -166 -167 -192 -193 -203 -204 -213 -214 -222 -223 0
-23 -65 -66 -103 -104 -137 -138 -152 -153 -180 -181 -192 -193 -203 -204 -213 -214 -222 -223 0
-23 -65 -66 -103 -104 -137 -138 -167 -168 -180 -181 -192 -193 -203 -204 -213 -214 -222 -223 0
-23 -65 -66 -103 -104 -153 -154 -167 -168 -180 -181 -192 -193 -203 -204 -213 -214 -222 -223 0
-22 -64 -65 -120 -121 -136 -137 -151 -152 -165 -166 -178 -179 -190 -191 -201 -202 -211 -212 0
-23 -64 -66 -120 -121 -136 -137 -151 -152 -165 -166 -178 -179 -190 -191 -201 -202 -211 -212 0
-23 -65 -66 -120 -122 -136 -137 -151 -152 -165 -166 -178 -179 -190 -191 -201 -202 -211 -212 0
-23 -65 -66 -121 -122 -136 -138 -151 -152 -165 -166 -178 -179 -190 -191 -201 -202 -211 -212 0
-23 -65 -66 -121 -122 -137 -138 -151 -153 -165 -166 -178 -179 -190 -191 -201 -202 -211 -212 0
-23 -65 -66 -121 -122 -137 -138 -152 -153 -165 -167 -178 -179 -190 -191 -201 -202 -211 -212 0
-23 -65 -66 -121 -122 -137 -138 -152 -153 -166 -167 -178 -180 -190 -191 -201 -202 -211 -212 0
-23 -65 -66 -121 -122 -137 -138 -152 -153 -166 -167 -179 -180 -190 -192 -201 -202 -211 -212 0
-23 -65 -66 -121 -122 -137 -138 -152 -153 -166 -167 -179 -180 -191 -192 -201 -203 -211 -212 0
-23 -65 -66 -121 -122 -137 -138 -152 -153 -166 -167 -179 -180 -191 -192 -202 -203 -211 -213 0
-23 -65 -66 -121 -122 -137 -138 -152 -153 -166 -167 -179 -180 -191 -192 -202 -203 -212 -213 0
-23 -65 -66 -121 -122 -137 -138 -152 -153 -166 -167 -179 -180 -191 -192 -202 -203 -222 -223 0
-23 -65 -66 -121 -122 -137 -138 -152 -153 -166 -167 -179 -180 -191 -192 -213 -214 -222 -223 0
-23 -65 -66 -121 -122 -137 -138 -152 -153 -166 -167 -179 -180 -203 -204 -213 -214 -222 -223 0
-23 -65 -66 -121 -122 -137 -138 -152 -153 -166 -167 -192 -193 -203 -204 -213 -214 -222 -223 0
-23 -65 -66 -121 -122 -137 -138 -152 -153 -180 -181 -192 -193 -203 -204 -213 -214 -222 -223 0
-23 -65 -66 -121 -122 -137 -138 -167 -168 -180 -181 -192 -193 -203 -204 -213 -214 -222 -223 0
-23 -65 -66 -121 -122 -153 -154 -167 -168 -180 -181 -192 -193 -203 -204 -213 -214 -222 -223 0
-23 -65 -66 -138 -139 -153 -154 -167 -168 -180 -181 -192 -193 -203 -204 -213 -214 -222 -223 0
-21 -83 -84 -101 -102 -118 -119 -134 -135 -149 -150 -163 -164 -176 -177 -188 -189 -199 -200 0
-22 -83 -85 -101 -102 -118 -119 -134 -135 -149 -150 -163 -164 -176 -177 -188 -189 -199 -200 0
-23 -83 -86 -101 -102 -118 -119 -134 -135 -149 -150 -163 -164 -176 -177 -188 -189 -199 -200 0
-22 -84 -85 -101 -103 -118 -119 -134 -135 -149 -150 -163 -164 -176 -177 -188 -189 -199 -200 0
-23 -84 -86 -101 -103 -118 -119 -134 -135 -149 -150 -163 -164 -176 -177 -188 -189 -199 -200 0
-23 -85 -86 -101 -104 -118 -119 -134 -135 -149 -150 -163 -164 -176 -177 -188 -189 -199 -200 0
-22 -84 -85 -102 -103 -118 -120 -134 -135 -149 -150 -163 -164 -176 -177 -188 -189 -199 -200 0
-23 -84 -86 -102 -103 -118 -120 -134 -135 -149 -150 -163 -164 -176 -177 -188 -189 -199 -200 0
-23 -85 -86 -102 -104 -118 -120 -134 -135 -149 -150 -163 -164 -176 -177 -188 -189 -199 -200 0
-23 -85 -86 -103 -104 -118 -121 -134 -135 -149 -150 -163 -164 -176 -177 -188 -189 -199 -200 0
-22 -84 -85 -102 -103 -119 -120 -134 -136 -149 -150 -163 -164 -176 -177 -188 -189 -199 -200 0
-23 -84 -86 -102 -103 -119 -120 -134 -136 -149 -150 -163 -164 -176 -177 -188 -189 -199 -200 0
-23 -85 -86 -102 -104 -119 -120 -134 -136 -149 -150 -163 -164 -176 -177 -188 -189 -199 -200 0
-23 -85 -86 -103 -104 -119 -121 -134 -136 -149 -150 -163 -164 -176 -177 -188 -189 -199 -200 0
-23 -85 -86 -103 -104 -120 -121 -134 -137 -149 -150 -163 -164 -176 -177 -188 -189 -199 -200 0
-22 -84 -85 -102 -103 -119 -120 -135 -136 -149 -151 -163 -164 -176 -177 -188 -189 -199 -200 0
-23 -84 -86 -102 -103 -119 -120 -135 -136 -149 -151 -163 -164 -176 -177 -188 -189 -199 -200 0
-23 -85 -86 -102 -104 -119 -120 -135 -136 -149 -151 -163 -164 -176 -177 -188 -189 -199 -200 0
-23 -85 -86 -103 -104 -119 -121 -135 -136 -149 -151 -163 -164 -176 -177 -188 -189 -199 -200 0
-23 -85 -86 -103 -104 -120 -121 -135 -137 -149 -151 -163 -164 -176 -177 -188 -189 -199 -200 0
-23 -85 -86 -103 -104 -120 -121 -136 -137 -149 -152 -163 -164 -176 -177 -188 -189 -199 -200 0
-22 -84 -85 -102 -103 -119 -120 -135 -136 -150 -151 -163 -165 -176 -177 -188 -189 -199 -200 0
-23 -84 -86 -102 -103 -119 -120 -135 -136 -150 -151 -163 -165 -176 -177 -188 -189 -199 -200 0
-23 -85 -86 -102 -104 -119 -120 -135 -136 -150 -151 -163 -165 -176 -177 -188 -189 -199 -200 0
-23 -85 -86 -103 -104 -119 -121 -135 -136 -150 -151 -163 -165 -176 -177 -188 -189 -199 -200 0
-23 -85 -86 -103 -104 -120 -121 -135 -137 -150 -151 -163 -165 -176 -177 -188 -189 -199 -200 0
-23 -85 -86 -103 -104 -120 -121 -136 -137 -150 -152 -163 -165 -176 -177 -188 -189 -199 -200 0
-23 -85 -86 -103 -104 -120 -121 -136 -137 -151 -152 -163 -166 -176 -177 -188 -189 -199 -200 0
-22 -84 -85 -102 -103 -119 -120 -135 -136 -150 -151 -164 -165 -176 -178 -188 -189 -199 -200 0
-23 -84 -86 -102 -103 -119 -120 -135 -136 -150 -151 -164 -165 -176 -178 -188 -189 -199 -200 0
-23 -85 -86 -102 -104 -119 -120 -135 -136 -150 -151 -164 -165 -176 -178 -188 -189 -199 -200 0
-23 -85 -86 -103 -104 -119 -121 -135 -136 -150 -151 -164 -165 -176 -178 -188 -189 -199 -200 0
-23 -85 -86 -103 -104 -120 -121 -135 -137 -150 -151 -164 -165 -176 -178 -188 -189 -199 -200 0
-23 -85 -86 -103 -104 -120 -121 -136 -137 -150 -152 -164 -165 -176 -178 -188 -189 -199 -200 0
-23 -85 -86 -103 -104 -120 -121 -136 -137 -151 -152 -164 -166 -176 -178 -188 -189 -199 -200 0
-23 -85 -86 -103 -104 -120 -121 -136 -137 -151 -152 -165 -166 -176 -179 -188 -189 -199 -200 0
-22 -84 -85 -102 -103 -119 -120 -135 -136 -150 -151 -164 -165 -177 -178 -188 -190 -199 -200 0
-23 -84 -86 -102 -103 -119 -120 -135 -136 -150 -151 -164 -165 -177 -178 -188 -190 -199 -200 0
-23 -85 -86 -102 -104 -119 -120 -135 -136 -150 -151 -164 -165 -177 -178 -188 -190 -199 -200 0
-23 -85 -86 -103 -104 -119 -121 -135 -136 -150 -151 -164 -165 -177 -178 -188 -190 -199 -200 0
-23 -85 -86 -103 -104 -120 -121 -135 -137 -150 -151 -164 -165 -177 -178 -188 -190 -199 -200 0
-23 -85 -86 -103 -104 -120 -121 -136 -137 -150 -152 -164 -165 -177 -178 -188 -190 -199 -200 0
-23 -85 -86 -103 -104 -120 -121 -136 -137 -151 -152 -164 -166 -177 -178 -188 -190 -199 -200 0
-23 -85 -86 -103 -104 -120 -121 -136 -137 -151 -152 -165 -166 -177 -179 -188 -190 -199 -200 0
-23 -85 -86 -103 -104 -120 -121 -136 -137 -151 -152 -165 -166 -178 -179 -188 -191 -199 -200 0
-22 -84 -85 -102 -103 -119 -120 -135 -136 -150 -151 -164 -165 -177 -178 -189 -190 -199 -201 0
-23 -84 -86 -102 -103 -119 -120 -135 -136 -150 -151 -164 -165 -177 -178 -189 -190 -199 -201 0
-23 -85 -86 -102 -104 -119 -120 -135 -136 -150 -151 -164 -165 -177 -178 -189 -190 -199 -201 0
-23 -85 -86 -103 -104 -119 -121 -135 -136 -150 -151 -164 -165 -177 -178 -189 -190 -199 -201 0
-23 -85 -86 -103 -104 -120 -121 -135 -137 -150 -151 -164 -165 -177 -178 -189 -190 -199 -201 0
-23 -85 -86 -103 -104 -120 -121 -136 -137 -150 -152 -164 -165 -177 -178 -189 -190 -199 -201 0
-23 -85 -86 -103 -104 -120 -121 -136 -137 -151 -152 -164 -166 -177 -178 -189 -190 -199 -201 0
-23 -85 -86 -103 -104 -120 -121 -136 -137 -151 -152 -165 -166 -177 -179 -189 -190 -199 -201 0
-23 -85 -86 -103 -104 -120 -121 -136 -137 -151 -152 -165 -166 -178 -179 -189 -191 -199 -201 0
-23 -85 -86 -103 -104 -120 -121 -136 -137 -151 -152 -165 -166 -178 -179 -190 -191 -199 -202 0
-22 -84 -85 -102 -103 -119 -120 -135 -136 -150 -151 -164 -165 -177 -178 -189 -190 -200 -201 0
-23 -84 -86 -102 -103 -119 -120 -135 -136 -150 -151 -164 -165 -177 -178 -189 -190 -200 -201 0
-23 -85 -86 -102 -104 -119 -120 -135 -136 -150 -151 -164 -165 -177 -178 -189 -190 -200 -201 0
-23 -85 -86 -103 -104 -119 -121 -135 -136 -150 -151 -164 -165 -177 -178 -189 -190 -200 -201 0
-23 -85 -86 -103 -104 -120 -121 -135 -137 -150 -151 -164 -165 -177 -178 -189 -190 -200 -201 0
-23 -85 -86 -103 -104 -120 -121 -136 -137 -150 -152 -164 -165 -177 -178 -189 -190 -200 -201 0
-23 -85 -86 -103 -104 -120 -121 -136 -137 -151 -152 -164 -166 -177 -178 -189 -190 -200 -201 0
-23 -85 -86 -103 -104 -120 -121 -136 -137 -151 -152 -165 -166 -177 -179 -189 -190 -200 -201 0
-23 -85 -86 -103 -104 -120 -121 -136 -137 -151 -152 -165 -166 -178 -179 -189 -191 -200 -201 0
-23 -85 -86 -103 -104 -120 -121 -136 -137 -151 -152 -165 -166 -178 -179 -190 -191 -200 -202 0
-23 -85 -86 -103 -104 -120 -121 -136 -137 -151 -152 -165 -166 -178 -179 -190 -191 -201 -202 0
-22 -84 -85 -102 -103 -119 -120 -135 -136 -150 -151 -164 -165 -177 -178 -189 -190 -211 -212 0
-23 -84 -86 -102 -103 -119 -120 -135 -136 -150 -151 -164 -165 -177 -178 -189 -190 -211 -212 0
-23 -85 -86 -102 -104 -119 -120 -135 -136 -150 -151 -164 -165 -177 -178 -189 -190 -211 -212 0
-23 -85 -86 -103 -104 -119 -121 -135 -136 -150 -151 -164 -165 -177 -178 -189 -190 -211 -212 0
-23 -85 -86 -103 -104 -120 -121 -135 -137 -150 -151 -164 -165 -177 -178 -189 -190 -211 -212 0
-23 -85 -86 -103 -104 -120 -121 -136 -137 -150 -152 -164 -165 -177 -178 -189 -190 -211 -212 0
-23 -85 -86 -103 -104 -120 -121 -136 -137 -151 -152 -164 -166 -177 -178 -189 -190 -211 -212 0
-23 -85 -86 -103 -104 -120 -121 -136 -137 -151 -152 -165 -166 -177 -179 -189 -190 -211 -212 0
-23 -85 -86 -103 -104 -120 -121 -136 -137 -151 -152 -165 -166 -178 -179 -189 -191 -211 -212 0
-23 -85 -86 -103 -104 -120 -121 -136 -137 -151 -152 -165 -166 -178 -179 -190 -191 -211 -213 0
-23 -85 -86 -103 -104 -120 -121 -136 -137 -151 -152 -165 -166 -178 -179 -190 -191 -212 -213 0
-23 -85 -86 -103 -104 -120 -121 -136 -137 -151 -152 -165 -166 -178 -179 -190 -191 -222 -223 0
-22 -84 -85 -102 -103 -119 -120 -135 -136 -150 -151 -164 -165 -177 -178 -201 -202 -211 -212 0
-23 -84 -86 -102 -103 -119 -120 -135 -136 -150 -151 -164 -165 -177 -178 -201 -202 -211 -212 0
-23 -85 -86 -102 -104 -119 -120 -135 -136 -150 -151 -164 -165 -177 -178 -201 -202 -211 -212 0
-23 -85 -86 -103 -104 -119 -121 -135 -136 -150 -151 -164 -165 -177 -178 -201 -202 -211 -212 0
-23 -85 -86 -103 -104 -120 -121 -135 -137 -150 -151 -164 -165 -177 -178 -201 -202 -211 -212 0
-23 -85 -86 -103 -104 -120 -121 -136 -137 -150 -152 -164 -165 -177 -178 -201 -202 -211 -212 0
-23 -85 -86 -103 -104 -120 -121 -136 -137 -151 -152 -164 -166 -177 -178 -201 -202 -211 -212 0
-23 -85 -86 -103 -104 -120 -121 -136 -137 -151 -152 -165 -166 -177 -179 -201 -202 -211 -212 0
-23 -85 -86 -103 -104 -120 -121 -136 -137 -151 -152 -165 -166 -178 -179 -201 -203 -211 -212 0
-23 -85 -86 -103 -104 -120 -121 -136 -137 -151 -152 -165 -166 -178 -179 -202 -203 -211 -213 0
-23 -85 -86 -103 -104 -120 -121 -136 -137 -151 -152 -165 -166 -178 -179 -202 -203 -212 -213 0
-23 -85 -86 -103 -104 -120 -121 -136 -137 -151 -152 -165 -166 -178 -179 -202 -203 -222 -223 0
-23 -85 -86 -103 -104 -120 -121 -136 -137 -151 -152 -165 -166 -178 -179 -213 -214 -222 -223 0
-22 -84 -85 -102 -103 -119 -120 -135 -136 -150 -151 -164 -165 -190 -191 -201 -202 -211 -212 0
-23 -84 -86 -102 -103 -119 -120 -135 -136 -150 -151 -164 -165 -190 -191 -201 -202 -211 -212 0
-23 -85 -86 -102 -104 -119 -120 -135 -136 -150 -151 -164 -165 -190 -191 -201 -202 -211 -212 0
-23 -85 -86 -103 -104 -119 -121 -135 -136 -150 -151 -164 -165 -190 -191 -201 -202 -211 -212 0
-23 -85 -86 -103 -104 -120 -121 -135 -137 -150 -151 -164 -165 -190 -191 -201 -202 -211 -212 0
-23 -85 -86 -103 -104 -120 -121 -136 -137 -150 -152 -164 -165 -190 -191 -201 -202 -211 -212 0
-23 -85 -86 -103 -104 -120 -121 -136 -137 -151 -152 -164 -166 -190 -191 -201 -202 -211 -212 0
-23 -85 -86 -103 -104 -120 -121 -136 -137 -151 -152 -165 -166 -190 -192 -201 -202 -211 -212 0
-23 -85 -86 -103 -104 -120 -121 -136 -137 -151 -152 -165 -166 -191 -192 -201 -203 -211 -212 0
-23 -85 -86 -103 -104 -120 -121 -136 -137 -151 -152 -165 -166 -191 -192 -202 -203 -211 -213 0
-23 -85 -86 -103 -104 -120 -121 -136 -137 -151 -152 -165 -166 -191 -192 -202 -203 -212 -213 0
-23 -85 -86 -103 -104 -120 -121 -136 -137 -151 -152 -165 -166 -191 -192 -202 -203 -222 -223 0
-23 -85 -86 -103 -104 -120 -121 -136 -137 -151 -152 -165 -166 -191 -192 -213 -214 -222 -223 0
-23 -85 -86 -103 -104 -120 -121 -136 -137 -151 -152 -165 -166 -203 -204 -213 -214 -222 -223 0
-22 -84 -85 -102 -103 -119 -120 -135 -136 -150 -151 -178 -179 -190 -191 -201 -202 -211 -212 0
-23 -84 -86 -102 -103 -119 -120 -135 -136 -150 -151 -178 -179 -190 -191 -201 -202 -211 -212 0
-23 -85 -86 -102 -104 -119 -120 -135 -136 -150 -151 -178 -179 -190 -191 -201 -202 -211 -212 0
-23 -85 -86 -103 -104 -119 -121 -135 -136 -150 -151 -178 -179 -190 -191 -201 -202 -211 -212 0
-23 -85 -86 -103 -104 -120 -121 -135 -137 -150 -151 -178 -179 -190 -191 -201 -202 -211 -212 0
-23 -85 -86 -103 -104 -120 -121 -136 -137 -150 -152 -178 -179 -190 -191 -201 -202 -211 -212 0
-23 -85 -86 -103 -104 -120 -121 -136 -137 -151 -152 -178 -180 -190 -191 -201 -202 -211 -212 0
-23 -85 -86 -103 -104 -120 -121 -136 -137 -151 -152 -179 -180 -190 -192 -201 -202 -211 -212 0
-23 -85 -86 -103 -104 -120 -121 -136 -137 -151 -152 -179 -180 -191 -192 -201 -203 -211 -212 0
-23 -85 -86 -103 -104 -120 -121 -136 -137 -151 -152 -179 -180 -191 -192 -202 -203 -211 -213 0
-23 -85 -86 -103 -104 -120 -121 -136 -137 -151 -152 -179 -180 -191 -192 -202 -203 -212 -213 0
-23 -85 -86 -103 -104 -120 -121 -136 -137 -151 -152 -179 -180 -191 -192 -202 -203 -222 -223 0
-23 -85 -86 -103 -104 -120 -121 -136 -137 -151 -152 -179 -180 -191 -192 -213 -214 -222 -223 0
-23 -85 -86 -103 -104 -120 -121 -136 -137 -151 -152 -179 -180 -203 -204 -213 -214 -222 -223 0
-23 -85 -86 -103 -104 -120 -121 -136 -137 -151 -152 -192 -193 -203 -204 -213 -214 -222 -223 0
-22 -84 -85 -102 -103 -119 -120 -135 -136 -165 -166 -178 -179 -190 -191 -201 -202 -211 -212 0
-23 -84 -86 -102 -103 -119 -120 -135 -136 -165 -166 -178 -179 -190 -191 -201 -202 -211 -212 0
-23 -85 -86 -102 -104 -119 -120 -135 -136 -165 -166 -178 -179 -190 -191 -201 -202 -211 -212 0
-23 -85 -86 -103 -104 -119 -121 -135 -136 -165 -166 -178 -179 -190 -191 -201 -202 -211 -212 0
-23 -85 -86 -103 -104 -120 -121 -135 -137 -165 -166 -178 -179 -190 -191 -201 -202 -211 -212 0
-23 -85 -86 -103 -104 -120 -121 -136 -137 -165 -167 -178 -179 -190 -191 -201 -202 -211 -212 0
-23 -85 -86 -103 -104 -120 -121 -136 -137 -166 -167 -178 -180 -190 -191 -201 -202 -211 -212 0
-23 -85 -86 -103 -104 -120 -121 -136 -137 -166 -167 -179 -180 -190 -192 -201 -202 -211 -212 0
-23 -85 -86 -103 -104 -120 -121 -136 -137 -166 -167 -179 -180 -191 -192 -201 -203 -211 -212 0
-23 -85 -86 -103 -104 -120 -121 -136 -137 -166 -167 -179 -180 -191 -192 -202 -203 -211 -213 0
-23 -85 -86 -103 -104 -120 -121 -136 -137 -166 -167 -179 -180 -191 -192 -202 -203 -212 -213 0
-23 -85 -86 -103 -104 -120 -121 -136 -137 -166 -167 -179 -180 -191 -192 -202 -203 -222 -223 0
-23 -85 -86 -103 -104 -120 -121 -136 -137 -166 -167 -179 -180 -191 -192 -213 -214 -222 -223 0
-23 -85 -86 -103 -104 -120 -121 -136 -137 -166 -167 -179 -180 -203 -204 -213 -214 -222 -223 0
-23 -85 -86 -103 -104 -120 -121 -136 -137 -166 -167 -192 -193 -203 -204 -213 -214 -222 -223 0
-23 -85 -86 -103 -104 -120 -121 -136 -137 -180 -181 -192 -193 -203 -204 -213 -214 -222 -223 0
-22 -84 -85 -102 -103 -119 -120 -151 -152 -165 -166 -178 -179 -190 -191 -201 -202 -211 -212 0
-23 -84 -86 -102 -103 -119 -120 -151 -152 -165 -166 -178 -179 -190 -191 -201 -202 -211 -212 0
-23 -85 -86 -102 -104 -119 -120 -151 -152 -165 -166 -178 -179 -190 -191 -201 -202 -211 -212 0
-23 -85 -86 -103 -104 -119 -121 -151 -152 -165 -166 -178 -179 -190 -191 -201 -202 -211 -212 0
-23 -85 -86 -103 -104 -120 -121 -151 -153 -165 -166 -178 -179 -190 -191 -201 -202 -211 -212 0
-23 -85 -86 -103 -104 -120 -121 -152 -153 -165 -167 -178 -179 -190 -191 -201 -202 -211 -212 0
-23 -85 -86 -103 -104 -120 -121 -152 -153 -166 -167 -178 -180 -190 -191 -201 -202 -211 -212 0
-23 -85 -86 -103 -104 -120 -121 -152 -153 -166 -167 -179 -180 -190 -192 -201 -202 -211 -212 0
-23 -85 -86 -103 -104 -120 -121 -152 -153 -166 -167 -179 -180 -191 -192 -201 -203 -211 -212 0
-23 -85 -86 -103 -104 -120 -121 -152 -153 -166 -167 -179 -180 -191 -192 -202 -203 -211 -213 0
-23 -85 -86 -103 -104 -120 -121 -152 -153 -166 -167 -179 -180 -191 -192 -202 -203 -212 -213 0
-23 -85 -86 -103 -104 -120 -121 -152 -153 -166 -167 -179 -180 -191 -192 -202 -203 -222 -223 0
-23 -85 -86 -103 -104 -120 -121 -152 -153 -166 -167 -179 -180 -191 -192 -213 -214 -222 -223 0
-23 -85 -86 -103 -104 -120 -121 -152 -153 -166 -167 -179 -180 -203 -204 -213 -214 -222 -223 0
-23 -85 -86 -103 -104 -120 -121 -152 -153 -166 -167 -192 -193 -203 -204 -213 -214 -222 -223 0
-23 -85 -86 -103 -104 -120 -121 -152 -153 -180 -181 -192 -193 -203 -204 -213 -214 -222 -223 0
-23 -85 -86 -103 -104 -120 -121 -167 -168 -180 -181 -192 -193 -203 -204 -213 -214 -222 -223 0
-22 -84 -85 -102 -103 -136 -137 -151 -152 -165 -166 -178 -179 -190 -191 -201 -202 -211 -212 0
-23 -84 -86 -102 -103 -136 -137 -151 -152 -165 -166 -178 -179 -190 -191 -201 -202 -211 -212 0
-23 -85 -86 -102 -104 -136 -137 -151 -152 -165 -166 -178 -179 -190 -191 -201 -202 -211 -212 0
-23 -85 -86 -103 -104 -136 -138 -151 -152 -165 -166 -178 -179 -190 -191 -201 -202 -211 -212 0
-23 -85 -86 -103 -104 -137 -138 -151 -153 -165 -166 -178 -179 -190 -191 -201 -202 -211 -212 0
-23 -85 -86 -103 -104 -137 -138 -152 -153 -165 -167 -178 -179 -190 -191 -201 -202 -211 -212 0
-23 -85 -86 -103 -104 -137 -138 -152 -153 -166 -167 -178 -180 -190 -191 -201 -202 -211 -212 0
-23 -85 -86 -103 -104 -137 -138 -152 -153 -166 -167 -179 -180 -190 -192 -201 -202 -211 -212 0
-23 -85 -86 -103 -104 -137 -138 -152 -153 -166 -167 -179 -180 -191 -192 -201 -203 -211 -212 0
-23 -85 -86 -103 -104 -137 -138 -152 -153 -166 -167 -179 -180 -191 -192 -202 -203 -211 -213 0
-23 -85 -86 -103 -104 -137 -138 -152 -153 -166 -167 -179 -180 -191 -192 -202 -203 -212 -213 0
-23 -85 -86 -103 -104 -137 -138 -152 -153 -166 -167 -179 -180 -191 -192 -202 -203 -222 -223 0
-23 -85 -86 -103 -104 -137 -138 -152 -153 -166 -167 -179 -180 -191 -192 -213 -214 -222 -223 0
-23 -85 -86 -103 -104 -137 -138 -152 -153 -166 -167 -179 -180 -203 -204 -213 -214 -222 -223 0
-23 -85 -86 -103 -104 -137 -138 -152 -153 -166 -167 -192 -193 -203 -204 -213 -214 -222 -223 0
-23 -85 -86 -103 -104 -137 -138 -152 -153 -180 -181 -192 -193 -203 -204 -213 -214 -222 -223 0
-23 -85 -86 -103 -104 -137 -138 -167 -168 -180 -181 -192 -193 -203 -204 -213 -214 -222 -223 0
-23 -85 -86 -103 -104 -153 -154 -167 -168 -180 -181 -192 -193 -203 -204 -213 -214 -222 -223 0
-22 -84 -85 -120 -121 -136 -137 -151 -152 -165 -166 -178 -179 -190 -191 -201 -202 -211 -212 0
-23 -84 -86 -120 -121 -136 -137 -151 -152 -165 -166 -178 -179 -190 -191 -201 -202 -211 -212 0
-23 -85 -86 -120 -122 -136 -137 -151 -152 -165 -166 -178 -179 -190 -191 -201 -202 -211 -212 0
-23 -85 -86 -121 -122 -136 -138 -151 -152 -165 -166 -178 -179 -190 -191 -201 -202 -211 -212 0
-23 -85 -86 -121 -122 -137 -138 -151 -153 -165 -166 -178 -179 -190 -191 -201 -202 -211 -212 0
-23 -85 -86 -121 -122 -137 -138 -152 -153 -165 -167 -178 -179 -190 -191 -201 -202 -211 -212 0
-23 -85 -86 -121 -122 -137 -138 -152 -153 -166 -167 -178 -180 -190 -191 -201 -202 -211 -212 0
-23 -85 -86 -121 -122 -137 -138 -152 -153 -166 -167 -179 -180 -190 -192 -201 -202 -211 -212 0
-23 -85 -86 -121 -122 -137 -138 -152 -153 -166 -167 -179 -180 -191 -192 -201 -203 -211 -212 0
-23 -85 -86 -121 -122 -137 -138 -152 -153 -166 -167 -179 -180 -191 -192 -202 -203 -211 -213 0
-23 -85 -86 -121 -122 -137 -138 -152 -153 -166 -167 -179 -180 -191 -192 -202 -203 -212 -213 0
-23 -85 -86 -121 -122 -137 -138 -152 -153 -166 -167 -179 -180 -191 -192 -202 -203 -222 -223 0
-23 -85 -86 -121 -122 -137 -138 -152 -153 -166 -167 -179 -180 -191 -192 -213 -214 -222 -223 0
-23 -85 -86 -121 -122 -137 -138 -152 -153 -166 -167 -179 -180 -203 -204 -213 -214 -222 -223 0
-23 -85 -86 -121 -122 -137 -138 -152 -153 -166 -167 -192 -193 -203 -204 -213 -214 -222 -223 0
-23 -85 -86 -121 -122 -137 -138 -152 -153 -180 -181 -192 -193 -203 -204 -213 -214 -222 -223 0
-23 -85 -86 -121 -122 -137 -138 -167 -168 -180 -181 -192 -193 -203 -204 -213 -214 -222 -223 0
-23 -85 -86 -121 -122 -153 -154 -167 -168 -180 -181 -192 -193 -203 -204 -213 -214 -222 -223 0
-23 -85 -86 -138 -139 -153 -154 -167 -168 -180 -181 -192 -193 -203 -204 -213 -214 -222 -223 0
-22 -103 -104 -120 -121 -136 -137 -151 -152 -165 -166 -178 -179 -190 -191 -201 -202 -211 -212 0
-23 -103 -105 -120 -121 -136 -137 -151 -152 -165 -166 -178 -179 -190 -191 -201 -202 -211 -212 0
-23 -104 -105 -120 -122 -136 -137 -151 -152 -165 -166 -178 -179 -190 -191 -201 -202 -211 -212 0
-23 -104 -105 -121 -122 -136 -138 -151 -152 -165 -166 -178 -179 -190 -191 -201 -202 -211 -212 0
-23 -104 -105 -121 -122 -137 -138 -151 -153 -165 -166 -178 -179 -190 -191 -201 -202 -211 -212 0
-23 -104 -105 -121 -122 -137 -138 -152 -153 -165 -167 -178 -179 -190 -191 -201 -202 -211 -212 0
-23 -104 -105 -121 -122 -137 -138 -152 -153 -166 -167 -178 -180 -190 -191 -201 -202 -211 -212 0
-23 -104 -105 -121 -122 -137 -138 -152 -153 -166 -167 -179 -180 -190 -192 -201 -202 -211 -212 0
-23 -104 -105 -121 -122 -137 -138 -152 -153 -166 -167 -179 -180 -191 -192 -201 -203 -211 -212 0
-23 -104 -105 -121 -122 -137 -138 -152 -153 -166 -167 -179 -180 -191 -192 -202 -203 -211 -213 0
-23 -104 -105 -121 -122 -137 -138 -152 -153 -166 -167 -179 -180 -191 -192 -202 -203 -212 -213 0
-23 -104 -105 -121 -122 -137 -138 -152 -153 -166 -167 -179 -180 -191 -192 -202 -203 -222 -223 0
-23 -104 -105 -121 -122 -137 -138 -152 -153 -166 -167 -179 -180 -191 -192 -213 -214 -222 -223 0
-23 -104 -105 -121 -122 -137 -138 -152 -153 -166 -167 -179 -180 -203 -204 -213 -214 -222 -223 0
-23 -104 -105 -121 -122 -137 -138 -152 -153 -166 -167 -192 -193 -203 -204 -213 -214 -222 -223 0
-23 -104 -105 -121 -122 -137 -138 -152 -153 -180 -181 -192 -193 -203 -204 -213 -214 -222 -223 0
-23 -104 -105 -121 -122 -137 -138 -167 -168 -180 -181 -192 -193 -203 -204 -213 -214 -222 -223 0
-23 -104 -105 -121 -122 -153 -154 -167 -168 -180 -181 -192 -193 -203 -204 -213 -214 -222 -223 0
-23 -104 -105 -138 -139 -153 -154 -167 -168 -180 -181 -192 -193 -203 -204 -213 -214 -222 -223 0
-23 -122 -123 -138 -139 -153 -154 -167 -168 -180 -181 -192 -193 -203 -204 -213 -214 -222 -223 0
-42 -62 -63 -81 -82 -99 -100 -116 -117 -132 -133 -147 -148 -161 -162 -174 -175 -186 -187 0
-43 -62 -64 -81 -82 -99 -100 -116 -117 -132 -133 -147 -148 -161 -162 -174 -175 -186 -187 0
-44 -62 -65 -81 -82 -99 -100 -116 -117 -132 -133 -147 -148 -161 -162 -174 -175 -186 -187 0
-45 -62 -66 -81 -82 -99 -100 -116 -117 -132 -133 -147 -148 -161 -162 -174 -175 -186 -187 0
-43 -63 -64 -81 -83 -99 -100 -116 -117 -132 -133 -147 -148 -161 -162 -174 -175 -186 -187 0
-44 -63 -65 -81 -83 -99 -100 -116 -117 -132 -133 -147 -148 -161 -162 -174 -175 -186 -187 0
-45 -63 -66 -81 -83 -99 -100 -116 -117 -132 -133 -147 -148 -161 -162 -174 -175 -186 -187 0
-44 -64 -65 -81 -84 -99 -100 -116 -117 -132 -133 -147 -148 -161 -162 -174 -175 -186 -187 0
-45 -64 -66 -81 -84 -99 -100 -116 -117 -132 -133 -147 -148 -161 -162 -174 -175 -186 -187 0
-45 -65 -66 -81 -85 -99 -100 -116 -117 -132 -133 -147 -148 -161 -162 -174 -175 -186 -187 0
-43 -63 -64 -82 -83 -99 -101 -116 -117 -132 -133 -147 -148 -161 -162 -174 -175 -186 -187 0
-44 -63 -65 -82 -83 -99 -101 -116 -117 -132 -133 -147 -148 -161 -162 -174 -175 -186 -187 0
-45 -63 -66 -82 -83 -99 -101 -116 -117 -132 -133 -147 -148 -161 -162 -174 -175 -186 -187 0
-44 -64 -65 -82 -84 -99 -101 -116 -117 -132 -133 -147 -148 -161 -162 -174 -175 -186 -187 0
-45 -64 -66 -82 -84 -99 -101 -116 -117 -132 -133 -147 -148 -161 -162 -174 -175 -186 -187 0
-45 -65 -66 -82 -85 -99 -101 -116 -117 -132 -133 -147 -148 -161 -162 -174 -175 -186 -187 0
-44 -64 -65 -83 -84 -99 -102 -116 -117 -132 -133 -147 -148 -161 -162 -174 -175 -186 -187 0
-45 -64 -66 -83 -84 -99 -102 -116 -117 -132 -133 -147 -148 -161 -162 -174 -175 -186 -187 0
-45 -65 -66 -83 -85 -99 -102 -116 -117 -132 -133 -147 -148 -161 -162 -174 -175 -186 -187 0
-45 -65 -66 -84 -85 -99 -103 -116 -117 -132 -133 -147 -148 -161 -162 -174 -175 -186 -187 0
-43 -63 -64 -82 -83 -100 -101 -116 -118 -132 -133 -147 -148 -161 -162 -174 -175 -186 -187 0
-44 -63 -65 -82 -83 -100 -101 -116 -118 -132 -133 -147 -148 -161 -162 -174 -175 -186 -187 0
-45 -63 -66 -82 -83 -100 -101 -116 -118 -132 -133 -147 -148 -161 -162 -174 -175 -186 -187 0
-44 -64 -65 -82 -84 -100 -101 -116 -118 -132 -133 -147 -148 -161 -162 -174 -175 -186 -187 0
-45 -64 -66 -82 -84 -100 -101 -116 -118 -132 -133 -147 -148 -161 -162 -174 -175 -186 -187 0
-45 -65 -66 -82 -85 -100 -101 -116 -118 -132 -133 -147 -148 -161 -162 -174 -175 -186 -187 0
-44 -64 -65 -83 -84 -100 -102 -116 -118 -132 -133 -147 -148 -161 -162 -174 -175 -186 -187 0
-45 -64 -66 -83 -84 -100 -102 -116 -118 -132 -133 -147 -148 -161 -162 -174 -175 -186 -187 0
-45 -65 -66 -83 -85 -100 -102 -116 -118 -132 -133 -147 -148 -161 -162 -174 -175 -186 -187 0
-45 -65 -66 -84 -85 -100 -103 -116 -118 -132 -133 -147 -148 -161 -162 -174 -175 -186 -187 0
-44 -64 -65 -83 -84 -101 -102 -116 -119 -132 -133 -147 -148 -161 -162 -174 -175 -186 -187 0
-45 -64 -66 -83 -84 -101 -102 -116 -119 -132 -133 -147 -148 -161 -162 -174 -175 -186 -187 0
-45 -65 -66 -83 -85 -101 -102 -116 -119 -132 -133 -147 -148 -161 -162 -174 -175 -186 -187 0
-45 -65 -66 -84 -85 -101 -103 -116 -119 -132 -133 -147 -148 -161 -162 -174 -175 -186 -187 0
-45 -65 -66 -84 -85 -102 -103 -116 -120 -132 -133 -147 -148 -161 -162 -174 -175 -186 -187 0
-43 -63 -64 -82 -83 -100 -101 -117 -118 -132 -134 -147 -148 -161 -162 -174 -175 -186 -187 0
-44 -63 -65 -82 -83 -100 -101 -117 -118 -132 -134 -147 -148 -161 -162 -174 -175 -186 -187 0
-45 -63 -66 -82 -83 -100 -101 -117 -118 -132 -134 -147 -148 -161 -162 -174 -175 -186 -187 0
-44 -64 -65 -82 -84 -100 -101 -117 -118 -132 -134 -147 -148 -161 -162 -174 -175 -186 -187 0
-45 -64 -66 -82 -84 -100 -101 -117 -118 -132 -134 -147 -148 -161 -162 -174 -175 -186 -187 0
-45 -65 -66 -82 -85 -100 -101 -117 -118 -132 -134 -147 -148 -161 -162 -174 -175 -186 -187 0
-44 -64 -65 -83 -84 -100 -102 -117 -118 -132 -134 -147 -148 -161 -162 -174 -175 -186 -187 0
-45 -64 -66 -83 -84 -100 -102 -117 -118 -132 -134 -147 -148 -161 -162 -174 -175 -186 -187 0
-45 -65 -66 -83 -85 -100 -102 -117 -118 -132 -134 -147 -148 -161 -162 -174 -175 -186 -187 0
-45 -65 -66 -84 -85 -100 -103 -117 -118 -132 -134 -147 -148 -161 -162 -174 -175 -186 -187 0
-44 -64 -65 -83 -84 -101 -102 -117 -119 -132 -134 -147 -148 -161 -162 -174 -175 -186 -187 0
-45 -64 -66 -83 -84 -101 -102 -117 -119 -132 -134 -147 -148 -161 -162 -174 -175 -186 -187 0
-45 -65 -66 -83 -85 -101 -102 -117 -119 -132 -134 -147 -148 -161 -162 -174 -175 -186 -187 0
-45 -65 -66 -84 -85 -101 -103 -117 -119 -132 -134 -147 -148 -161 -162 -174 -175 -186 -187 0
-45 -65 -66 -84 -85 -102 -103 -117 -120 -132 -134 -147 -148 -161 -162 -174 -175 -186 -187 0
-44 -64 -65 -83 -84 -101 -102 -118 -119 -132 -135 -147 -148 -161 -162 -174 -175 -186 -187 0
-45 -64 -66 -83 -84 -101 -102 -118 -119 -132 -135 -147 -148 -161 -162 -174 -175 -186 -187 0
-45 -65 -66 -83 -85 -101 -102 -118 -119 -132 -135 -147 -148 -161 -162 -174 -175 -186 -187 0
-45 -65 -66 -84 -85 -101 -103 -118 -119 -132 -135 -147 -148 -161 -162 -174 -175 -186 -187 0
-45 -65 -66 -84 -85 -102 -103 -118 -120 -132 -135 -147 -148 -161 -162 -174 -175 -186 -187 0
-45 -65 -66 -84 -85 -102 -103 -119 -120 -132 -136 -147 -148 -161 -162 -174 -175 -186 -187 0
-43 -63 -64 -82 -83 -100 -101 -117 -118 -133 -134 -147 -149 -161 -162 -174 -175 -186 -187 0
-44 -63 -65 -82 -83 -100 -101 -117 -118 -133 -134 -147 -149 -161 -162 -174 -175 -186 -187 0
-45 -63 -66 -82 -83 -100 -101 -117 -118 -133 -134 -147 -149 -161 -162 -174 -175 -186 -187 0
-44 -64 -65 -82 -84 -100 -101 -117 -118 -133 -134 -147 -149 -161 -162 -174 -175 -186 -187 0
-45 -64 -66 -82 -84 -100 -101 -117 -118 -133 -134 -147 -149 -161 -162 -174 -175 -186 -187 0
-45 -65 -66 -82 -85 -100 -101 -117 -118 -133 -134 -147 -149 -161 -162 -174 -175 -186 -187 0
-44 -64 -65 -83 -84 -100 -102 -117 -118 -133 -134 -147 -149 -161 -162 -174 -175 -186 -187 0
-45 -64 -66 -83 -84 -100 -102 -117 -118 -133 -134 -147 -149 -161 -162 -174 -175 -186 -187 0
-45 -65 -66 -83 -85 -100 -102 -117 -118 -133 -134 -147 -149 -161 -162 -174 -175 -186 -187 0
-45 -65 -66 -84 -85 -100 -103 -117 -118 -133 -134 -147 -149 -161 -162 -174 -175 -186 -187 0
-44 -64 -65 -83 -84 -101 -102 -117 -119 -133 -134 -147 -149 -161 -162 -174 -175 -186 -187 0
-45 -64 -66 -83 -84 -101 -102 -117 -119 -133 -134 -147 -149 -161 -162 -174 -175 -186 -187 0
-45 -65 -66 -83 -85 -101 -102 -117 -119 -133 -134 -147 -149 -161 -162 -174 -175 -186 -187 0
-45 -65 -66 -84 -85 -101 -103 -117 -119 -133 -134 -147 -149 -161 -162 -174 -175 -186 -187 0
-45 -65 -66 -84 -85 -102 -103 -117 -120 -133 -134 -147 -149 -161 -162 -174 -175 -186 -187 0
-44 -64 -65 -83 -84 -101 -102 -118 -119 -133 -135 -147 -149 -161 -162 -174 -175 -186 -187 0
-45 -64 -66 -83 -84 -101 -102 -118 -119 -133 -135 -147 -149 -161 -162 -174 -175 -186 -187 0
-45 -65 -66 -83 -85 -101 -102 -118 -119 -133 -135 -147 -149 -161 -162 -174 -175 -186 -187 0
-45 -65 -66 -84 -85 -101 -103 -118 -119 -133 -135 -147 -149 -161 -162 -174 -175 -186 -187 0
-45 -65 -66 -84 -85 -102 -103 -118 -120 -133 -135 -147 -149 -161 -162 -174 -175 -186 -187 0
-45 -65 -66 -84 -85 -102 -103 -119 -120 -133 -136 -147 -149 -161 -162 -174 -175 -186 -187 0
-44 -64 -65 -83 -84 -101 -102 -118 -119 -134 -135 -147 -150 -161 -162 -174 -175 -186 -187 0
-45 -64 -66 -83 -84 -101 -102 -118 -119 -134 -135 -147 -150 -161 -162 -174 -175 -186 -187 0
-45 -65 -66 -83 -85 -101 -102 -118 -119 -134 -135 -147 -150 -161 -162 -174 -175 -186 -187 0
-45 -65 -66 -84 -85 -101 -103 -118 -119 -134 -135 -147 -150 -161 -162 -174 -175 -186 -187 0
-45 -65 -66 -84 -85 -102 -103 -118 -120 -134 -135 -147 -150 -161 -162 -174 -175 -186 -187 0
-45 -65 -66 -84 -85 -102 -103 -119 -120 -134 -136 -147 -150 -161 -162 -174 -175 -186 -187 0
-45 -65 -66 -84 -85 -102 -103 -119 -120 -135 -136 -147 -151 -161 -162 -174 -175 -186 -187 0
-43 -63 -64 -82 -83 -100 -101 -117 -118 -133 -134 -148 -149 -161 -163 -174 -175 -186 -187 0
-44 -63 -65 -82 -83 -100 -101 -117 -118 -133 -134 -148 -149 -161 -163 -174 -175 -186 -187 0
-45 -63 -66 -82 -83 -100 -101 -117 -118 -133 -134 -148 -149 -161 -163 -174 -175 -186 -187 0
-44 -64 -65 -82 -84 -100 -101 -117 -118 -133 -134 -148 -149 -161 -163 -174 -175 -186 -187 0
-45 -64 -66 -82 -84 -100 -101 -117 -118 -133 -134 -148 -149 -161 -163 -174 -175 -186 -187 0
-45 -65 -66 -82 -85 -100 -101 -117 -118 -133 -134 -148 -149 -161 -163 -174 -175 -186 -187 0
-44 -64 -65 -83 -84 -100 -102 -117 -118 -133 -134 -148 -149 -161 -163 -174 -175 -186 -187 0
-45 -64 -66 -83 -84 -100 -102 -117 -118 -133 -134 -148 -149 -161 -163 -174 -175 -186 -187 0
-45 -65 -66 -83 -85 -100 -102 -117 -118 -133 -134 -148 -149 -161 -163 -174 -175 -186 -187 0
-45 -65 -66 -84 -85 -100 -103 -117 -118 -133 -134 -148 -149 -161 -163 -174 -175 -186 -187 0
-44 -64 -65 -83 -84 -101 -102 -117 -119 -133 -134 -148 -149 -161 -163 -174 -175 -186 -187 0
-45 -64 -66 -83 -84 -101 -102 -117 -119 -133 -134 -148 -149 -161 -163 -174 -175 -186 -187 0
-45 -65 -66 -83 -85 -101 -102 -117 -119 -133 -134 -148 -149 -161 -163 -174 -175 -186 -187 0
-45 -65 -66 -84 -85 -101 -103 -117 -119 -133 -134 -148 -149 -161 -163 -174 -175 -186 -187 0
-45 -65 -66 -84 -85 -102 -103 -117 -120 -133 -134 -148 -149 -161 -163 -174 -175 -186 -187 0
-44 -64 -65 -83 -84 -101 -102 -118 -119 -133 -135 -148 -149 -161 -163 -174 -175 -186 -187 0
-45 -64 -66 -83 -84 -101 -102 -118 -119 -133 -135 -148 -149 -161 -163 -174 -175 -186 -187 0
-45 -65 -66 -83 -85 -101 -102 -118 -119 -133 -135 -148 -149 -161 -163 -174 -175 -186 -187 0
-45 -65 -66 -84 -85 -101 -103 -118 -119 -133 -135 -148 -149 -161 -163 -174 -175 -186 -187 0
-45 -65 -66 -84 -85 -102 -103 -118 -120 -133 -135 -148 -149 -161 -163 -174 -175 -186 -187 0
-45 -65 -66 -84 -85 -102 -103 -119 -120 -133 -136 -148 -149 -161 -163 -174 -175 -186 -187 0
-44 -64 -65 -83 -84 -101 -102 -118 -119 -134 -135 -148 -150 -161 -163 -174 -175 -186 -187 0
-45 -64 -66 -83 -84 -101 -102 -118 -119 -134 -135 -148 -150 -161 -163 -174 -175 -186 -187 0
-45 -65 -66 -83 -85 -101 -102 -118 -119 -134 -135 -148 -150 -161 -163 -174 -175 -186 -187 0
-45 -65 -66 -84 -85 -101 -103 -118 -119 -134 -135 -148 -150 -161 -163 -174 -175 -186 -187 0
-45 -65 -66 -84 -85 -102 -103 -118 -120 -134 -135 -148 -150 -161 -163 -174 -175 -186 -187 0
-45 -65 -66 -84 -85 -102 -103 -119 -120 -134 -136 -148 -150 -161 -163 -174 -175 -186 -187 0
-45 -65 -66 -84 -85 -102 -103 -119 -120 -135 -136 -148 -151 -161 -163 -174 -175 -186 -187 0
-44 -64 -65 -83 -84 -101 -102 -118 -119 -134 -135 -149 -150 -161 -164 -174 -175 -186 -187 0
-45 -64 -66 -83 -84 -101 -102 -118 -119 -134 -135 -149 -150 -161 -164 -174 -175 -186 -187 0
-45 -65 -66 -83 -85 -101 -102 -118 -119 -134 -135 -149 -150 -161 -164 -174 -175 -186 -187 0
-45 -65 -66 -84 -85 -101 -103 -118 -119 -134 -135 -149 -150 -161 -164 -174 -175 -186 -187 0
-45 -65 -66 -84 -85 -102 -103 -118 -120 -134 -135 -149 -150 -161 -164 -174 -175 -186 -187 0
-45 -65 -66 -84 -85 -102 -103 -119 -120 -134 -136 -149 -150 -161 -164 -174 -175 -186 -187 0
-45 -65 -66 -84 -85 -102 -103 -119 -120 -135 -136 -149 -151 -161 -164 -174 -175 -186 -187 0
-45 -65 -66 -84 -85 -102 -103 -119 -120 -135 -136 -150 -151 -161 -165 -174 -175 -186 -187 0
-43 -63 -64 -82 -83 -100 -101 -117 -118 -133 -134 -148 -149 -162 -163 -174 -176 -186 -187 0
-44 -63 -65 -82 -83 -100 -101 -117 -118 -133 -134 -148 -149 -162 -163 -174 -176 -186 -187 0
-45 -63 -66 -82 -83 -100 -101 -117 -118 -133 -134 -148 -149 -162 -163 -174 -176 -186 -187 0
-44 -64 -65 -82 -84 -100 -101 -117 -118 -133 -134 -148 -149 -162 -163 -174 -176 -186 -187 0
-45 -64 -66 -82 -84 -100 -101 -117 -118 -133 -134 -148 -149 -162 -163 -174 -176 -186 -187 0
-45 -65 -66 -82 -85 -100 -101 -117 -118 -133 -134 -148 -149 -162 -163 -174 -176 -186 -187 0
-44 -64 -65 -83 -84 -100 -102 -117 -118 -133 -134 -148 -149 -162 -163 -174 -176 -186 -187 0
-45 -64 -66 -83 -84 -100 -102 -117 -118 -133 -134 -148 -149 -162 -163 -174 -176 -186 -187 0
-45 -65 -66 -83 -85 -100 -102 -117 -118 -133 -134 -148 -149 -162 -163 -174 -176 -186 -187 0
-45 -65 -66 -84 -85 -100 -103 -117 -118 -133 -134 -148 -149 -162 -163 -174 -176 -186 -187 0
-44 -64 -65 -83 -84 -101 -102 -117 -119 -133 -134 -148 -149 -162 -163 -174 -176 -186 -187 0
-45 -64 -66 -83 -84 -101 -102 -117 -119 -133 -134 -148 -149 -162 -163 -174 -176 -186 -187 0
-45 -65 -66 -83 -85 -101 -102 -117 -119 -133 -134 -148 -149 -162 -163 -174 -176 -186 -187 0
-45 -65 -66 -84 -85 -101 -103 -117 -119 -133 -134 -148 -149 -162 -163 -174 -176 -186 -187 0
-45 -65 -66 -84 -85 -102 -103 -117 -120 -133 -134 -148 -149 -162 -163 -174 -176 -186 -187 0
-44 -64 -65 -83 -84 -101 -102 -118 -119 -133 -135 -148 -149 -162 -163 -174 -176 -186 -187 0
-45 -64 -66 -83 -84 -101 -102 -118 -119 -133 -135 -148 -149 -162 -163 -174 -176 -186 -187 0
-45 -65 -66 -83 -85 -101 -102 -118 -119 -133 -135 -148 -149 -162 -163 -174 -176 -186 -187 0
-45 -65 -66 -84 -85 -101 -103 -118 -119 -133 -135 -148 -149 -162 -163 -174 -176 -186 -187 0
-45 -65 -66 -84 -85 -102 -103 -118 -120 -133 -135 -148 -149 -162 -163 -174 -176 -186 -187 0
-45 -65 -66 -84 -85 -102 -103 -119 -120 -133 -136 -148 -149 -162 -163 -174 -176 -186 -187 0
-44 -64 -65 -83 -84 -101 -102 -118 -119 -134 -135 -148 -150 -162 -163 -174 -176 -186 -187 0
-45 -64 -66 -83 -84 -101 -102 -118 -119 -134 -135 -148 -150 -162 -163 -174 -176 -186 -187 0
-45 -65 -66 -83 -85 -101 -102 -118 -119 -134 -135 -148 -150 -162 -163 -174 -176 -186 -187 0
-45 -65 -66 -84 -85 -101 -103 -118 -119 -134 -135 -148 -150 -162 -163 -174 -176 -186 -187 0
-45 -65 -66 -84 -85 -102 -103 -118 -120 -134 -135 -148 -150 -162 -163 -174 -176 -186 -187 0
-45 -65 -66 -84 -85 -102 -103 -119 -120 -134 -136 -148 -150 -162 -163 -174 -176 -186 -187 0
-45 -65 -66 -84 -85 -102 -103 -119 -120 -135 -136 -148 -151 -162 -163 -174 -176 -186 -187 0
-44 -64 -65 -83 -84 -101 -102 -118 -119 -134 -135 -149 -150 -162 -164 -174 -176 -186 -187 0
-45 -64 -66 -83 -84 -101 -102 -118 -119 -134 -135 -149 -150 -162 -164 -174 -176 -186 -187 0
-45 -65 -66 -83 -85 -101 -102 -118 -119 -134 -135 -149 -150 -162 -164 -174 -176 -186 -187 0
-45 -65 -66 -84 -85 -101 -103 -118 -119 -134 -135 -149 -150 -162 -164 -174 -176 -186 -187 0
-45 -65 -66 -84 -85 -102 -103 -118 -120 -134 -135 -149 -150 -162 -164 -174 -176 -186 -187 0
-45 -65 -66 -84 -85 -102 -103 -119 -120 -134 -136 -149 -150 -162 -164 -174 -176 -186 -187 0
-45 -65 -66 -84 -85 -102 -103 -119 -120 -135 -136 -149 -151 -162 -164 -174 -176 -186 -187 0
-45 -65 -66 -84 -85 -102 -103 -119 -120 -135 -136 -150 -151 -162 -165 -174 -176 -186 -187 0
-44 -64 -65 -83 -84 -101 -102 -118 -119 -134 -135 -149 -150 -163 -164 -174 -177 -186 -187 0
-45 -64 -66 -83 -84 -101 -102 -118 -119 -134 -135 -149 -150 -163 -164 -174 -177 -186 -187 0
-45 -65 -66 -83 -85 -101 -102 -118 -119 -134 -135 -149 -150 -163 -164 -174 -177 -186 -187 0
-45 -65 -66 -84 -85 -101 -103 -118 -119 -134 -135 -149 -150 -163 -164 -174 -177 -186 -187 0
-45 -65 -66 -84 -85 -102 -103 -118 -120 -134 -135 -149 -150 -163 -164 -174 -177 -186 -187 0
-45 -65 -66 -84 -85 -102 -103 -119 -120 -134 -136 -149 -150 -163 -164 -174 -177 -186 -187 0
-45 -65 -66 -84 -85 -102 -103 -119 -120 -135 -136 -149 -151 -163 -164 -174 -177 -186 -187 0
-45 -65 -66 -84 -85 -102 -103 -119 -120 -135 -136 -150 -151 -163 -165 -174 -177 -186 -187 0
-45 -65 -66 -84 -85 -102 -103 -119 -120 -135 -136 -150 -151 -164 -165 -174 -178 -186 -187 0
-43 -63 -64 -82 -83 -100 -101 -117 -118 -133 -134 -148 -149 -162 -163 -175 -176 -186 -188 0
-44 -63 -65 -82 -83 -100 -101 -117 -118 -133 -134 -148 -149 -162 -163 -175 -176 -186 -188 0
-45 -63 -66 -82 -83 -100 -101 -117 -118 -133 -134 -148 -149 -162 -163 -175 -176 -186 -188 0
-44 -64 -65 -82 -84 -100 -101 -117 -118 -133 -134 -148 -149 -162 -163 -175 -176 -186 -188 0
-45 -64 -66 -82 -84 -100 -101 -117 -118 -133 -134 -148 -149 -162 -163 -175 -176 -186 -188 0
-45 -65 -66 -82 -85 -100 -101 -117 -118 -133 -134 -148 -149 -162 -163 -175 -176 -186 -188 0
-44 -64 -65 -83 -84 -100 -102 -117 -118 -133 -134 -148 -149 -162 -163 -175 -176 -186 -188 0
-45 -64 -66 -83 -84 -100 -102 -117 -118 -133 -134 -148 -149 -162 -163 -175 -176 -186 -188 0
-45 -65 -66 -83 -85 -100 -102 -117 -118 -133 -134 -148 -149 -162 -163 -175 -176 -186 -188 0
-45 -65 -66 -84 -85 -100 -103 -117 -118 -133 -134 -148 -149 -162 -163 -175 -176 -186 -188 0
-44 -64 -65 -83 -84 -101 -102 -117 -119 -133 -134 -148 -149 -162 -163 -175 -176 -186 -188 0
-45 -64 -66 -83 -84 -101 -102 -117 -119 -133 -134 -148 -149 -162 -163 -175 -176 -186 -188 0
-45 -65 -66 -83 -85 -101 -102 -117 -119 -133 -134 -148 -149 -162 -163 -175 -176 -186 -188 0
-45 -65 -66 -84 -85 -101 -103 -117 -119 -133 -134 -148 -149 -162 -163 -175 -176 -186 -188 0
-45 -65 -66 -84 -85 -102 -103 -117 -120 -133 -134 -148 -149 -162 -163 -175 -176 -186 -188 0
-44 -64 -65 -83 -84 -101 -102 -118 -119 -133 -135 -148 -149 -162 -163 -175 -176 -186 -188 0
-45 -64 -66 -83 -84 -101 -102 -118 -119 -133 -135 -148 -149 -162 -163 -175 -176 -186 -188 0
-45 -65 -66 -83 -85 -101 -102 -118 -119 -133 -135 -148 -149 -162 -163 -175 -176 -186 -188 0
-45 -65 -66 -84 -85 -101 -103 -118 -119 -133 -135 -148 -149 -162 -163 -175 -176 -186 -188 0
-45 -65 -66 -84 -85 -102 -103 -118 -120 -133 -135 -148 -149 -162 -163 -175 -176 -186 -188 0
-45 -65 -66 -84 -85 -102 -103 -119 -120 -133 -136 -148 -149 -162 -163 -175 -176 -186 -188 0
-44 -64 -65 -83 -84 -101 -102 -118 -119 -134 -135 -148 -150 -162 -163 -175 -176 -186 -188 0
-45 -64 -66 -83 -84 -101 -102 -118 -119 -134 -135 -148 -150 -162 -163 -175 -176 -186 -188 0
-45 -65 -66 -83 -85 -101 -102 -118 -119 -134 -135 -148 -150 -162 -163 -175 -176 -186 -188 0
-45 -65 -66 -84 -85 -101 -103 -118 -119 -134 -135 -148 -150 -162 -163 -175 -176 -186 -188 0
-45 -65 -66 -84 -85 -102 -103 -118 -120 -134 -135 -148 -150 -162 -163 -175 -176 -186 -188 0
-45 -65 -66 -84 -85 -102 -103 -119 -120 -134 -136 -148 -150 -162 -163 -175 -176 -186 -188 0
-45 -65 -66 -84 -85 -102 -103 -119 -120 -135 -136 -148 -151 -162 -163 -175 -176 -186 -188 0
-44 -64 -65 -83 -84 -101 -102 -118 -119 -134 -135 -149 -150 -162 -164 -175 -176 -186 -188 0
-45 -64 -66 -83 -84 -101 -102 -118 -119 -134 -135 -149 -150 -162 -164 -175 -176 -186 -188 0
-45 -65 -66 -83 -85 -101 -102 -118 -119 -134 -135 -149 -150 -162 -164 -175 -176 -186 -188 0
-45 -65 -66 -84 -85 -101 -103 -118 -119 -134 -135 -149 -150 -162 -164 -175 -176 -186 -188 0
-45 -65 -66 -84 -85 -102 -103 -118 -120 -134 -135 -149 -150 -162 -164 -175 -176 -186 -188 0
-45 -65 -66 -84 -85 -102 -103 -119 -120 -134 -136 -149 -150 -162 -164 -175 -176 -186 -188 0
-45 -65 -66 -84 -85 -102 -103 -119 -120 -135 -136 -149 -151 -162 -164 -175 -176 -186 -188 0
-45 -65 -66 -84 -85 -102 -103 -119 -120 -135 -136 -150 -151 -162 -165 -175 -176 -186 -188 0
-44 -64 -65 -83 -84 -101 -102 -118 -119 -134 -135 -149 -150 -163 -164 -175 -177 -186 -188 0
-45 -64 -66 -83 -84 -101 -102 -118 -119 -134 -135 -149 -150 -163 -164 -175 -177 -186 -188 0
-45 -65 -66 -83 -85 -101 -102 -118 -119 -134 -135 -149 -150 -163 -164 -175 -177 -186 -188 0
-45 -65 -66 -84 -85 -101 -103 -118 -119 -134 -135 -149 -150 -163 -164 -175 -177 -186 -188 0
-45 -65 -66 -84 -85 -102 -103 -118 -120 -134 -135 -149 -150 -163 -164 -175 -177 -186 -188 0
-45 -65 -66 -84 -85 -102 -103 -119 -120 -134 -136 -149 -150 -163 -164 -175 -177 -186 -188 0
-45 -65 -66 -84 -85 -102 -103 -119 -120 -135 -136 -149 -151 -163 -164 -175 -177 -186 -188 0
-45 -65 -66 -84 -85 -102 -103 -119 -120 -135 -136 -150 -151 -163 -165 -175 -177 -186 -188 0
-45 -65 -66 -84 -85 -102 -103 -119 -120 -135 -136 -150 -151 -164 -165 -175 -178 -186 -188 0
-44 -64 -65 -83 -84 -101 -102 -118 -119 -134 -135 -149 -150 -163 -164 -176 -177 -186 -189 0
-45 -64 -66 -83 -84 -101 -102 -118 -119 -134 -135 -149 -150 -163 -164 -176 -177 -186 -189 0
-45 -65 -66 -83 -85 -101 -102 -118 -119 -134 -135 -149 -150 -163 -164 -176 -177 -186 -189 0
-45 -65 -66 -84 -85 -101 -103 -118 -119 -134 -135 -149 -150 -163 -164 -176 -177 -186 -189 0
-45 -65 -66 -84 -85 -102 -103 -118 -120 -134 -135 -149 -150 -163 -164 -176 -177 -186 -189 0
-45 -65 -66 -84 -85 -102 -103 -119 -120 -134 -136 -149 -150 -163 -164 -176 -177 -186 -189 0
-45 -65 -66 -84 -85 -102 -103 -119 -120 -135 -136 -149 -151 -163 -164 -176 -177 -186 -189 0
-45 -65 -66 -84 -85 -102 -103 -119 -120 -135 -136 -150 -151 -163 -165 -176 -177 -186 -189 0
-45 -65 -66 -84 -85 -102 -103 -119 -120 -135 -136 -150 -151 -164 -165 -176 -178 -186 -189 0
-45 -65 -66 -84 -85 -102 -103 -119 -120 -135 -136 -150 -151 -164 -165 -177 -178 -186 -190 0
-43 -63 -64 -82 -83 -100 -101 -117 -118 -133 -134 -148 -149 -162 -163 -175 -176 -187 -188 0
-44 -63 -65 -82 -83 -100 -101 -117 -118 -133 -134 -148 -149 -162 -163 -175 -176 -187 -188 0
-45 -63 -66 -82 -83 -100 -101 -117 -118 -133 -134 -148 -149 -162 -163 -175 -176 -187 -188 0
-44 -64 -65 -82 -84 -100 -101 -117 -118 -133 -134 -148 -149 -162 -163 -175 -176 -187 -188 0
-45 -64 -66 -82 -84 -100 -101 -117 -118 -133 -134 -148 -149 -162 -163 -175 -176 -187 -188 0
-45 -65 -66 -82 -85 -100 -101 -117 -118 -133 -134 -148 -149 -162 -163 -175 -176 -187 -188 0
-44 -64 -65 -83 -84 -100 -102 -117 -118 -133 -134 -148 -149 -162 -163 -175 -176 -187 -188 0
-45 -64 -66 -83 -84 -100 -102 -117 -118 -133 -134 -148 -149 -162 -163 -175 -176 -187 -188 0
-45 -65 -66 -83 -85 -100 -102 -117 -118 -133 -134 -148 -149 -162 -163 -175 -176 -187 -188 0
-45 -65 -66 -84 -85 -100 -103 -117 -118 -133 -134 -148 -149 -162 -163 -175 -176 -187 -188 0
-44 -64 -65 -83 -84 -101 -102 -117 -119 -133 -134 -148 -149 -162 -163 -175 -176 -187 -188 0
-45 -64 -66 -83 -84 -101 -102 -117 -119 -133 -134 -148 -149 -162 -163 -175 -176 -187 -188 0
-45 -65 -66 -83 -85 -101 -102 -117 -119 -133 -134 -148 -149 -162 -163 -175 -176 -187 -188 0
-45 -65 -66 -84 -85 -101 -103 -117 -119 -133 -134 -148 -149 -162 -163 -175 -176 -187 -188 0
-45 -65 -66 -84 -85 -102 -103 -117 -120 -133 -134 -148 -149 -162 -163 -175 -176 -187 -188 0
-44 -64 -65 -83 -84 -101 -102 -118 -119 -133 -135 -148 -149 -162 -163 -175 -176 -187 -188 0
-45 -64 -66 -83 -84 -101 -102 -118 -119 -133 -135 -148 -149 -162 -163 -175 -176 -187 -188 0
-45 -65 -66 -83 -85 -101 -102 -118 -119 -133 -135 -148 -149 -162 -163 -175 -176 -187 -188 0
-45 -65 -66 -84 -85 -101 -103 -118 -119 -133 -135 -148 -149 -162 -163 -175 -176 -187 -188 0
-45 -65 -66 -84 -85 -102 -103 -118 -120 -133 -135 -148 -149 -162 -163 -175 -176 -187 -188 0
-45 -65 -66 -84 -85 -102 -103 -119 -120 -133 -136 -148 -149 -162 -163 -175 -176 -187 -188 0
-44 -64 -65 -83 -84 -101 -102 -118 -119 -134 -135 -148 -150 -162 -163 -175 -176 -187 -188 0
-45 -64 -66 -83 -84 -101 -102 -118 -119 -134 -135 -148 -150 -162 -163 -175 -176 -187 -188 0
-45 -65 -66 -83 -85 -101 -102 -118 -119 -134 -135 -148 -150 -162 -163 -175 -176 -187 -188 0
-45 -65 -66 -84 -85 -101 -103 -118 -119 -134 -135 -148 -150 -162 -163 -175 -176 -187 -188 0
-45 -65 -66 -84 -85 -102 -103 -118 -120 -134 -135 -148 -150 -162 -163 -175 -176 -187 -188 0
-45 -65 -66 -84 -85 -102 -103 -119 -120 -134 -136 -148 -150 -162 -163 -175 -176 -187 -188 0
-45 -65 -66 -84 -85 -102 -103 -119 -120 -135 -136 -148 -151 -162 -163 -175 -176 -187 -188 0
-44 -64 -65 -83 -84 -101 -102 -118 -119 -134 -135 -149 -150 -162 -164 -175 -176 -187 -188 0
-45 -64 -66 -83 -84 -101 -102 -118 -119 -134 -135 -149 -150 -162 -164 -175 -176 -187 -188 0
-45 -65 -66 -83 -85 -101 -102 -118 -119 -134 -135 -149 -150 -162 -164 -175 -176 -187 -188 0
-45 -65 -66 -84 -85 -101 -103 -118 -119 -134 -135 -149 -150 -162 -164 -175 -176 -187 -188 0
-45 -65 -66 -84 -85 -102 -103 -118 -120 -134 -135 -149 -150 -162 -164 -175 -176 -187 -188 0
-45 -65 -66 -84 -85 -102 -103 -119 -120 -134 -136 -149 -150 -162 -164 -175 -176 -187 -188 0
-45 -65 -66 -84 -85 -102 -103 -119 -120 -135 -136 -149 -151 -162 -164 -175 -176 -187 -188 0
-45 -65 -66 -84 -85 -102 -103 -119 -120 -135 -136 -150 -151 -162 -165 -175 -176 -187 -188 0
-44 -64 -65 -83 -84 -101 -102 -118 -119 -134 -135 -149 -150 -163 -164 -175 -177 -187 -188 0
-45 -64 -66 -83 -84 -101 -102 -118 -119 -134 -135 -149 -150 -163 -164 -175 -177 -187 -188 0
-45 -65 -66 -83 -85 -101 -102 -118 -119 -134 -135 -149 -150 -163 -164 -175 -177 -187 -188 0
-45 -65 -66 -84 -85 -101 -103 -118 -119 -134 -135 -149 -150 -163 -164 -175 -177 -187 -188 0
-45 -65 -66 -84 -85 -102 -103 -118 -120 -134 -135 -149 -150 -163 -164 -175 -177 -187 -188 0
-45 -65 -66 -84 -85 -102 -103 -119 -120 -134 -136 -149 -150 -163 -164 -175 -177 -187 -188 0
-45 -65 -66 -84 -85 -102 -103 -119 -120 -135 -136 -149 -151 -163 -164 -175 -177 -187 -188 0
-45 -65 -66 -84 -85 -102 -103 -119 -120 -135 -136 -150 -151 -163 -165 -175 -177 -187 -188 0
-45 -65 -66 -84 -85 -102 -103 -119 -120 -135 -136 -150 -151 -164 -165 -175 -178 -187 -188 0
-44 -64 -65 -83 -84 -101 -102 -118 -119 -134 -135 -149 -150 -163 -164 -176 -177 -187 -189 0
-45 -64 -66 -83 -84 -101 -102 -118 -119 -134 -135 -149 -150 -163 -164 -176 -177 -187 -189 0
-45 -65 -66 -83 -85 -101 -102 -118 -119 -134 -135 -149 -150 -163 -164 -176 -177 -187 -189 0
-45 -65 -66 -84 -85 -101 -103 -118 -119 -134 -135 -149 -150 -163 -164 -176 -177 -187 -189 0
-45 -65 -66 -84 -85 -102 -103 -118 -120 -134 -135 -149 -150 -163 -164 -176 -177 -187 -189 0
-45 -65 -66 -84 -85 -102 -103 -119 -120 -134 -136 -149 -150 -163 -164 -176 -177 -187 -189 0
-45 -65 -66 -84 -85 -102 -103 -119 -120 -135 -136 -149 -151 -163 -164 -176 -177 -187 -189 0
-45 -65 -66 -84 -85 -102 -103 -119 -120 -135 -136 -150 -151 -163 -165 -176 -177 -187 -189 0
-45 -65 -66 -84 -85 -102 -103 -119 -120 -135 -136 -150 -151 -164 -165 -176 -178 -187 -189 0
-45 -65 -66 -84 -85 -102 -103 -119 -120 -135 -136 -150 -151 -164 -165 -177 -178 -187 -190 0
-44 -64 -65 -83 -84 -101 -102 -118 -119 -134 -135 -149 -150 -163 -164 -176 -177 -188 -189 0
-45 -64 -66 -83 -84 -101 -102 -118 -119 -134 -135 -149 -150 -163 -164 -176 -177 -188 -189 0
-45 -65 -66 -83 -85 -101 -102 -118 -119 -134 -135 -149 -150 -163 -164 -176 -177 -188 -189 0
-45 -65 -66 -84 -85 -101 -103 -118 -119 -134 -135 -149 -150 -163 -164 -176 -177 -188 -189 0
-45 -65 -66 -84 -85 -102 -103 -118 -120 -134 -135 -149 -150 -163 -164 -176 -177 -188 -189 0
-45 -65 -66 -84 -85 -102 -103 -119 -120 -134 -136 -149 -150 -163 -164 -176 -177 -188 -189 0
-45 -65 -66 -84 -85 -102 -103 -119 -120 -135 -136 -149 -151 -163 -164 -176 -177 -188 -189 0
-45 -65 -66 -84 -85 -102 -103 -119 -120 -135 -136 -150 -151 -163 -165 -176 -177 -188 -189 0
-45 -65 -66 -84 -85 -102 -103 -119 -120 -135 -136 -150 -151 -164 -165 -176 -178 -188 -189 0
-45 -65 -66 -84 -85 -102 -103 -119 -120 -135 -136 -150 -151 -164 -165 -177 -178 -188 -190 0
-45 -65 -66 -84 -85 -102 -103 -119 -120 -135 -136 -150 -151 -164 -165 -177 -178 -189 -190 0
-43 -63 -64 -82 -83 -100 -101 -117 -118 -133 -134 -148 -149 -162 -163 -175 -176 -199 -200 0
-44 -63 -65 -82 -83 -100 -101 -117 -118 -133 -134 -148 -149 -162 -163 -175 -176 -199 -200 0
-45 -63 -66 -82 -83 -100 -101 -117 -118 -133 -134 -148 -149 -162 -163 -175 -176 -199 -200 0
-44 -64 -65 -82 -84 -100 -101 -117 -118 -133 -134 -148 -149 -162 -163 -175 -176 -199 -200 0
-45 -64 -66 -82 -84 -100 -101 -117 -118 -133 -134 -148 -149 -162 -163 -175 -176 -199 -200 0
-45 -65 -66 -82 -85 -100 -101 -117 -118 -133 -134 -148 -149 -162 -163 -175 -176 -199 -200 0
-44 -64 -65 -83 -84 -100 -102 -117 -118 -133 -134 -148 -149 -162 -163 -175 -176 -199 -200 0
-45 -64 -66 -83 -84 -100 -102 -117 -118 -133 -134 -148 -149 -162 -163 -175 -176 -199 -200 0
-45 -65 -66 -83 -85 -100 -102 -117 -118 -133 -134 -148 -149 -162 -163 -175 -176 -199 -200 0
-45 -65 -66 -84 -85 -100 -103 -117 -118 -133 -134 -148 -149 -162 -163 -175 -176 -199 -200 0
-44 -64 -65 -83 -84 -101 -102 -117 -119 -133 -134 -148 -149 -162 -163 -175 -176 -199 -200 0
-45 -64 -66 -83 -84 -101 -102 -117 -119 -133 -134 -148 -149 -162 -163 -175 -176 -199 -200 0
-45 -65 -66 -83 -85 -101 -102 -117 -119 -133 -134 -148 -149 -162 -163 -175 -176 -199 -200 0
-45 -65 -66 -84 -85 -101 -103 -117 -119 -133 -134 -148 -149 -162 -163 -175 -176 -199 -200 0
-45 -65 -66 -84 -85 -102 -103 -117 -120 -133 -134 -148 -149 -162 -163 -175 -176 -199 -200 0
-44 -64 -65 -83 -84 -101 -102 -118 -119 -133 -135 -148 -149 -162 -163 -175 -176 -199 -200 0
-45 -64 -66 -83 -84 -101 -102 -118 -119 -133 -135 -148 -149 -162 -163 -175 -176 -199 -200 0
-45 -65 -66 -83 -85 -101 -102 -118 -119 -133 -135 -148 -149 -162 -163 -175 -176 -199 -200 0
-45 -65 -66 -84 -85 -101 -103 -118 -119 -133 -135 -148 -149 -162 -163 -175 -176 -199 -200 0
-45 -65 -66 -84 -85 -102 -103 -118 -120 -133 -135 -148 -149 -162 -163 -175 -176 -199 -200 0
-45 -65 -66 -84 -85 -102 -103 -119 -120 -133 -136 -148 -149 -162 -163 -175 -176 -199 -200 0
-44 -64 -65 -83 -84 -101 -102 -118 -119 -134 -135 -148 -150 -162 -163 -175 -176 -199 -200 0
-45 -64 -66 -83 -84 -101 -102 -118 -119 -134 -135 -148 -150 -162 -163 -175 -176 -199 -200 0
-45 -65 -66 -83 -85 -101 -102 -118 -119 -134 -135 -148 -150 -162 -163 -175 -176 -199 -200 0
-45 -65 -66 -84 -85 -101 -103 -118 -119 -134 -135 -148 -150 -162 -163 -175 -176 -199 -200 0
-45 -65 -66 -84 -85 -102 -103 -118 -120 -134 -135 -148 -150 -162 -163 -175 -176 -199 -200 0
-45 -65 -66 -84 -85 -102 -103 -119 -120 -134 -136 -148 -150 -162 -163 -175 -176 -199 -200 0
-45 -65 -66 -84 -85 -102 -103 -119 -120 -135 -136 -148 -151 -162 -163 -175 -176 -199 -200 0
-44 -64 -65 -83 -84 -101 -102 -118 -119 -134 -135 -149 -150 -162 -164 -175 -176 -199 -200 0
-45 -64 -66 -83 -84 -101 -102 -118 -119 -134 -135 -149 -150 -162 -164 -175 -176 -199 -200 0
-45 -65 -66 -83 -85 -101 -102 -118 -119 -134 -135 -149 -150 -162 -164 -175 -176 -199 -200 0
-45 -65 -66 -84 -85 -101 -103 -118 -119 -134 -135 -149 -150 -162 -164 -175 -176 -199 -200 0
-45 -65 -66 -84 -85 -102 -103 -118 -120 -134 -135 -149 -150 -162 -164 -175 -176 -199 -200 0
-45 -65 -66 -84 -85 -102 -103 -119 -120 -134 -136 -149 -150 -162 -164 -175 -176 -199 -200 0
-45 -65 -66 -84 -85 -102 -103 -119 -120 -135 -136 -149 -151 -162 -164 -175 -176 -199 -200 0
-45 -65 -66 -84 -85 -102 -103 -119 -120 -135 -136 -150 -151 -162 -165 -175 -176 -199 -200 0
-44 -64 -65 -83 -84 -101 -102 -118 -119 -134 -135 -149 -150 -163 -164 -175 -177 -199 -200 0
-45 -64 -66 -83 -84 -101 -102 -118 -119 -134 -135 -149 -150 -163 -164 -175 -177 -199 -200 0
-45 -65 -66 -83 -85 -101 -102 -118 -119 -134 -135 -149 -150 -163 -164 -175 -177 -199 -200 0
-45 -65 -66 -84 -85 -101 -103 -118 -119 -134 -135 -149 -150 -163 -164 -175 -177 -199 -200 0
-45 -65 -66 -84 -85 -102 -103 -118 -120 -134 -135 -149 -150 -163 -164 -175 -177 -199 -200 0
-45 -65 -66 -84 -85 -102 -103 -119 -120 -134 -136 -149 -150 -163 -164 -175 -177 -199 -200 0
-45 -65 -66 -84 -85 -102 -103 -119 -120 -135 -136 -149 -151 -163 -164 -175 -177 -199 -200 0
-45 -65 -66 -84 -85 -102 -103 -119 -120 -135 -136 -150 -151 -163 -165 -175 -177 -199 -200 0
-45 -65 -66 -84 -85 -102 -103 -119 -120 -135 -136 -150 -151 -164 -165 -175 -178 -199 -200 0
-44 -64 -65 -83 -84 -101 -102 -118 -119 -134 -135 -149 -150 -163 -164 -176 -177 -199 -201 0
-45 -64 -66 -83 -84 -101 -102 -118 -119 -134 -135 -149 -150 -163 -164 -176 -177 -199 -201 0
-45 -65 -66 -83 -85 -101 -102 -118 -119 -134 -135 -149 -150 -163 -164 -176 -177 -199 -201 0
-45 -65 -66 -84 -85 -101 -103 -118 -119 -134 -135 -149 -150 -163 -164 -176 -177 -199 -201 0
-45 -65 -66 -84 -85 -102 -103 -118 -120 -134 -135 -149 -150 -163 -164 -176 -177 -199 -201 0
-45 -65 -66 -84 -85 -102 -103 -119 -120 -134 -136 -149 -150 -163 -164 -176 -177 -199 -201 0
-45 -65 -66 -84 -85 -102 -103 -119 -120 -135 -136 -149 -151 -163 -164 -176 -177 -199 -201 0
-45 -65 -66 -84 -85 -102 -103 -119 -120 -135 -136 -150 -151 -163 -165 -176 -177 -199 -201 0
-45 -65 -66 -84 -85 -102 -103 -119 -120 -135 -136 -150 -151 -164 -165 -176 -178 -199 -201 0
-45 -65 -66 -84 -85 -102 -103 -119 -120 -135 -136 -150 -151 -164 -165 -177 -178 -199 -202 0
-44 -64 -65 -83 -84 -101 -102 -118 -119 -134 -135 -149 -150 -163 -164 -176 -177 -200 -201 0
-45 -64 -66 -83 -84 -101 -102 -118 -119 -134 -135 -149 -150 -163 -164 -176 -177 -200 -201 0
-45 -65 -66 -83 -85 -101 -102 -118 -119 -134 -135 -149 -150 -163 -164 -176 -177 -200 -201 0
-45 -65 -66 -84 -85 -101 -103 -118 -119 -134 -135 -149 -150 -163 -164 -176 -177 -200 -201 0
-45 -65 -66 -84 -85 -102 -103 -118 -120 -134 -135 -149 -150 -163 -164 -176 -177 -200 -201 0
-45 -65 -66 -84 -85 -102 -103 -119 -120 -134 -136 -149 -150 -163 -164 -176 -177 -200 -201 0
-45 -65 -66 -84 -85 -102 -103 -119 -120 -135 -136 -149 -151 -163 -164 -176 -177 -200 -201 0
-45 -65 -66 -84 -85 -102 -103 -119 -120 -135 -136 -150 -151 -163 -165 -176 -177 -200 -201 0
-45 -65 -66 -84 -85 -102 -103 -119 -120 -135 -136 -150 -151 -164 -165 -176 -178 -200 -201 0
-45 -65 -66 -84 -85 -102 -103 -119 -120 -135 -136 -150 -151 -164 -165 -177 -178 -200 -202 0
-45 -65 -66 -84 -85 -102 -103 -119 -120 -135 -136 -150 -151 -164 -165 -177 -178 -201 -202 0
-44 -64 -65 -83 -84 -101 -102 -118 -119 -134 -135 -149 -150 -163 -164 -176 -177 -211 -212 0
-45 -64 -66 -83 -84 -101 -102 -118 -119 -134 -135 -149 -150 -163 -164 -176 -177 -211 -212 0
-45 -65 -66 -83 -85 -101 -102 -118 -119 -134 -135 -149 -150 -163 -164 -176 -177 -211 -212 0
-45 -65 -66 -84 -85 -101 -103 -118 -119 -134 -135 -149 -150 -163 -164 -176 -177 -211 -212 0
-45 -65 -66 -84 -85 -102 -103 -118 -120 -134 -135 -149 -150 -163 -164 -176 -177 -211 -212 0
-45 -65 -66 -84 -85 -102 -103 -119 -120 -134 -136 -149 -150 -163 -164 -176 -177 -211 -212 0
-45 -65 -66 -84 -85 -102 -103 -119 -120 -135 -136 -149 -151 -163 -164 -176 -177 -211 -212 0
-45 -65 -66 -84 -85 -102 -103 -119 -120 -135 -136 -150 -151 -163 -165 -176 -177 -211 -212 0
-45 -65 -66 -84 -85 -102 -103 -119 -120 -135 -136 -150 -151 -164 -165 -176 -178 -211 -212 0
-45 -65 -66 -84 -85 -102 -103 -119 -120 -135 -136 -150 -151 -164 -165 -177 -178 -211 -213 0
-45 -65 -66 -84 -85 -102 -103 -119 -120 -135 -136 -150 -151 -164 -165 -177 -178 -212 -213 0
-45 -65 -66 -84 -85 -102 -103 -119 -120 -135 -136 -150 -151 -164 -165 -177 -178 -222 -223 0
-43 -63 -64 -82 -83 -100 -101 -117 -118 -133 -134 -148 -149 -162 -163 -188 -189 -199 -200 0
-44 -63 -65 -82 -83 -100 -101 -117 -118 -133 -134 -148 -149 -162 -163 -188 -189 -199 -200 0
-45 -63 -66 -82 -83 -100 -101 -117 -118 -133 -134 -148 -149 -162 -163 -188 -189 -199 -200 0
-44 -64 -65 -82 -84 -100 -101 -117 -118 -133 -134 -148 -149 -162 -163 -188 -189 -199 -200 0
-45 -64 -66 -82 -84 -100 -101 -117 -118 -133 -134 -148 -149 -162 -163 -188 -189 -199 -200 0
-45 -65 -66 -82 -85 -100 -101 -117 -118 -133 -134 -148 -149 -162 -163 -188 -189 -199 -200 0
-44 -64 -65 -83 -84 -100 -102 -117 -118 -133 -134 -148 -149 -162 -163 -188 -189 -199 -200 0
-45 -64 -66 -83 -84 -100 -102 -117 -118 -133 -134 -148 -149 -162 -163 -188 -189 -199 -200 0
-45 -65 -66 -83 -85 -100 -102 -117 -118 -133 -134 -148 -149 -162 -163 -188 -189 -199 -200 0
-45 -65 -66 -84 -85 -100 -103 -117 -118 -133 -134 -148 -149 -162 -163 -188 -189 -199 -200 0
-44 -64 -65 -83 -84 -101 -102 -117 -119 -133 -134 -148 -149 -162 -163 -188 -189 -199 -200 0
-45 -64 -66 -83 -84 -101 -102 -117 -119 -133 -134 -148 -149 -162 -163 -188 -189 -199 -200 0
-45 -65 -66 -83 -85 -101 -102 -117 -119 -133 -134 -148 -149 -162 -163 -188 -189 -199 -200 0
-45 -65 -66 -84 -85 -101 -103 -117 -119 -133 -134 -148 -149 -162 -163 -188 -189 -199 -200 0
-45 -65 -66 -84 -85 -102 -103 -117 -120 -133 -134 -148 -149 -162 -163 -188 -189 -199 -200 0
-44 -64 -65 -83 -84 -101 -102 -118 -119 -133 -135 -148 -149 -162 -163 -188 -189 -199 -200 0
-45 -64 -66 -83 -84 -101 -102 -118 -119 -133 -135 -148 -149 -162 -163 -188 -189 -199 -200 0
-45 -65 -66 -83 -85 -101 -102 -118 -119 -133 -135 -148 -149 -162 -163 -188 -189 -199 -200 0
-45 -65 -66 -84 -85 -101 -103 -118 -119 -133 -135 -148 -149 -162 -163 -188 -189 -199 -200 0
-45 -65 -66 -84 -85 -102 -103 -118 -120 -133 -135 -148 -149 -162 -163 -188 -189 -199 -200 0
-45 -65 -66 -84 -85 -102 -103 -119 -120 -133 -136 -148 -149 -162 -163 -188 -189 -199 -200 0
-44 -64 -65 -83 -84 -101 -102 -118 -119 -134 -135 -148 -150 -162 -163 -188 -189 -199 -200 0
-45 -64 -66 -83 -84 -101 -102 -118 -119 -134 -135 -148 -150 -162 -163 -188 -189 -199 -200 0
-45 -65 -66 -83 -85 -101 -102 -118 -119 -134 -135 -148 -150 -162 -163 -188 -189 -199 -200 0
-45 -65 -66 -84 -85 -101 -103 -118 -119 -134 -135 -148 -150 -162 -163 -188 -189 -199 -200 0
-45 -65 -66 -84 -85 -102 -103 -118 -120 -134 -135 -148 -150 -162 -163 -188 -189 -199 -200 0
-45 -65 -66 -84 -85 -102 -103 -119 -120 -134 -136 -148 -150 -162 -163 -188 -189 -199 -200 0
-45 -65 -66 -84 -85 -102 -103 -119 -120 -135 -136 -148 -151 -162 -163 -188 -189 -199 -200 0
-44 -64 -65 -83 -84 -101 -102 -118 -119 -134 -135 -149 -150 -162 -164 -188 -189 -199 -200 0
-45 -64 -66 -83 -84 -101 -102 -118 -119 -134 -135 -149 -150 -162 -164 -188 -189 -199 -200 0
-45 -65 -66 -83 -85 -101 -102 -118 -119 -134 -135 -149 -150 -162 -164 -188 -189 -199 -200 0
-45 -65 -66 -84 -85 -101 -103 -118 -119 -134 -135 -149 -150 -162 -164 -188 -189 -199 -200 0
-45 -65 -66 -84 -85 -102 -103 -118 -120 -134 -135 -149 -150 -162 -164 -188 -189 -199 -200 0
-45 -65 -66 -84 -85 -102 -103 -119 -120 -134 -136 -149 -150 -162 -164 -188 -189 -199 -200 0
-45 -65 -66 -84 -85 -102 -103 -119 -120 -135 -136 -149 -151 -162 -164 -188 -189 -199 -200 0
-45 -65 -66 -84 -85 -102 -103 -119 -120 -135 -136 -150 -151 -162 -165 -188 -189 -199 -200 0
-44 -64 -65 -83 -84 -101 -102 -118 -119 -134 -135 -149 -150 -163 -164 -188 -190 -199 -200 0
-45 -64 -66 -83 -84 -101 -102 -118 -119 -134 -135 -149 -150 -163 -164 -188 -190 -199 -200 0
-45 -65 -66 -83 -85 -101 -102 -118 -119 -134 -135 -149 -150 -163 -164 -188 -190 -199 -200 0
-45 -65 -66 -84 -85 -101 -103 -118 -119 -134 -135 -149 -150 -163 -164 -188 -190 -199 -200 0
-45 -65 -66 -84 -85 -102 -103 -118 -120 -134 -135 -149 -150 -163 -164 -188 -190 -199 -200 0
-45 -65 -66 -84 -85 -102 -103 -119 -120 -134 -136 -149 -150 -163 -164 -188 -190 -199 -200 0
-45 -65 -66 -84 -85 -102 -103 -119 -120 -135 -136 -149 -151 -163 -164 -188 -190 -199 -200 0
-45 -65 -66 -84 -85 -102 -103 -119 -120 -135 -136 -150 -151 -163 -165 -188 -190 -199 -200 0
-45 -65 -66 -84 -85 -102 -103 -119 -120 -135 -136 -150 -151 -164 -165 -188 -191 -199 -200 0
-44 -64 -65 -83 -84 -101 -102 -118 -119 -134 -135 -149 -150 -163 -164 -189 -190 -199 -201 0
-45 -64 -66 -83 -84 -101 -102 -118 -119 -134 -135 -149 -150 -163 -164 -189 -190 -199 -201 0
-45 -65 -66 -83 -85 -101 -102 -118 -119 -134 -135 -149 -150 -163 -164 -189 -190 -199 -201 0
-45 -65 -66 -84 -85 -101 -103 -118 -119 -134 -135 -149 -150 -163 -164 -189 -190 -199 -201 0
-45 -65 -66 -84 -85 -102 -103 -118 -120 -134 -135 -149 -150 -163 -164 -189 -190 -199 -201 0
-45 -65 -66 -84 -85 -102 -103 -119 -120 -134 -136 -149 -150 -163 -164 -189 -190 -199 -201 0
-45 -65 -66 -84 -85 -102 -103 -119 -120 -135 -136 -149 -151 -163 -164 -189 -190 -199 -201 0
-45 -65 -66 -84 -85 -102 -103 -119 -120 -135 -136 -150 -151 -163 -165 -189 -190 -199 -201 0
-45 -65 -66 -84 -85 -102 -103 -119 -120 -135 -136 -150 -151 -164 -165 -189 -191 -199 -201 0
-45 -65 -66 -84 -85 -102 -103 -119 -120 -135 -136 -150 -151 -164 -165 -190 -191 -199 -202 0
-44 -64 -65 -83 -84 -101 -102 -118 -119 -134 -135 -149 -150 -163 -164 -189 -190 -200 -201 0
-45 -64 -66 -83 -84 -101 -102 -118 -119 -134 -135 -149 -150 -163 -164 -189 -190 -200 -201 0
-45 -65 -66 -83 -85 -101 -102 -118 -119 -134 -135 -149 -150 -163 -164 -189 -190 -200 -201 0
-45 -65 -66 -84 -85 -101 -103 -118 -119 -134 -135 -149 -150 -163 -164 -189 -190 -200 -201 0
-45 -65 -66 -84 -85 -102 -103 -118 -120 -134 -135 -149 -150 -163 -164 -189 -190 -200 -201 0
-45 -65 -66 -84 -85 -102 -103 -119 -120 -134 -136 -149 -150 -163 -164 -189 -190 -200 -201 0
-45 -65 -66 -84 -85 -102 -103 -119 -120 -135 -136 -149 -151 -163 -164 -189 -190 -200 -201 0
-45 -65 -66 -84 -85 -102 -103 -119 -120 -135 -136 -150 -151 -163 -165 -189 -190 -200 -201 0
-45 -65 -66 -84 -85 -102 -103 -119 -120 -135 -136 -150 -151 -164 -165 -189 -191 -200 -201 0
-45 -65 -66 -84 -85 -102 -103 -119 -120 -135 -136 -150 -151 -164 -165 -190 -191 -200 -202 0
-45 -65 -66 -84 -85 -102 -103 -119 -120 -135 -136 -150 -151 -164 -165 -190 -191 -201 -202 0
-44 -64 -65 -83 -84 -101 -102 -118 -119 -134 -135 -149 -150 -163 -164 -189 -190 -211 -212 0
-45 -64 -66 -83 -84 -101 -102 -118 -119 -134 -135 -149 -150 -163 -164 -189 -190 -211 -212 0
-45 -65 -66 -83 -85 -101 -102 -118 -119 -134 -135 -149 -150 -163 -164 -189 -190 -211 -212 0
-45 -65 -66 -84 -85 -101 -103 -118 -119 -134 -135 -149 -150 -163 -164 -189 -190 -211 -212 0
-45 -65 -66 -84 -85 -102 -103 -118 -120 -134 -135 -149 -150 -163 -164 -189 -190 -211 -212 0
-45 -65 -66 -84 -85 -102 -103 -119 -120 -134 -136 -149 -150 -163 -164 -189 -190 -211 -212 0
-45 -65 -66 -84 -85 -102 -103 -119 -120 -135 -136 -149 -151 -163 -164 -189 -190 -211 -212 0
-45 -65 -66 -84 -85 -102 -103 -119 -120 -135 -136 -150 -151 -163 -165 -189 -190 -211 -212 0
-45 -65 -66 -84 -85 -102 -103 -119 -120 -135 -136 -150 -151 -164 -165 -189 -191 -211 -212 0
-45 -65 -66 -84 -85 -102 -103 -119 -120 -135 -136 -150 -151 -164 -165 -190 -191 -211 -213 0
-45 -65 -66 -84 -85 -102 -103 -119 -120 -135 -136 -150 -151 -164 -165 -190 -191 -212 -213 0
-45 -65 -66 -84 -85 -102 -103 -119 -120 -135 -136 -150 -151 -164 -165 -190 -191 -222 -223 0
-44 -64 -65 -83 -84 -101 -102 -118 -119 -134 -135 -149 -150 -163 -164 -201 -202 -211 -212 0
-45 -64 -66 -83 -84 -101 -102 -118 -119 -134 -135 -149 -150 -163 -164 -201 -202 -211 -212 0
-45 -65 -66 -83 -85 -101 -102 -118 -119 -134 -135 -149 -150 -163 -164 -201 -202 -211 -212 0
-45 -65 -66 -84 -85 -101 -103 -118 -119 -134 -135 -149 -150 -163 -164 -201 -202 -211 -212 0
-45 -65 -66 -84 -85 -102 -103 -118 -120 -134 -135 -149 -150 -163 -164 -201 -202 -211 -212 0
-45 -65 -66 -84 -85 -102 -103 -119 -120 -134 -136 -149 -150 -163 -164 -201 -202 -211 -212 0
-45 -65 -66 -84 -85 -102 -103 -119 -120 -135 -136 -149 -151 -163 -164 -201 -202 -211 -212 0
-45 -65 -66 -84 -85 -102 -103 -119 -120 -135 -136 -150 -151 -163 -165 -201 -202 -211 -212 0
-45 -65 -66 -84 -85 -102 -103 -119 -120 -135 -136 -150 -151 -164 -165 -201 -203 -211 -212 0
-45 -65 -66 -84 -85 -102 -103 -119 -120 -135 -136 -150 -151 -164 -165 -202 -203 -211 -213 0
-45 -65 -66 -84 -85 -102 -103 -119 -120 -135 -136 -150 -151 -164 -165 -202 -203 -212 -213 0
-45 -65 -66 -84 -85 -102 -103 -119 -120 -135 -136 -150 -151 -164 -165 -202 -203 -222 -223 0
-45 -65 -66 -84 -85 -102 -103 -119 -120 -135 -136 -150 -151 -164 -165 -213 -214 -222 -223 0
-43 -63 -64 -82 -83 -100 -101 -117 -118 -133 -134 -148 -149 -176 -177 -188 -189 -199 -200 0
-44 -63 -65 -82 -83 -100 -101 -117 -118 -133 -134 -148 -149 -176 -177 -188 -189 -199 -200 0
-45 -63 -66 -82 -83 -100 -101 -117 -118 -133 -134 -148 -149 -176 -177 -188 -189 -199 -200 0
-44 -64 -65 -82 -84 -100 -101 -117 -118 -133 -134 -148 -149 -176 -177 -188 -189 -199 -200 0
-45 -64 -66 -82 -84 -100 -101 -117 -118 -133 -134 -148 -149 -176 -177 -188 -189 -199 -200 0
-45 -65 -66 -82 -85 -100 -101 -117 -118 -133 -134 -148 -149 -176 -177 -188 -189 -199 -200 0
-44 -64 -65 -83 -84 -100 -102 -117 -118 -133 -134 -148 -149 -176 -177 -188 -189 -199 -200 0
-45 -64 -66 -83 -84 -100 -102 -117 -118 -133 -134 -148 -149 -176 -177 -188 -189 -199 -200 0
-45 -65 -66 -83 -85 -100 -102 -117 -118 -133 -134 -148 -149 -176 -177 -188 -189 -199 -200 0
-45 -65 -66 -84 -85 -100 -103 -117 -118 -133 -134 -148 -149 -176 -177 -188 -189 -199 -200 0
-44 -64 -65 -83 -84 -101 -102 -117 -119 -133 -134 -148 -149 -176 -177 -188 -189 -199 -200 0
-45 -64 -66 -83 -84 -101 -102 -117 -119 -133 -134 -148 -149 -176 -177 -188 -189 -199 -200 0
-45 -65 -66 -83 -85 -101 -102 -117 -119 -133 -134 -148 -149 -176 -177 -188 -189 -199 -200 0
-45 -65 -66 -84 -85 -101 -103 -117 -119 -133 -134 -148 -149 -176 -177 -188 -189 -199 -200 0
-45 -65 -66 -84 -85 -102 -103 -117 -120 -133 -134 -148 -149 -176 -177 -188 -189 -199 -200 0
-44 -64 -65 -83 -84 -101 -102 -118 -119 -133 -135 -148 -149 -176 -177 -188 -189 -199 -200 0
-45 -64 -66 -83 -84 -101 -102 -118 -119 -133 -135 -148 -149 -176 -177 -188 -189 -199 -200 0
-45 -65 -66 -83 -85 -101 -102 -118 -119 -133 -135 -148 -149 -176 -177 -188 -189 -199 -200 0
-45 -65 -66 -84 -85 -101 -103 -118 -119 -133 -135 -148 -149 -176 -177 -188 -189 -199 -200 0
-45 -65 -66 -84 -85 -102 -103 -118 -120 -133 -135 -148 -149 -176 -177 -188 -189 -199 -200 0
-45 -65 -66 -84 -85 -102 -103 -119 -120 -133 -136 -148 -149 -176 -177 -188 -189 -199 -200 0
-44 -64 -65 -83 -84 -101 -102 -118 -119 -134 -135 -148 -150 -176 -177 -188 -189 -199 -200 0
-45 -64 -66 -83 -84 -101 -102 -118 -119 -134 -135 -148 -150 -176 -177 -188 -189 -199 -200 0
-45 -65 -66 -83 -85 -101 -102 -118 -119 -134 -135 -148 -150 -176 -177 -188 -189 -199 -200 0
-45 -65 -66 -84 -85 -101 -103 -118 -119 -134 -135 -148 -150 -176 -177 -188 -189 -199 -200 0
-45 -65 -66 -84 -85 -102 -103 -118 -120 -134 -135 -148 -150 -176 -177 -188 -189 -199 -200 0
-45 -65 -66 -84 -85 -102 -103 -119 -120 -134 -136 -148 -150 -176 -177 -188 -189 -199 -200 0
-45 -65 -66 -84 -85 -102 -103 -119 -120 -135 -136 -148 -151 -176 -177 -188 -189 -199 -200 0
-44 -64 -65 -83 -84 -101 -102 -118 -119 -134 -135 -149 -150 -176 -178 -188 -189 -199 -200 0
-45 -64 -66 -83 -84 -101 -102 -118 -119 -134 -135 -149 -150 -176 -178 -188 -189 -199 -200 0
-45 -65 -66 -83 -85 -101 -102 -118 -119 -134 -135 -149 -150 -176 -178 -188 -189 -199 -200 0
-45 -65 -66 -84 -85 -101 -103 -118 -119 -134 -135 -149 -150 -176 -178 -188 -189 -199 -200 0
-45 -65 -66 -84 -85 -102 -103 -118 -120 -134 -135 -149 -150 -176 -178 -188 -189 -199 -200 0
-45 -65 -66 -84 -85 -102 -103 -119 -120 -134 -136 -149 -150 -176 -178 -188 -189 -199 -200 0
-45 -65 -66 -84 -85 -102 -103 -119 -120 -135 -136 -149 -151 -176 -178 -188 -189 -199 -200 0
-45 -65 -66 -84 -85 -102 -103 -119 -120 -135 -136 -150 -151 -176 -179 -188 -189 -199 -200 0
-44 -64 -65 -83 -84 -101 -102 -118 -119 -134 -135 -149 -150 -177 -178 -188 -190 -199 -200 0
-45 -64 -66 -83 -84 -101 -102 -118 -119 -134 -135 -149 -150 -177 -178 -188 -190 -199 -200 0
-45 -65 -66 -83 -85 -101 -102 -118 -119 -134 -135 -149 -150 -177 -178 -188 -190 -199 -200 0
-45 -65 -66 -84 -85 -101 -103 -118 -119 -134 -135 -149 -150 -177 -178 -188 -190 -199 -200 0
-45 -65 -66 -84 -85 -102 -103 -118 -120 -134 -135 -149 -150 -177 -178 -188 -190 -199 -200 0
-45 -65 -66 -84 -85 -102 -103 -119 -120 -134 -136 -149 -150 -177 -178 -188 -190 -199 -200 0
-45 -65 -66 -84 -85 -102 -103 -119 -120 -135 -136 -149 -151 -177 -178 -188 -190 -199 -200 0
-45 -65 -66 -84 -85 -102 -103 -119 -120 -135 -136 -150 -151 -177 -179 -188 -190 -199 -200 0
-45 -65 -66 -84 -85 -102 -103 -119 -120 -135 -136 -150 -151 -178 -179 -188 -191 -199 -200 0
-44 -64 -65 -83 -84 -101 -102 -118 -119 -134 -135 -149 -150 -177 -178 -189 -190 -199 -201 0
-45 -64 -66 -83 -84 -101 -102 -118 -119 -134 -135 -149 -150 -177 -178 -189 -190 -199 -201 0
-45 -65 -66 -83 -85 -101 -102 -118 -119 -134 -135 -149 -150 -177 -178 -189 -190 -199 -201 0
-45 -65 -66 -84 -85 -101 -103 -118 -119 -134 -135 -149 -150 -177 -178 -189 -190 -199 -201 0
-45 -65 -66 -84 -85 -102 -103 -118 -120 -134 -135 -149 -150 -177 -178 -189 -190 -199 -201 0
-45 -65 -66 -84 -85 -102 -103 -119 -120 -134 -136 -149 -150 -177 -178 -189 -190 -199 -201 0
-45 -65 -66 -84 -85 -102 -103 -119 -120 -135 -136 -149 -151 -177 -178 -189 -190 -199 -201 0
-45 -65 -66 -84 -85 -102 -103 -119 -120 -135 -136 -150 -151 -177 -179 -189 -190 -199 -201 0
-45 -65 -66 -84 -85 -102 -103 -119 -120 -135 -136 -150 -151 -178 -179 -189 -191 -199 -201 0
-45 -65 -66 -84 -85 -102 -103 -119 -120 -135 -136 -150 -151 -178 -179 -190 -191 -199 -202 0
-44 -64 -65 -83 -84 -101 -102 -118 -119 -134 -135 -149 -150 -177 -178 -189 -190 -200 -201 0
-45 -64 -66 -83 -84 -101 -102 -118 -119 -134 -135 -149 -150 -177 -178 -189 -190 -200 -201 0
-45 -65 -66 -83 -85 -101 -102 -118 -119 -134 -135 -149 -150 -177 -178 -189 -190 -200 -201 0
-45 -65 -66 -84 -85 -101 -103 -118 -119 -134 -135 -149 -150 -177 -178 -189 -190 -200 -201 0
-45 -65 -66 -84 -85 -102 -103 -118 -120 -134 -135 -149 -150 -177 -178 -189 -190 -200 -201 0
-45 -65 -66 -84 -85 -102 -103 -119 -120 -134 -136 -149 -150 -177 -178 -189 -190 -200 -201 0
-45 -65 -66 -84 -85 -102 -103 -119 -120 -135 -136 -149 -151 -177 -178 -189 -190 -200 -201 0
-45 -65 -66 -84 -85 -102 -103 -119 -120 -135 -136 -150 -151 -177 -179 -189 -190 -200 -201 0
-45 -65 -66 -84 -85 -102 -103 -119 -120 -135 -136 -150 -151 -178 -179 -189 -191 -200 -201 0
-45 -65 -66 -84 -85 -102 -103 -119 -120 -135 -136 -150 -151 -178 -179 -190 -191 -200 -202 0
-45 -65 -66 -84 -85 -102 -103 -119 -120 -135 -136 -150 -151 -178 -179 -190 -191 -201 -202 0
-44 -64 -65 -83 -84 -101 -102 -118 -119 -134 -135 -149 -150 -177 -178 -189 -190 -211 -212 0
-45 -64 -66 -83 -84 -101 -102 -118 -119 -134 -135 -149 -150 -177 -178 -189 -190 -211 -212 0
-45 -65 -66 -83 -85 -101 -102 -118 -119 -134 -135 -149 -150 -177 -178 -189 -190 -211 -212 0
-45 -65 -66 -84 -85 -101 -103 -118 -119 -134 -135 -149 -150 -177 -178 -189 -190 -211 -212 0
-45 -65 -66 -84 -85 -102 -103 -118 -120 -134 -135 -149 -150 -177 -178 -189 -190 -211 -212 0
-45 -65 -66 -84 -85 -102 -103 -119 -120 -134 -136 -149 -150 -177 -178 -189 -190 -211 -212 0
-45 -65 -66 -84 -85 -102 -103 -119 -120 -135 -136 -149 -151 -177 -178 -189 -190 -211 -212 0
-45 -65 -66 -84 -85 -102 -103 -119 -120 -135 -136 -150 -151 -177 -179 -189 -190 -211 -212 0
-45 -65 -66 -84 -85 -102 -103 -119 -120 -135 -136 -150 -151 -178 -179 -189 -191 -211 -212 0
-45 -65 -66 -84 -85 -102 -103 -119 -120 -135 -136 -150 -151 -178 -179 -190 -191 -211 -213 0
-45 -65 -66 -84 -85 -102 -103 -119 -120 -135 -136 -150 -151 -178 -179 -190 -191 -212 -213 0
-45 -65 -66 -84 -85 -102 -103 -119 -120 -135 -136 -150 -151 -178 -179 -190 -191 -222 -223 0
-44 -64 -65 -83 -84 -101 -102 -118 -119 -134 -135 -149 -150 -177 -178 -201 -202 -211 -212 0
-45 -64 -66 -83 -84 -101 -102 -118 -119 -134 -135 -149 -150 -177 -178 -201 -202 -211 -212 0
-45 -65 -66 -83 -85 -101 -102 -118 -119 -134 -135 -149 -150 -177 -178 -201 -202 -211 -212 0
-45 -65 -66 -84 -85 -101 -103 -118 -119 -134 -135 -149 -150 -177 -178 -201 -202 -211 -212 0
-45 -65 -66 -84 -85 -102 -103 -118 -120 -134 -135 -149 -150 -177 -178 -201 -202 -211 -212 0
-45 -65 -66 -84 -85 -102 -103 -119 -120 -134 -136 -149 -150 -177 -178 -201 -202 -211 -212 0
-45 -65 -66 -84 -85 -102 -103 -119 -120 -135 -136 -149 -151 -177 -178 -201 -202 -211 -212 0
-45 -65 -66 -84 -85 -102 -103 -119 -120 -135 -136 -150 -151 -177 -179 -201 -202 -211 -212 0
-45 -65 -66 -84 -85 -102 -103 -119 -120 -135 -136 -150 -151 -178 -179 -201 -203 -211 -212 0
-45 -65 -66 -84 -85 -102 -103 -119 -120 -135 -136 -150 -151 -178 -179 -202 -203 -211 -213 0
-45 -65 -66 -84 -85 -102 -103 -119 -120 -135 -136 -150 -151 -178 -179 -202 -203 -212 -213 0
-45 -65 -66 -84 -85 -102 -103 -119 -120 -135 -136 -150 -151 -178 -179 -202 -203 -222 -223 0
-45 -65 -66 -84 -85 -102 -103 -119 -120 -135 -136 -150 -151 -178 -179 -213 -214 -222 -223 0
-44 -64 -65 -83 -84 -101 -102 -118 -119 -134 -135 -149 -150 -190 -191 -201 -202 -211 -212 0
-45 -64 -66 -83 -84 -101 -102 -118 -119 -134 -135 -149 -150 -190 -191 -201 -202 -211 -212 0
-45 -65 -66 -83 -85 -101 -102 -118 -119 -134 -135 -149 -150 -190 -191 -201 -202 -211 -212 0
-45 -65 -66 -84 -85 -101 -103 -118 -119 -134 -135 -149 -150 -190 -191 -201 -202 -211 -212 0
-45 -65 -66 -84 -85 -102 -103 -118 -120 -134 -135 -149 -150 -190 -191 -201 -202 -211 -212 0
-45 -65 -66 -84 -85 -102 -103 -119 -120 -134 -136 -149 -150 -190 -191 -201 -202 -211 -212 0
-45 -65 -66 -84 -85 -102 -103 -119 -120 -135 -136 -149 -151 -190 -191 -201 -202 -211 -212 0
-45 -65 -66 -84 -85 -102 -103 -119 -120 -135 -136 -150 -151 -190 -192 -201 -202 -211 -212 0
-45 -65 -66 -84 -85 -102 -103 -119 -120 -135 -136 -150 -151 -191 -192 -201 -203 -211 -212 0
-45 -65 -66 -84 -85 -102 -103 -119 -120 -135 -136 -150 -151 -191 -192 -202 -203 -211 -213 0
-45 -65 -66 -84 -85 -102 -103 -119 -120 -135 -136 -150 -151 -191 -192 -202 -203 -212 -213 0
-45 -65 -66 -84 -85 -102 -103 -119 -120 -135 -136 -150 -151 -191 -192 -202 -203 -222 -223 0
-45 -65 -66 -84 -85 -102 -103 -119 -120 -135 -136 -150 -151 -191 -192 -213 -214 -222 -223 0
-45 -65 -66 -84 -85 -102 -103 -119 -120 -135 -136 -150 -151 -203 -204 -213 -214 -222 -223 0
-43 -63 -64 -82 -83 -100 -101 -117 -118 -133 -134 -163 -164 -176 -177 -188 -189 -199 -200 0
-44 -63 -65 -82 -83 -100 -101 -117 -118 -133 -134 -163 -164 -176 -177 -188 -189 -199 -200 0
-45 -63 -66 -82 -83 -100 -101 -117 -118 -133 -134 -163 -164 -176 -177 -188 -189 -199 -200 0
-44 -64 -65 -82 -84 -100 -101 -117 -118 -133 -134 -163 -164 -176 -177 -188 -189 -199 -200 0
-45 -64 -66 -82 -84 -100 -101 -117 -118 -133 -134 -163 -164 -176 -177 -188 -189 -199 -200 0
-45 -65 -66 -82 -85 -100 -101 -117 -118 -133 -134 -163 -164 -176 -177 -188 -189 -199 -200 0
-44 -64 -65 -83 -84 -100 -102 -117 -118 -133 -134 -163 -164 -176 -177 -188 -189 -199 -200 0
-45 -64 -66 -83 -84 -100 -102 -117 -118 -133 -134 -163 -164 -176 -177 -188 -189 -199 -200 0
-45 -65 -66 -83 -85 -100 -102 -117 -118 -133 -134 -163 -164 -176 -177 -188 -189 -199 -200 0
-45 -65 -66 -84 -85 -100 -103 -117 -118 -133 -134 -163 -164 -176 -177 -188 -189 -199 -200 0
-44 -64 -65 -83 -84 -101 -102 -117 -119 -133 -134 -163 -164 -176 -177 -188 -189 -199 -200 0
-45 -64 -66 -83 -84 -101 -102 -117 -119 -133 -134 -163 -164 -176 -177 -188 -189 -199 -200 0
-45 -65 -66 -83 -85 -101 -102 -117 -119 -133 -134 -163 -164 -176 -177 -188 -189 -199 -200 0
-45 -65 -66 -84 -85 -101 -103 -117 -119 -133 -134 -163 -164 -176 -177 -188 -189 -199 -200 0
-45 -65 -66 -84 -85 -102 -103 -117 -120 -133 -134 -163 -164 -176 -177 -188 -189 -199 -200 0
-44 -64 -65 -83 -84 -101 -102 -118 -119 -133 -135 -163 -164 -176 -177 -188 -189 -199 -200 0
-45 -64 -66 -83 -84 -101 -102 -118 -119 -133 -135 -163 -164 -176 -177 -188 -189 -199 -200 0
-45 -65 -66 -83 -85 -101 -102 -118 -119 -133 -135 -163 -164 -176 -177 -188 -189 -199 -200 0
-45 -65 -66 -84 -85 -101 -103 -118 -119 -133 -135 -163 -164 -176 -177 -188 -189 -199 -200 0
-45 -65 -66 -84 -85 -102 -103 -118 -120 -133 -135 -163 -164 -176 -177 -188 -189 -199 -200 0
-45 -65 -66 -84 -85 -102 -103 -119 -120 -133 -136 -163 -164 -176 -177 -188 -189 -199 -200 0
-44 -64 -65 -83 -84 -101 -102 -118 -119 -134 -135 -163 -165 -176 -177 -188 -189 -199 -200 0
-45 -64 -66 -83 -84 -101 -102 -118 -119 -134 -135 -163 -165 -176 -177 -188 -189 -199 -200 0
-45 -65 -66 -83 -85 -101 -102 -118 -119 -134 -135 -163 -165 -176 -177 -188 -189 -199 -200 0
-45 -65 -66 -84 -85 -101 -103 -118 -119 -134 -135 -163 -165 -176 -177 -188 -189 -199 -200 0
-45 -65 -66 -84 -85 -102 -103 -118 -120 -134 -135 -163 -165 -176 -177 -188 -189 -199 -200 0
-45 -65 -66 -84 -85 -102 -103 -119 -120 -134 -136 -163 -165 -176 -177 -188 -189 -199 -200 0
-45 -65 -66 -84 -85 -102 -103 -119 -120 -135 -136 -163 -166 -176 -177 -188 -189 -199 -200 0
-44 -64 -65 -83 -84 -101 -102 -118 -119 -134 -135 -164 -165 -176 -178 -188 -189 -199 -200 0
-45 -64 -66 -83 -84 -101 -102 -118 -119 -134 -135 -164 -165 -176 -178 -188 -189 -199 -200 0
-45 -65 -66 -83 -85 -101 -102 -118 -119 -134 -135 -164 -165 -176 -178 -188 -189 -199 -200 0
-45 -65 -66 -84 -85 -101 -103 -118 -119 -134 -135 -164 -165 -176 -178 -188 -189 -199 -200 0
-45 -65 -66 -84 -85 -102 -103 -118 -120 -134 -135 -164 -165 -176 -178 -188 -189 -199 -200 0
-45 -65 -66 -84 -85 -102 -103 -119 -120 -134 -136 -164 -165 -176 -178 -188 -189 -199 -200 0
-45 -65 -66 -84 -85 -102 -103 -119 -120 -135 -136 -164 -166 -176 -178 -188 -189 -199 -200 0
-45 -65 -66 -84 -85 -102 -103 -119 -120 -135 -136 -165 -166 -176 -179 -188 -189 -199 -200 0
-44 -64 -65 -83 -84 -101 -102 -118 -119 -134 -135 -164 -165 -177 -178 -188 -190 -199 -200 0
-45 -64 -66 -83 -84 -101 -102 -118 -119 -134 -135 -164 -165 -177 -178 -188 -190 -199 -200 0
-45 -65 -66 -83 -85 -101 -102 -118 -119 -134 -135 -164 -165 -177 -178 -188 -190 -199 -200 0
-45 -65 -66 -84 -85 -101 -103 -118 -119 -134 -135 -164 -165 -177 -178 -188 -190 -199 -200 0
-45 -65 -66 -84 -85 -102 -103 -118 -120 -134 -135 -164 -165 -177 -178 -188 -190 -199 -200 0
-45 -65 -66 -84 -85 -102 -103 -119 -120 -134 -136 -164 -165 -177 -178 -188 -190 -199 -200 0
-45 -65 -66 -84 -85 -102 -103 -119 -120 -135 -136 -164 -166 -177 -178 -188 -190 -199 -200 0
-45 -65 -66 -84 -85 -102 -103 -119 -120 -135 -136 -165 -166 -177 -179 -188 -190 -199 -200 0
-45 -65 -66 -84 -85 -102 -103 -119 -120 -135 -136 -165 -166 -178 -179 -188 -191 -199 -200 0
-44 -64 -65 -83 -84 -101 -102 -118 -119 -134 -135 -164 -165 -177 -178 -189 -190 -199 -201 0
-45 -64 -66 -83 -84 -101 -102 -118 -119 -134 -135 -164 -165 -177 -178 -189 -190 -199 -201 0
-45 -65 -66 -83 -85 -101 -102 -118 -119 -134 -135 -164 -165 -177 -178 -189 -190 -199 -201 0
-45 -65 -66 -84 -85 -101 -103 -118 -119 -134 -135 -164 -165 -177 -178 -189 -190 -199 -201 0
-45 -65 -66 -84 -85 -102 -103 -118 -120 -134 -135 -164 -165 -177 -178 -189 -190 -199 -201 0
-45 -65 -66 -84 -85 -102 -103 -119 -120 -134 -136 -164 -165 -177 -178 -189 -190 -199 -201 0
-45 -65 -66 -84 -85 -102 -103 -119 -120 -135 -136 -164 -166 -177 -178 -189 -190 -199 -201 0
-45 -65 -66 -84 -85 -102 -103 -119 -120 -135 -136 -165 -166 -177 -179 -189 -190 -199 -201 0
-45 -65 -66 -84 -85 -102 -103 -119 -120 -135 -136 -165 -166 -178 -179 -189 -191 -199 -201 0
-45 -65 -66 -84 -85 -102 -103 -119 -120 -135 -136 -165 -166 -178 -179 -190 -191 -199 -202 0
-44 -64 -65 -83 -84 -101 -102 -118 -119 -134 -135 -164 -165 -177 -178 -189 -190 -200 -201 0
-45 -64 -66 -83 -84 -101 -102 -118 -119 -134 -135 -164 -165 -177 -178 -189 -190 -200 -201 0
-45 -65 -66 -83 -85 -101 -102 -118 -119 -134 -135 -164 -165 -177 -178 -189 -190 -200 -201 0
-45 -65 -66 -84 -85 -101 -103 -118 -119 -134 -135 -164 -165 -177 -178 -189 -190 -200 -201 0
-45 -65 -66 -84 -85 -102 -103 -118 -120 -134 -135 -164 -165 -177 -178 -189 -190 -200 -201 0
-45 -65 -66 -84 -85 -102 -103 -119 -120 -134 -136 -164 -165 -177 -178 -189 -190 -200 -201 0
-45 -65 -66 -84 -85 -102 -103 -119 -120 -135 -136 -164 -166 -177 -178 -189 -190 -200 -201 0
-45 -65 -66 -84 -85 -102 -103 -119 -120 -135 -136 -165 -166 -177 -179 -189 -190 -200 -201 0
-45 -65 -66 -84 -85 -102 -103 -119 -120 -135 -136 -165 -166 -178 -179 -189 -191 -200 -201 0
-45 -65 -66 -84 -85 -102 -103 -119 -120 -135 -136 -165 -166 -178 -179 -190 -191 -200 -202 0
-45 -65 -66 -84 -85 -102 -103 -119 -120 -135 -136 -165 -166 -178 -179 -190 -191 -201 -202 0
-44 -64 -65 -83 -84 -101 -102 -118 -119 -134 -135 -164 -165 -177 -178 -189 -190 -211 -212 0
-45 -64 -66 -83 -84 -101 -102 -118 -119 -134 -135 -164 -165 -177 -178 -189 -190 -211 -212 0
-45 -65 -66 -83 -85 -101 -102 -118 -119 -134 -135 -164 -165 -177 -178 -189 -190 -211 -212 0
-45 -65 -66 -84 -85 -101 -103 -118 -119 -134 -135 -164 -165 -177 -178 -189 -190 -211 -212 0
-45 -65 -66 -84 -85 -102 -103 -118 -120 -134 -135 -164 -165 -177 -178 -189 -190 -211 -212 0
-45 -65 -66 -84 -85 -102 -103 -119 -120 -134 -136 -164 -165 -177 -178 -189 -190 -211 -212 0
-45 -65 -66 -84 -85 -102 -103 -119 -120 -135 -136 -164 -166 -177 -178 -189 -190 -211 -212 0
-45 -65 -66 -84 -85 -102 -103 -119 -120 -135 -136 -165 -166 -177 -179 -189 -190 -211 -212 0
-45 -65 -66 -84 -85 -102 -103 -119 -120 -135 -136 -165 -166 -178 -179 -189 -191 -211 -212 0
-45 -65 -66 -84 -85 -102 -103 -119 -120 -135 -136 -165 -166 -178 -179 -190 -191 -211 -213 0
-45 -65 -66 -84 -85 -102 -103 -119 -120 -135 -136 -165 -166 -178 -179 -190 -191 -212 -213 0
-45 -65 -66 -84 -85 -102 -103 -119 -120 -135 -136 -165 -166 -178 -179 -190 -191 -222 -223 0
-44 -64 -65 -83 -84 -101 -102 -118 -119 -134 -135 -164 -165 -177 -178 -201 -202 -211 -212 0
-45 -64 -66 -83 -84 -101 -102 -118 -119 -134 -135 -164 -165 -177 -178 -201 -202 -211 -212 0
-45 -65 -66 -83 -85 -101 -102 -118 -119 -134 -135 -164 -165 -177 -178 -201 -202 -211 -212 0
-45 -65 -66 -84 -85 -101 -103 -118 -119 -134 -135 -164 -165 -177 -178 -201 -202 -211 -212 0
-45 -65 -66 -84 -85 -102 -103 -118 -120 -134 -135 -164 -165 -177 -178 -201 -202 -211 -212 0
-45 -65 -66 -84 -85 -102 -103 -119 -120 -134 -136 -164 -165 -177 -178 -201 -202 -211 -212 0
-45 -65 -66 -84 -85 -102 -103 -119 -120 -135 -136 -164 -166 -177 -178 -201 -202 -211 -212 0
-45 -65 -66 -84 -85 -102 -103 -119 -120 -135 -136 -165 -166 -177 -179 -201 -202 -211 -212 0
-45 -65 -66 -84 -85 -102 -103 -119 -120 -135 -136 -165 -166 -178 -179 -201 -203 -211 -212 0
-45 -65 -66 -84 -85 -102 -103 -119 -120 -135 -136 -165 -166 -178 -179 -202 -203 -211 -213 0
-45 -65 -66 -84 -85 -102 -103 -119 -120 -135 -136 -165 -166 -178 -179 -202 -203 -212 -213 0
-45 -65 -66 -84 -85 -102 -103 -119 -120 -135 -136 -165 -166 -178 -179 -202 -203 -222 -223 0
-45 -65 -66 -84 -85 -102 -103 -119 -120 -135 -136 -165 -166 -178 -179 -213 -214 -222 -223 0
-44 -64 -65 -83 -84 -101 -102 -118 -119 -134 -135 -164 -165 -190 -191 -201 -202 -211 -212 0
-45 -64 -66 -83 -84 -101 -102 -118 -119 -134 -135 -164 -165 -190 -191 -201 -202 -211 -212 0
-45 -65 -66 -83 -85 -101 -102 -118 -119 -134 -135 -164 -165 -190 -191 -201 -202 -211 -212 0
-45 -65 -66 -84 -85 -101 -103 -118 -119 -134 -135 -164 -165 -190 -191 -201 -202 -211 -212 0
-45 -65 -66 -84 -85 -102 -103 -118 -120 -134 -135 -164 -165 -190 -191 -201 -202 -211 -212 0
-45 -65 -66 -84 -85 -102 -103 -119 -120 -134 -136 -164 -165 -190 -191 -201 -202 -211 -212 0
-45 -65 -66 -84 -85 -102 -103 -119 -120 -135 -136 -164 -166 -190 -191 -201 -202 -211 -212 0
-45 -65 -66 -84 -85 -102 -103 -119 -120 -135 -136 -165 -166 -190 -192 -201 -202 -211 -212 0
-45 -65 -66 -84 -85 -102 -103 -119 -120 -135 -136 -165 -166 -191 -192 -201 -203 -211 -212 0
-45 -65 -66 -84 -85 -102 -103 -119 -120 -135 -136 -165 -166 -191 -192 -202 -203 -211 -213 0
-45 -65 -66 -84 -85 -102 -103 -119 -120 -135 -136 -165 -166 -191 -192 -202 -203 -212 -213 0
-45 -65 -66 -84 -85 -102 -103 -119 -120 -135 -136 -165 -166 -191 -192 -202 -203 -222 -223 0
-45 -65 -66 -84 -85 -102 -103 -119 -120 -135 -136 -165 -166 -191 -192 -213 -214 -222 -223 0
-45 -65 -66 -84 -85 -102 -103 -119 -120 -135 -136 -165 -166 -203 -204 -213 -214 -222 -223 0
-44 -64 -65 -83 -84 -101 -102 -118 -119 -134 -135 -178 -179 -190 -191 -201 -202 -211 -212 0
-45 -64 -66 -83 -84 -101 -102 -118 -119 -134 -135 -178 -179 -190 -191 -201 -202 -211 -212 0
-45 -65 -66 -83 -85 -101 -102 -118 -119 -134 -135 -178 -179 -190 -191 -201 -202 -211 -212 0
-45 -65 -66 -84 -85 -101 -103 -118 -119 -134 -135 -178 -179 -190 -191 -201 -202 -211 -212 0
-45 -65 -66 -84 -85 -102 -103 -118 -120 -134 -135 -178 -179 -190 -191 -201 -202 -211 -212 0
-45 -65 -66 -84 -85 -102 -103 -119 -120 -134 -136 -178 -179 -190 -191 -201 -202 -211 -212 0
-45 -65 -66 -84 -85 -102 -103 -119 -120 -135 -136 -178 -180 -190 -191 -201 -202 -211 -212 0
-45 -65 -66 -84 -85 -102 -103 -119 -120 -135 -136 -179 -180 -190 -192 -201 -202 -211 -212 0
-45 -65 -66 -84 -85 -102 -103 -119 -120 -135 -136 -179 -180 -191 -192 -201 -203 -211 -212 0
-45 -65 -66 -84 -85 -102 -103 -119 -120 -135 -136 -179 -180 -191 -192 -202 -203 -211 -213 0
-45 -65 -66 -84 -85 -102 -103 -119 -120 -135 -136 -179 -180 -191 -192 -202 -203 -212 -213 0
-45 -65 -66 -84 -85 -102 -103 -119 -120 -135 -136 -179 -180 -191 -192 -202 -203 -222 -223 0
-45 -65 -66 -84 -85 -102 -103 -119 -120 -135 -136 -179 -180 -191 -192 -213 -214 -222 -223 0
-45 -65 -66 -84 -85 -102 -103 -119 -120 -135 -136 -179 -180 -203 -204 -213 -214 -222 -223 0
-45 -65 -66 -84 -85 -102 -103 -119 -120 -135 -136 -192 -193 -203 -204 -213 -214 -222 -223 0
-43 -63 -64 -82 -83 -100 -101 -117 -118 -149 -150 -163 -164 -176 -177 -188 -189 -199 -200 0
-44 -63 -65 -82 -83 -100 -101 -117 -118 -149 -150 -163 -164 -176 -177 -188 -189 -199 -200 0
-45 -63 -66 -82 -83 -100 -101 -117 -118 -149 -150 -163 -164 -176 -177 -188 -189 -199 -200 0
-44 -64 -65 -82 -84 -100 -101 -117 -118 -149 -150 -163 -164 -176 -177 -188 -189 -199 -200 0
-45 -64 -66 -82 -84 -100 -101 -117 -118 -149 -150 -163 -164 -176 -177 -188 -189 -199 -200 0
-45 -65 -66 -82 -85 -100 -101 -117 -118 -149 -150 -163 -164 -176 -177 -188 -189 -199 -200 0
-44 -64 -65 -83 -84 -100 -102 -117 -118 -149 -150 -163 -164 -176 -177 -188 -189 -199 -200 0
-45 -64 -66 -83 -84 -100 -102 -117 -118 -149 -150 -163 -164 -176 -177 -188 -189 -199 -200 0
-45 -65 -66 -83 -85 -100 -102 -117 -118 -149 -150 -163 -164 -176 -177 -188 -189 -199 -200 0
-45 -65 -66 -84 -85 -100 -103 -117 -118 -149 -150 -163 -164 -176 -177 -188 -189 -199 -200 0
-44 -64 -65 -83 -84 -101 -102 -117 -119 -149 -150 -163 -164 -176 -177 -188 -189 -199 -200 0
-45 -64 -66 -83 -84 -101 -102 -117 -119 -149 -150 -163 -164 -176 -177 -188 -189 -199 -200 0
-45 -65 -66 -83 -85 -101 -102 -117 -119 -149 -150 -163 -164 -176 -177 -188 -189 -199 -200 0
-45 -65 -66 -84 -85 -101 -103 -117 -119 -149 -150 -163 -164 -176 -177 -188 -189 -199 -200 0
-45 -65 -66 -84 -85 -102 -103 -117 -120 -149 -150 -163 -164 -176 -177 -188 -189 -199 -200 0
-44 -64 -65 -83 -84 -101 -102 -118 -119 -149 -151 -163 -164 -176 -177 -188 -189 -199 -200 0
-45 -64 -66 -83 -84 -101 -102 -118 -119 -149 -151 -163 -164 -176 -177 -188 -189 -199 -200 0
-45 -65 -66 -83 -85 -101 -102 -118 -119 -149 -151 -163 -164 -176 -177 -188 -189 -199 -200 0
-45 -65 -66 -84 -85 -101 -103 -118 -119 -149 -151 -163 -164 -176 -177 -188 -189 -199 -200 0
-45 -65 -66 -84 -85 -102 -103 -118 -120 -149 -151 -163 -164 -176 -177 -188 -189 -199 -200 0
-45 -65 -66 -84 -85 -102 -103 -119 -120 -149 -152 -163 -164 -176 -177 -188 -189 -199 -200 0
-44 -64 -65 -83 -84 -101 -102 -118 -119 -150 -151 -163 -165 -176 -177 -188 -189 -199 -200 0
-45 -64 -66 -83 -84 -101 -102 -118 -119 -150 -151 -163 -165 -176 -177 -188 -189 -199 -200 0
-45 -65 -66 -83 -85 -101 -102 -118 -119 -150 -151 -163 -165 -176 -177 -188 -189 -199 -200 0
-45 -65 -66 -84 -85 -101 -103 -118 -119 -150 -151 -163 -165 -176 -177 -188 -189 -199 -200 0
-45 -65 -66 -84 -85 -102 -103 -118 -120 -150 -151 -163 -165 -176 -177 -188 -189 -199 -200 0
-45 -65 -66 -84 -85 -102 -103 -119 -120 -150 -152 -163 -165 -176 -177 -188 -189 -199 -200 0
-45 -65 -66 -84 -85 -102 -103 -119 -120 -151 -152 -163 -166 -176 -177 -188 -189 -199 -200 0
-44 -64 -65 -83 -84 -101 -102 -118 -119 -150 -151 -164 -165 -176 -178 -188 -189 -199 -200 0
-45 -64 -66 -83 -84 -101 -102 -118 -119 -150 -151 -164 -165 -176 -178 -188 -189 -199 -200 0
-45 -65 -66 -83 -85 -101 -102 -118 -119 -150 -151 -164 -165 -176 -178 -188 -189 -199 -200 0
-45 -65 -66 -84 -85 -101 -103 -118 -119 -150 -151 -164 -165 -176 -178 -188 -189 -199 -200 0
-45 -65 -66 -84 -85 -102 -103 -118 -120 -150 -151 -164 -165 -176 -178 -188 -189 -199 -200 0
-45 -65 -66 -84 -85 -102 -103 -119 -120 -150 -152 -164 -165 -176 -178 -188 -189 -199 -200 0
-45 -65 -66 -84 -85 -102 -103 -119 -120 -151 -152 -164 -166 -176 -178 -188 -189 -199 -200 0
-45 -65 -66 -84 -85 -102 -103 -119 -120 -151 -152 -165 -166 -176 -179 -188 -189 -199 -200 0
-44 -64 -65 -83 -84 -101 -102 -118 -119 -150 -151 -164 -165 -177 -178 -188 -190 -199 -200 0
-45 -64 -66 -83 -84 -101 -102 -118 -119 -150 -151 -164 -165 -177 -178 -188 -190 -199 -200 0
-45 -65 -66 -83 -85 -101 -102 -118 -119 -150 -151 -164 -165 -177 -178 -188 -190 -199 -200 0
-45 -65 -66 -84 -85 -101 -103 -118 -119 -150 -151 -164 -165 -177 -178 -188 -190 -199 -200 0
-45 -65 -66 -84 -85 -102 -103 -118 -120 -150 -151 -164 -165 -177 -178 -188 -190 -199 -200 0
-45 -65 -66 -84 -85 -102 -103 -119 -120 -150 -152 -164 -165 -177 -178 -188 -190 -199 -200 0
-45 -65 -66 -84 -85 -102 -103 -119 -120 -151 -152 -164 -166 -177 -178 -188 -190 -199 -200 0
-45 -65 -66 -84 -85 -102 -103 -119 -120 -151 -152 -165 -166 -177 -179 -188 -190 -199 -200 0
-45 -65 -66 -84 -85 -102 -103 -119 -120 -151 -152 -165 -166 -178 -179 -188 -191 -199 -200 0
-44 -64 -65 -83 -84 -101 -102 -118 -119 -150 -151 -164 -165 -177 -178 -189 -190 -199 -201 0
-45 -64 -66 -83 -84 -101 -102 -118 -119 -150 -151 -164 -165 -177 -178 -189 -190 -199 -201 0
-45 -65 -66 -83 -85 -101 -102 -118 -119 -150 -151 -164 -165 -177 -178 -189 -190 -199 -201 0
-45 -65 -66 -84 -85 -101 -103 -118 -119 -150 -151 -164 -165 -177 -178 -189 -190 -199 -201 0
-45 -65 -66 -84 -85 -102 -103 -118 -120 -150 -151 -164 -165 -177 -178 -189 -190 -199 -201 0
-45 -65 -66 -84 -85 -102 -103 -119 -120 -150 -152 -164 -165 -177 -178 -189 -190 -199 -201 0
-45 -65 -66 -84 -85 -102 -103 -119 -120 -151 -152 -164 -166 -177 -178 -189 -190 -199 -201 0
-45 -65 -66 -84 -85 -102 -103 -119 -120 -151 -152 -165 -166 -177 -179 -189 -190 -199 -201 0
-45 -65 -66 -84 -85 -102 -103 -119 -120 -151 -152 -165 -166 -178 -179 -189 -191 -199 -201 0
-45 -65 -66 -84 -85 -102 -103 -119 -120 -151 -152 -165 -166 -178 -179 -190 -191 -199 -202 0
-44 -64 -65 -83 -84 -101 -102 -118 -119 -150 -151 -164 -165 -177 -178 -189 -190 -200 -201 0
-45 -64 -66 -83 -84 -101 -102 -118 -119 -150 -151 -164 -165 -177 -178 -189 -190 -200 -201 0
-45 -65 -66 -83 -85 -101 -102 -118 -119 -150 -151 -164 -165 -177 -178 -189 -190 -200 -201 0
-45 -65 -66 -84 -85 -101 -103 -118 -119 -150 -151 -164 -165 -177 -178 -189 -190 -200 -201 0
-45 -65 -66 -84 -85 -102 -103 -118 -120 -150 -151 -164 -165 -177 -178 -189 -190 -200 -201 0
-45 -65 -66 -84 -85 -102 -103 -119 -120 -150 -152 -164 -165 -177 -178 -189 -190 -200 -201 0
-45 -65 -66 -84 -85 -102 -103 -119 -120 -151 -152 -164 -166 -177 -178 -189 -190 -200 -201 0
-45 -65 -66 -84 -85 -102 -103 -119 -120 -151 -152 -165 -166 -177 -179 -189 -190 -200 -201 0
-45 -65 -66 -84 -85 -102 -103 -119 -120 -151 -152 -165 -166 -178 -179 -189 -191 -200 -201 0
-45 -65 -66 -84 -85 -102 -103 -119 -120 -151 -152 -165 -166 -178 -179 -190 -191 -200 -202 0
-45 -65 -66 -84 -85 -102 -103 -119 -120 -151 -152 -165 -166 -178 -179 -190 -191 -201 -202 0
-44 -64 -65 -83 -84 -101 -102 -118 -119 -150 -151 -164 -165 -177 -178 -189 -190 -211 -212 0
-45 -64 -66 -83 -84 -101 -102 -118 -119 -150 -151 -164 -165 -177 -178 -189 -190 -211 -212 0
-45 -65 -66 -83 -85 -101 -102 -118 -119 -150 -151 -164 -165 -177 -178 -189 -190 -211 -212 0
-45 -65 -66 -84 -85 -101 -103 -118 -119 -150 -151 -164 -165 -177 -178 -189 -190 -211 -212 0
-45 -65 -66 -84 -85 -102 -103 -118 -120 -150 -151 -164 -165 -177 -178 -189 -190 -211 -212 0
-45 -65 -66 -84 -85 -102 -103 -119 -120 -150 -152 -164 -165 -177 -178 -189 -190 -211 -212 0
-45 -65 -66 -84 -85 -102 -103 -119 -120 -151 -152 -164 -166 -177 -178 -189 -190 -211 -212 0
-45 -65 -66 -84 -85 -102 -103 -119 -120 -151 -152 -165 -166 -177 -179 -189 -190 -211 -212 0
-45 -65 -66 -84 -85 -102 -103 -119 -120 -151 -152 -165 -166 -178 -179 -189 -191 -211 -212 0
-45 -65 -66 -84 -85 -102 -103 -119 -120 -151 -152 -165 -166 -178 -179 -190 -191 -211 -213 0
-45 -65 -66 -84 -85 -102 -103 -119 -120 -151 -152 -165 -166 -178 -179 -190 -191 -212 -213 0
-45 -65 -66 -84 -85 -102 -103 -119 -120 -151 -152 -165 -166 -178 -179 -190 -191 -222 -223 0
-44 -64 -65 -83 -84 -101 -102 -118 -119 -150 -151 -164 -165 -177 -178 -201 -202 -211 -212 0
-45 -64 -66 -83 -84 -101 -102 -118 -119 -150 -151 -164 -165 -177 -178 -201 -202 -211 -212 0
-45 -65 -66 -83 -85 -101 -102 -118 -119 -150 -151 -164 -165 -177 -178 -201 -202 -211 -212 0
-45 -65 -66 -84 -85 -101 -103 -118 -119 -150 -151 -164 -165 -177 -178 -201 -202 -211 -212 0
-45 -65 -66 -84 -85 -102 -103 -118 -120 -150 -151 -164 -165 -177 -178 -201 -202 -211 -212 0
-45 -65 -66 -84 -85 -102 -103 -119 -120 -150 -152 -164 -165 -177 -178 -201 -202 -211 -212 0
-45 -65 -66 -84 -85 -102 -103 -119 -120 -151 -152 -164 -166 -177 -178 -201 -202 -211 -212 0
-45 -65 -66 -84 -85 -102 -103 -119 -120 -151 -152 -165 -166 -177 -179 -201 -202 -211 -212 0
-45 -65 -66 -84 -85 -102 -103 -119 -120 -151 -152 -165 -166 -178 -179 -201 -203 -211 -212 0
-45 -65 -66 -84 -85 -102 -103 -119 -120 -151 -152 -165 -166 -178 -179 -202 -203 -211 -213 0
-45 -65 -66 -84 -85 -102 -103 -119 -120 -151 -152 -165 -166 -178 -179 -202 -203 -212 -213 0
-45 -65 -66 -84 -85 -102 -103 -119 -120 -151 -152 -165 -166 -178 -179 -202 -203 -222 -223 0
-45 -65 -66 -84 -85 -102 -103 -119 -120 -151 -152 -165 -166 -178 -179 -213 -214 -222 -223 0
-44 -64 -65 -83 -84 -101 -102 -118 -119 -150 -151 -164 -165 -190 -191 -201 -202 -211 -212 0
-45 -64 -66 -83 -84 -101 -102 -118 -119 -150 -151 -164 -165 -190 -191 -201 -202 -211 -212 0
-45 -65 -66 -83 -85 -101 -102 -118 -119 -150 -151 -164 -165 -190 -191 -201 -202 -211 -212 0
-45 -65 -66 -84 -85 -101 -103 -118 -119 -150 -151 -164 -165 -190 -191 -201 -202 -211 -212 0
-45 -65 -66 -84 -85 -102 -103 -118 -120 -150 -151 -164 -165 -190 -191 -201 -202 -211 -212 0
-45 -65 -66 -84 -85 -102 -103 -119 -120 -150 -152 -164 -165 -190 -191 -201 -202 -211 -212 0
-45 -65 -66 -84 -85 -102 -103 -119 -120 -151 -152 -164 -166 -190 -191 -201 -202 -211 -212 0
-45 -65 -66 -84 -85 -102 -103 -119 -120 -151 -152 -165 -166 -190 -192 -201 -202 -211 -212 0
-45 -65 -66 -84 -85 -102 -103 -119 -120 -151 -152 -165 -166 -191 -192 -201 -203 -211 -212 0
-45 -65 -66 -84 -85 -102 -103 -119 -120 -151 -152 -165 -166 -191 -192 -202 -203 -211 -213 0
-45 -65 -66 -84 -85 -102 -103 -119 -120 -151 -152 -165 -166 -191 -192 -202 -203 -212 -213 0
-45 -65 -66 -84 -85 -102 -103 -119 -120 -151 -152 -165 -166 -191 -192 -202 -203 -222 -223 0
-45 -65 -66 -84 -85 -102 -103 -119 -120 -151 -152 -165 -166 -191 -192 -213 -214 -222 -223 0
-45 -65 -66 -84 -85 -102 -103 -119 -120 -151 -152 -165 -166 -203 -204 -213 -214 -222 -223 0
-44 -64 -65 -83 -84 -101 -102 -118 -119 -150 -151 -178 -179 -190 -191 -201 -202 -211 -212 0
-45 -64 -66 -83 -84 -101 -102 -118 -119 -150 -151 -178 -179 -190 -191 -201 -202 -211 -212 0
-45 -65 -66 -83 -85 -101 -102 -118 -119 -150 -151 -178 -179 -190 -191 -201 -202 -211 -212 0
-45 -65 -66 -84 -85 -101 -103 -118 -119 -150 -151 -178 -179 -190 -191 -201 -202 -211 -212 0
-45 -65 -66 -84 -85 -102 -103 -118 -120 -150 -151 -178 -179 -190 -191 -201 -202 -211 -212 0
-45 -65 -66 -84 -85 -102 -103 -119 -120 -150 -152 -178 -179 -190 -191 -201 -202 -211 -212 0
-45 -65 -66 -84 -85 -102 -103 -119 -120 -151 -152 -178 -180 -190 -191 -201 -202 -211 -212 0
-45 -65 -66 -84 -85 -102 -103 -119 -120 -151 -152 -179 -180 -190 -192 -201 -202 -211 -212 0
-45 -65 -66 -84 -85 -102 -103 -119 -120 -151 -152 -179 -180 -191 -192 -201 -203 -211 -212 0
-45 -65 -66 -84 -85 -102 -103 -119 -120 -151 -152 -179 -180 -191 -192 -202 -203 -211 -213 0
-45 -65 -66 -84 -85 -102 -103 -119 -120 -151 -152 -179 -180 -191 -192 -202 -203 -212 -213 0
-45 -65 -66 -84 -85 -102 -103 -119 -120 -151 -152 -179 -180 -191 -192 -202 -203 -222 -223 0
-45 -65 -66 -84 -85 -102 -103 -119 -120 -151 -152 -179 -180 -191 -192 -213 -214 -222 -223 0
-45 -65 -66 -84 -85 -102 -103 -119 -120 -151 -152 -179 -180 -203 -204 -213 -214 -222 -223 0
-45 -65 -66 -84 -85 -102 -103 -119 -120 -151 -152 -192 -193 -203 -204 -213 -214 -222 -223 0
-44 -64 -65 -83 -84 -101 -102 -118 -119 -165 -166 -178 -179 -190 -191 -201 -202 -211 -212 0
-45 -64 -66 -83 -84 -101 -102 -118 -119 -165 -166 -178 -179 -190 -191 -201 -202 -211 -212 0
-45 -65 -66 -83 -85 -101 -102 -118 -119 -165 -166 -178 -179 -190 -191 -201 -202 -211 -212 0
-45 -65 -66 -84 -85 -101 -103 -118 -119 -165 -166 -178 -179 -190 -191 -201 -202 -211 -212 0
-45 -65 -66 -84 -85 -102 -103 -118 -120 -165 -166 -178 -179 -190 -191 -201 -202 -211 -212 0
-45 -65 -66 -84 -85 -102 -103 -119 -120 -165 -167 -178 -179 -190 -191 -201 -202 -211 -212 0
-45 -65 -66 -84 -85 -102 -103 -119 -120 -166 -167 -178 -180 -190 -191 -201 -202 -211 -212 0
-45 -65 -66 -84 -85 -102 -103 -119 -120 -166 -167 -179 -180 -190 -192 -201 -202 -211 -212 0
-45 -65 -66 -84 -85 -102 -103 -119 -120 -166 -167 -179 -180 -191 -192 -201 -203 -211 -212 0
-45 -65 -66 -84 -85 -102 -103 -119 -120 -166 -167 -179 -180 -191 -192 -202 -203 -211 -213 0
-45 -65 -66 -84 -85 -102 -103 -119 -120 -166 -167 -179 -180 -191 -192 -202 -203 -212 -213 0
-45 -65 -66 -84 -85 -102 -103 -119 -120 -166 -167 -179 -180 -191 -192 -202 -203 -222 -223 0
-45 -65 -66 -84 -85 -102 -103 -119 -120 -166 -167 -179 -180 -191 -192 -213 -214 -222 -223 0
-45 -65 -66 -84 -85 -102 -103 -119 -120 -166 -167 -179 -180 -203 -204 -213 -214 -222 -223 0
-45 -65 -66 -84 -85 -102 -103 -119 -120 -166 -167 -192 -193 -203 -204 -213 -214 -222 -223 0
-45 -65 -66 -84 -85 -102 -103 -119 -120 -180 -181 -192 -193 -203 -204 -213 -214 -222 -223 0
-43 -63 -64 -82 -83 -100 -101 -134 -135 -149 -150 -163 -164 -176 -177 -188 -189 -199 -200 0
-44 -63 -65 -82 -83 -100 -101 -134 -135 -149 -150 -163 -164 -176 -177 -188 -189 -199 -200 0
-45 -63 -66 -82 -83 -100 -101 -134 -135 -149 -150 -163 -164 -176 -177 -188 -189 -199 -200 0
-44 -64 -65 -82 -84 -100 -101 -134 -135 -149 -150 -163 -164 -176 -177 -188 -189 -199 -200 0
-45 -64 -66 -82 -84 -100 -101 -134 -135 -149 -150 -163 -164 -176 -177 -188 -189 -199 -200 0
-45 -65 -66 -82 -85 -100 -101 -134 -135 -149 -150 -163 -164 -176 -177 -188 -189 -199 -200 0
-44 -64 -65 -83 -84 -100 -102 -134 -135 -149 -150 -163 -164 -176 -177 -188 -189 -199 -200 0
-45 -64 -66 -83 -84 -100 -102 -134 -135 -149 -150 -163 -164 -176 -177 -188 -189 -199 -200 0
-45 -65 -66 -83 -85 -100 -102 -134 -135 -149 -150 -163 -164 -176 -177 -188 -189 -199 -200 0
-45 -65 -66 -84 -85 -100 -103 -134 -135 -149 -150 -163 -164 -176 -177 -188 -189 -199 -200 0
-44 -64 -65 -83 -84 -101 -102 -134 -136 -149 -150 -163 -164 -176 -177 -188 -189 -199 -200 0
-45 -64 -66 -83 -84 -101 -102 -134 -136 -149 -150 -163 -164 -176 -177 -188 -189 -199 -200 0
-45 -65 -66 -83 -85 -101 -102 -134 -136 -149 -150 -163 -164 -176 -177 -188 -189 -199 -200 0
-45 -65 -66 -84 -85 -101 -103 -134 -136 -149 -150 -163 -164 -176 -177 -188 -189 -199 -200 0
-45 -65 -66 -84 -85 -102 -103 -134 -137 -149 -150 -163 -164 -176 -177 -188 -189 -199 -200 0
-44 -64 -65 -83 -84 -101 -102 -135 -136 -149 -151 -163 -164 -176 -177 -188 -189 -199 -200 0
-45 -64 -66 -83 -84 -101 -102 -135 -136 -149 -151 -163 -164 -176 -177 -188 -189 -199 -200 0
-45 -65 -66 -83 -85 -101 -102 -135 -136 -149 -151 -163 -164 -176 -177 -188 -189 -199 -200 0
-45 -65 -66 -84 -85 -101 -103 -135 -136 -149 -151 -163 -164 -176 -177 -188 -189 -199 -200 0
-45 -65 -66 -84 -85 -102 -103 -135 -137 -149 -151 -163 -164 -176 -177 -188 -189 -199 -200 0
-45 -65 -66 -84 -85 -102 -103 -136 -137 -149 -152 -163 -164 -176 -177 -188 -189 -199 -200 0
-44 -64 -65 -83 -84 -101 -102 -135 -136 -150 -151 -163 -165 -176 -177 -188 -189 -199 -200 0
-45 -64 -66 -83 -84 -101 -102 -135 -136 -150 -151 -163 -165 -176 -177 -188 -189 -199 -200 0
-45 -65 -66 -83 -85 -101 -102 -135 -136 -150 -151 -163 -165 -176 -177 -188 -189 -199 -200 0
-45 -65 -66 -84 -85 -101 -103 -135 -136 -150 -151 -163 -165 -176 -177 -188 -189 -199 -200 0
-45 -65 -66 -84 -85 -102 -103 -135 -137 -150 -151 -163 -165 -176 -177 -188 -189 -199 -200 0
-45 -65 -66 -84 -85 -102 -103 -136 -137 -150 -152 -163 -165 -176 -177 -188 -189 -199 -200 0
-45 -65 -66 -84 -85 -102 -103 -136 -137 -151 -152 -163 -166 -176 -177 -188 -189 -199 -200 0
-44 -64 -65 -83 -84 -101 -102 -135 -136 -150 -151 -164 -165 -176 -178 -188 -189 -199 -200 0
-45 -64 -66 -83 -84 -101 -102 -135 -136 -150 -151 -164 -165 -176 -178 -188 -189 -199 -200 0
-45 -65 -66 -83 -85 -101 -102 -135 -136 -150 -151 -164 -165 -176 -178 -188 -189 -199 -200 0
-45 -65 -66 -84 -85 -101 -103 -135 -136 -150 -151 -164 -165 -176 -178 -188 -189 -199 -200 0
-45 -65 -66 -84 -85 -102 -103 -135 -137 -150 -151 -164 -165 -176 -178 -188 -189 -199 -200 0
-45 -65 -66 -84 -85 -102 -103 -136 -137 -150 -152 -164 -165 -176 -178 -188 -189 -199 -200 0
-45 -65 -66 -84 -85 -102 -103 -136 -137 -151 -152 -164 -166 -176 -178 -188 -189 -199 -200 0
-45 -65 -66 -84 -85 -102 -103 -136 -137 -151 -152 -165 -166 -176 -179 -188 -189 -199 -200 0
-44 -64 -65 -83 -84 -101 -102 -135 -136 -150 -151 -164 -165 -177 -178 -188 -190 -199 -200 0
-45 -64 -66 -83 -84 -101 -102 -135 -136 -150 -151 -164 -165 -177 -178 -188 -190 -199 -200 0
-45 -65 -66 -83 -85 -101 -102 -135 -136 -150 -151 -164 -165 -177 -178 -188 -190 -199 -200 0
-45 -65 -66 -84 -85 -101 -103 -135 -136 -150 -151 -164 -165 -177 -178 -188 -190 -199 -200 0
-45 -65 -66 -84 -85 -102 -103 -135 -137 -150 -151 -164 -165 -177 -178 -188 -190 -199 -200 0
-45 -65 -66 -84 -85 -102 -103 -136 -137 -150 -152 -164 -165 -177 -178 -188 -190 -199 -200 0
-45 -65 -66 -84 -85 -102 -103 -136 -137 -151 -152 -164 -166 -177 -178 -188 -190 -199 -200 0
-45 -65 -66 -84 -85 -102 -103 -136 -137 -151 -152 -165 -166 -177 -179 -188 -190 -199 -200 0
-45 -65 -66 -84 -85 -102 -103 -136 -137 -151 -152 -165 -166 -178 -179 -188 -191 -199 -200 0
-44 -64 -65 -83 -84 -101 -102 -135 -136 -150 -151 -164 -165 -177 -178 -189 -190 -199 -201 0
-45 -64 -66 -83 -84 -101 -102 -135 -136 -150 -151 -164 -165 -177 -178 -189 -190 -199 -201 0
-45 -65 -66 -83 -85 -101 -102 -135 -136 -150 -151 -164 -165 -177 -178 -189 -190 -199 -201 0
-45 -65 -66 -84 -85 -101 -103 -135 -136 -150 -151 -164 -165 -177 -178 -189 -190 -199 -201 0
-45 -65 -66 -84 -85 -102 -103 -135 -137 -150 -151 -164 -165 -177 -178 -189 -190 -199 -201 0
-45 -65 -66 -84 -85 -102 -103 -136 -137 -150 -152 -164 -165 -177 -178 -189 -190 -199 -201 0
-45 -65 -66 -84 -85 -102 -103 -136 -137 -151 -152 -164 -166 -177 -178 -189 -190 -199 -201 0
-45 -65 -66 -84 -85 -102 -103 -136 -137 -151 -152 -165 -166 -177 -179 -189 -190 -199 -201 0
-45 -65 -66 -84 -85 -102 -103 -136 -137 -151 -152 -165 -166 -178 -179 -189 -191 -199 -201 0
-45 -65 -66 -84 -85 -102 -103 -136 -137 -151 -152 -165 -166 -178 -179 -190 -191 -199 -202 0
-44 -64 -65 -83 -84 -101 -102 -135 -136 -150 -151 -164 -165 -177 -178 -189 -190 -200 -201 0
-45 -64 -66 -83 -84 -101 -102 -135 -136 -150 -151 -164 -165 -177 -178 -189 -190 -200 -201 0
-45 -65 -66 -83 -85 -101 -102 -135 -136 -150 -151 -164 -165 -177 -178 -189 -190 -200 -201 0
-45 -65 -66 -84 -85 -101 -103 -135 -136 -150 -151 -164 -165 -177 -178 -189 -190 -200 -201 0
-45 -65 -66 -84 -85 -102 -103 -135 -137 -150 -151 -164 -165 -177 -178 -189 -190 -200 -201 0
-45 -65 -66 -84 -85 -102 -103 -136 -137 -150 -152 -164 -165 -177 -178 -189 -190 -200 -201 0
-45 -65 -66 -84 -85 -102 -103 -136 -137 -151 -152 -164 -166 -177 -178 -189 -190 -200 -201 0
-45 -65 -66 -84 -85 -102 -103 -136 -137 -151 -152 -165 -166 -177 -179 -189 -190 -200 -201 0
-45 -65 -66 -84 -85 -102 -103 -136 -137 -151 -152 -165 -166 -178 -179 -189 -191 -200 -201 0
-45 -65 -66 -84 -85 -102 -103 -136 -137 -151 -152 -165 -166 -178 -179 -190 -191 -200 -202 0
-45 -65 -66 -84 -85 -102 -103 -136 -137 -151 -152 -165 -166 -178 -179 -190 -191 -201 -202 0
-44 -64 -65 -83 -84 -101 -102 -135 -136 -150 -151 -164 -165 -177 -178 -189 -190 -211 -212 0
-45 -64 -66 -83 -84 -101 -102 -135 -136 -150 -151 -164 -165 -177 -178 -189 -190 -211 -212 0
-45 -65 -66 -83 -85 -101 -102 -135 -136 -150 -151 -164 -165 -177 -178 -189 -190 -211 -212 0
-45 -65 -66 -84 -85 -101 -103 -135 -136 -150 -151 -164 -165 -177 -178 -189 -190 -211 -212 0
-45 -65 -66 -84 -85 -102 -103 -135 -137 -150 -151 -164 -165 -177 -178 -189 -190 -211 -212 0
-45 -65 -66 -84 -85 -102 -103 -136 -137 -150 -152 -164 -165 -177 -178 -189 -190 -211 -212 0
-45 -65 -66 -84 -85 -102 -103 -136 -137 -151 -152 -164 -166 -177 -178 -189 -190 -211 -212 0
-45 -65 -66 -84 -85 -102 -103 -136 -137 -151 -152 -165 -166 -177 -179 -189 -190 -211 -212 0
-45 -65 -66 -84 -85 -102 -103 -136 -137 -151 -152 -165 -166 -178 -179 -189 -191 -211 -212 0
-45 -65 -66 -84 -85 -102 -103 -136 -137 -151 -152 -165 -166 -178 -179 -190 -191 -211 -213 0
-45 -65 -66 -84 -85 -102 -103 -136 -137 -151 -152 -165 -166 -178 -179 -190 -191 -212 -213 0
-45 -65 -66 -84 -85 -102 -103 -136 -137 -151 -152 -165 -166 -178 -179 -190 -191 -222 -223 0
-44 -64 -65 -83 -84 -101 -102 -135 -136 -150 -151 -164 -165 -177 -178 -201 -202 -211 -212 0
-45 -64 -66 -83 -84 -101 -102 -135 -136 -150 -151 -164 -165 -177 -178 -201 -202 -211 -212 0
-45 -65 -66 -83 -85 -101 -102 -135 -136 -150 -151 -164 -165 -177 -178 -201 -202 -211 -212 0
-45 -65 -66 -84 -85 -101 -103 -135 -136 -150 -151 -164 -165 -177 -178 -201 -202 -211 -212 0
-45 -65 -66 -84 -85 -102 -103 -135 -137 -150 -151 -164 -165 -177 -178 -201 -202 -211 -212 0
-45 -65 -66 -84 -85 -102 -103 -136 -137 -150 -152 -164 -165 -177 -178 -201 -202 -211 -212 0
-45 -65 -66 -84 -85 -102 -103 -136 -137 -151 -152 -164 -166 -177 -178 -201 -202 -211 -212 0
-45 -65 -66 -84 -85 -102 -103 -136 -137 -151 -152 -165 -166 -177 -179 -201 -202 -211 -212 0
-45 -65 -66 -84 -85 -102 -103 -136 -137 -151 -152 -165 -166 -178 -179 -201 -203 -211 -212 0
-45 -65 -66 -84 -85 -102 -103 -136 -137 -151 -152 -165 -166 -178 -179 -202 -203 -211 -213 0
-45 -65 -66 -84 -85 -102 -103 -136 -137 -151 -152 -165 -166 -178 -179 -202 -203 -212 -213 0
-45 -65 -66 -84 -85 -102 -103 -136 -137 -151 -152 -165 -166 -178 -179 -202 -203 -222 -223 0
-45 -65 -66 -84 -85 -102 -103 -136 -137 -151 -152 -165 -166 -178 -179 -213 -214 -222 -223 0
-44 -64 -65 -83 -84 -101 -102 -135 -136 -150 -151 -164 -165 -190 -191 -201 -202 -211 -212 0
-45 -64 -66 -83 -84 -101 -102 -135 -136 -150 -151 -164 -165 -190 -191 -201 -202 -211 -212 0
-45 -65 -66 -83 -85 -101 -102 -135 -136 -150 -151 -164 -165 -190 -191 -201 -202 -211 -212 0
-45 -65 -66 -84 -85 -101 -103 -135 -136 -150 -151 -164 -165 -190 -191 -201 -202 -211 -212 0
-45 -65 -66 -84 -85 -102 -103 -135 -137 -150 -151 -164 -165 -190 -191 -201 -202 -211 -212 0
-45 -65 -66 -84 -85 -102 -103 -136 -137 -150 -152 -164 -165 -190 -191 -201 -202 -211 -212 0
-45 -65 -66 -84 -85 -102 -103 -136 -137 -151 -152 -164 -166 -190 -191 -201 -202 -211 -212 0
-45 -65 -66 -84 -85 -102 -103 -136 -137 -151 -152 -165 -166 -190 -192 -201 -202 -211 -212 0
-45 -65 -66 -84 -85 -102 -103 -136 -137 -151 -152 -165 -166 -191 -192 -201 -203 -211 -212 0
-45 -65 -66 -84 -85 -102 -103 -136 -137 -151 -152 -165 -166 -191 -192 -202 -203 -211 -213 0
-45 -65 -66 -84 -85 -102 -103 -136 -137 -151 -152 -165 -166 -191 -192 -202 -203 -212 -213 0
-45 -65 -66 -84 -85 -102 -103 -136 -137 -151 -152 -165 -166 -191 -192 -202 -203 -222 -223 0
-45 -65 -66 -84 -85 -102 -103 -136 -137 -151 -152 -165 -166 -191 -192 -213 -214 -222 -223 0
-45 -65 -66 -84 -85 -102 -103 -136 -137 -151 -152 -165 -166 -203 -204 -213 -214 -222 -223 0
-44 -64 -65 -83 -84 -101 -102 -135 -136 -150 -151 -178 -179 -190 -191 -201 -202 -211 -212 0
-45 -64 -66 -83 -84 -101 -102 -135 -136 -150 -151 -178 -179 -190 -191 -201 -202 -211 -212 0
-45 -65 -66 -83 -85 -101 -102 -135 -136 -150 -151 -178 -179 -190 -191 -201 -202 -211 -212 0
-45 -65 -66 -84 -85 -101 -103 -135 -136 -150 -151 -178 -179 -190 -191 -201 -202 -211 -212 0
-45 -65 -66 -84 -85 -102 -103 -135 -137 -150 -151 -178 -179 -190 -191 -201 -202 -211 -212 0
-45 -65 -66 -84 -85 -102 -103 -136 -137 -150 -152 -178 -179 -190 -191 -201 -202 -211 -212 0
-45 -65 -66 -84 -85 -102 -103 -136 -137 -151 -152 -178 -180 -190 -191 -201 -202 -211 -212 0
-45 -65 -66 -84 -85 -102 -103 -136 -137 -151 -152 -179 -180 -190 -192 -201 -202 -211 -212 0
-45 -65 -66 -84 -85 -102 -103 -136 -137 -151 -152 -179 -180 -191 -192 -201 -203 -211 -212 0
-45 -65 -66 -84 -85 -102 -103 -136 -137 -151 -152 -179 -180 -191 -192 -202 -203 -211 -213 0
-45 -65 -66 -84 -85 -102 -103 -136 -137 -151 -152 -179 -180 -191 -192 -202 -203 -212 -213 0
-45 -65 -66 -84 -85 -102 -103 -136 -137 -151 -152 -179 -180 -191 -192 -202 -203 -222 -223 0
-45 -65 -66 -84 -85 -102 -103 -136 -137 -151 -152 -179 -180 -191 -192 -213 -214 -222 -223 0
-45 -65 -66 -84 -85 -102 -103 -136 -137 -151 -152 -179 -180 -203 -204 -213 -214 -222 -223 0
-45 -65 -66 -84 -85 -102 -103 -136 -137 -151 -152 -192 -193 -203 -204 -213 -214 -222 -223 0
-44 -64 -65 -83 -84 -101 -102 -135 -136 -165 -166 -178 -179 -190 -191 -201 -202 -211 -212 0
-45 -64 -66 -83 -84 -101 -102 -135 -136 -165 -166 -178 -179 -190 -191 -201 -202 -211 -212 0
-45 -65 -66 -83 -85 -101 -102 -135 -136 -165 -166 -178 -179 -190 -191 -201 -202 -211 -212 0
-45 -65 -66 -84 -85 -101 -103 -135 -136 -165 -166 -178 -179 -190 -191 -201 -202 -211 -212 0
-45 -65 -66 -84 -85 -102 -103 -135 -137 -165 -166 -178 -179 -190 -191 -201 -202 -211 -212 0
-45 -65 -66 -84 -85 -102 -103 -136 -137 -165 -167 -178 -179 -190 -191 -201 -202 -211 -212 0
-45 -65 -66 -84 -85 -102 -103 -136 -137 -166 -167 -178 -180 -190 -191 -201 -202 -211 -212 0
-45 -65 -66 -84 -85 -102 -103 -136 -137 -166 -167 -179 -180 -190 -192 -201 -202 -211 -212 0
-45 -65 -66 -84 -85 -102 -103 -136 -137 -166 -167 -179 -180 -191 -192 -201 -203 -211 -212 0
-45 -65 -66 -84 -85 -102 -103 -136 -137 -166 -167 -179 -180 -191 -192 -202 -203 -211 -213 0
-45 -65 -66 -84 -85 -102 -103 -136 -137 -166 -167 -179 -180 -191 -192 -202 -203 -212 -213 0
-45 -65 -66 -84 -85 -102 -103 -136 -137 -166 -167 -179 -180 -191 -192 -202 -203 -222 -223 0
-45 -65 -66 -84 -85 -102 -103 -136 -137 -166 -167 -179 -180 -191 -192 -213 -214 -222 -223 0
-45 -65 -66 -84 -85 -102 -103 -136 -137 -166 -167 -179 -180 -203 -204 -213 -214 -222 -223 0
-45 -65 -66 -84 -85 -102 -103 -136 -137 -166 -167 -192 -193 -203 -204 -213 -214 -222 -223 0
-45 -65 -66 -84 -85 -102 -103 -136 -137 -180 -181 -192 -193 -203 -204 -213 -214 -222 -223 0
-44 -64 -65 -83 -84 -101 -102 -151 -152 -165 -166 -178 -179 -190 -191 -201 -202 -211 -212 0
-45 -64 -66 -83 -84 -101 -102 -151 -152 -165 -166 -178 -179 -190 -191 -201 -202 -211 -212 0
-45 -65 -66 -83 -85 -101 -102 -151 -152 -165 -166 -178 -179 -190 -191 -201 -202 -211 -212 0
-45 -65 -66 -84 -85 -101 -103 -151 -152 -165 -166 -178 -179 -190 -191 -201 -202 -211 -212 0
-45 -65 -66 -84 -85 -102 -103 -151 -153 -165 -166 -178 -179 -190 -191 -201 -202 -211 -212 0
-45 -65 -66 -84 -85 -102 -103 -152 -153 -165 -167 -178 -179 -190 -191 -201 -202 -211 -212 0
-45 -65 -66 -84 -85 -102 -103 -152 -153 -166 -167 -178 -180 -190 -191 -201 -202 -211 -212 0
-45 -65 -66 -84 -85 -102 -103 -152 -153 -166 -167 -179 -180 -190 -192 -201 -202 -211 -212 0
-45 -65 -66 -84 -85 -102 -103 -152 -153 -166 -167 -179 -180 -191 -192 -201 -203 -211 -212 0
-45 -65 -66 -84 -85 -102 -103 -152 -153 -166 -167 -179 -180 -191 -192 -202 -203 -211 -213 0
-45 -65 -66 -84 -85 -102 -103 -152 -153 -166 -167 -179 -180 -191 -192 -202 -203 -212 -213 0
-45 -65 -66 -84 -85 -102 -103 -152 -153 -166 -167 -179 -180 -191 -192 -202 -203 -222 -223 0
-45 -65 -66 -84 -85 -102 -103 -152 -153 -166 -167 -179 -180 -191 -192 -213 -214 -222 -223 0
-45 -65 -66 -84 -85 -102 -103 -152 -153 -166 -167 -179 -180 -203 -204 -213 -214 -222 -223 0
-45 -65 -66 -84 -85 -102 -103 -152 -153 -166 -167 -192 -193 -203 -204 -213 -214 -222 -223 0
-45 -65 -66 -84 -85 -102 -103 -152 -153 -180 -181 -192 -193 -203 -204 -213 -214 -222 -223 0
-45 -65 -66 -84 -85 -102 -103 -167 -168 -180 -181 -192 -193 -203 -204 -213 -214 -222 -223 0
-43 -63 -64 -82 -83 -118 -119 -134 -135 -149 -150 -163 -164 -176 -177 -188 -189 -199 -200 0
-44 -63 -65 -82 -83 -118 -119 -134 -135 -149 -150 -163 -164 -176 -177 -188 -189 -199 -200 0
-45 -63 -66 -82 -83 -118 -119 -134 -135 -149 -150 -163 -164 -176 -177 -188 -189 -199 -200 0
-44 -64 -65 -82 -84 -118 -119 -134 -135 -149 -150 -163 -164 -176 -177 -188 -189 -199 -200 0
-45 -64 -66 -82 -84 -118 -119 -134 -135 -149 -150 -163 -164 -176 -177 -188 -189 -199 -200 0
-45 -65 -66 -82 -85 -118 -119 -134 -135 -149 -150 -163 -164 -176 -177 -188 -189 -199 -200 0
-44 -64 -65 -83 -84 -118 -120 -134 -135 -149 -150 -163 -164 -176 -177 -188 -189 -199 -200 0
-45 -64 -66 -83 -84 -118 -120 -134 -135 -149 -150 -163 -164 -176 -177 -188 -189 -199 -200 0
-45 -65 -66 -83 -85 -118 -120 -134 -135 -149 -150 -163 -164 -176 -177 -188 -189 -199 -200 0
-45 -65 -66 -84 -85 -118 -121 -134 -135 -149 -150 -163 -164 -176 -177 -188 -189 -199 -200 0
-44 -64 -65 -83 -84 -119 -120 -134 -136 -149 -150 -163 -164 -176 -177 -188 -189 -199 -200 0
-45 -64 -66 -83 -84 -119 -120 -134 -136 -149 -150 -163 -164 -176 -177 -188 -189 -199 -200 0
-45 -65 -66 -83 -85 -119 -120 -134 -136 -149 -150 -163 -164 -176 -177 -188 -189 -199 -200 0
-45 -65 -66 -84 -85 -119 -121 -134 -136 -149 -150 -163 -164 -176 -177 -188 -189 -199 -200 0
-45 -65 -66 -84 -85 -120 -121 -134 -137 -149 -150 -163 -164 -176 -177 -188 -189 -199 -200 0
-44 -64 -65 -83 -84 -119 -120 -135 -136 -149 -151 -163 -164 -176 -177 -188 -189 -199 -200 0
-45 -64 -66 -83 -84 -119 -120 -135 -136 -149 -151 -163 -164 -176 -177 -188 -189 -199 -200 0
-45 -65 -66 -83 -85 -119 -120 -135 -136 -149 -151 -163 -164 -176 -177 -188 -189 -199 -200 0
-45 -65 -66 -84 -85 -119 -121 -135 -136 -149 -151 -163 -164 -176 -177 -188 -189 -199 -200 0
-45 -65 -66 -84 -85 -120 -121 -135 -137 -149 -151 -163 -164 -176 -177 -188 -189 -199 -200 0
-45 -65 -66 -84 -85 -120 -121 -136 -137 -149 -152 -163 -164 -176 -177 -188 -189 -199 -200 0
-44 -64 -65 -83 -84 -119 -120 -135 -136 -150 -151 -163 -165 -176 -177 -188 -189 -199 -200 0
-45 -64 -66 -83 -84 -119 -120 -135 -136 -150 -151 -163 -165 -176 -177 -188 -189 -199 -200 0
-45 -65 -66 -83 -85 -119 -120 -135 -136 -150 -151 -163 -165 -176 -177 -188 -189 -199 -200 0
-45 -65 -66 -84 -85 -119 -121 -135 -136 -150 -151 -163 -165 -176 -177 -188 -189 -199 -200 0
-45 -65 -66 -84 -85 -120 -121 -135 -137 -150 -151 -163 -165 -176 -177 -188 -189 -199 -200 0
-45 -65 -66 -84 -85 -120 -121 -136 -137 -150 -152 -163 -165 -176 -177 -188 -189 -199 -200 0
-45 -65 -66 -84 -85 -120 -121 -136 -137 -151 -152 -163 -166 -176 -177 -188 -189 -199 -200 0
-44 -64 -65 -83 -84 -119 -120 -135 -136 -150 -151 -164 -165 -176 -178 -188 -189 -199 -200 0
-45 -64 -66 -83 -84 -119 -120 -135 -136 -150 -151 -164 -165 -176 -178 -188 -189 -199 -200 0
-45 -65 -66 -83 -85 -119 -120 -135 -136 -150 -151 -164 -165 -176 -178 -188 -189 -199 -200 0
-45 -65 -66 -84 -85 -119 -121 -135 -136 -150 -151 -164 -165 -176 -178 -188 -189 -199 -200 0
-45 -65 -66 -84 -85 -120 -121 -135 -137 -150 -151 -164 -165 -176 -178 -188 -189 -199 -200 0
-45 -65 -66 -84 -85 -120 -121 -136 -137 -150 -152 -164 -165 -176 -178 -188 -189 -199 -200 0
-45 -65 -66 -84 -85 -120 -121 -136 -137 -151 -152 -164 -166 -176 -178 -188 -189 -199 -200 0
-45 -65 -66 -84 -85 -120 -121 -136 -137 -151 -152 -165 -166 -176 -179 -188 -189 -199 -200 0
-44 -64 -65 -83 -84 -119 -120 -135 -136 -150 -151 -164 -165 -177 -178 -188 -190 -199 -200 0
-45 -64 -66 -83 -84 -119 -120 -135 -136 -150 -151 -164 -165 -177 -178 -188 -190 -199 -200 0
-45 -65 -66 -83 -85 -119 -120 -135 -136 -150 -151 -164 -165 -177 -178 -188 -190 -199 -200 0
-45 -65 -66 -84 -85 -119 -121 -135 -136 -150 -151 -164 -165 -177 -178 -188 -190 -199 -200 0
-45 -65 -66 -84 -85 -120 -121 -135 -137 -150 -151 -164 -165 -177 -178 -188 -190 -199 -200 0
-45 -65 -66 -84 -85 -120 -121 -136 -137 -150 -152 -164 -165 -177 -178 -188 -190 -199 -200 0
-45 -65 -66 -84 -85 -120 -121 -136 -137 -151 -152 -164 -166 -177 -178 -188 -190 -199 -200 0
-45 -65 -66 -84 -85 -120 -121 -136 -137 -151 -152 -165 -166 -177 -179 -188 -190 -199 -200 0
-45 -65 -66 -84 -85 -120 -121 -136 -137 -151 -152 -165 -166 -178 -179 -188 -191 -199 -200 0
-44 -64 -65 -83 -84 -119 -120 -135 -136 -150 -151 -164 -165 -177 -178 -189 -190 -199 -201 0
-45 -64 -66 -83 -84 -119 -120 -135 -136 -150 -151 -164 -165 -177 -178 -189 -190 -199 -201 0
-45 -65 -66 -83 -85 -119 -120 -135 -136 -150 -151 -164 -165 -177 -178 -189 -190 -199 -201 0
-45 -65 -66 -84 -85 -119 -121 -135 -136 -150 -151 -164 -165 -177 -178 -189 -190 -199 -201 0
-45 -65 -66 -84 -85 -120 -121 -135 -137 -150 -151 -164 -165 -177 -178 -189 -190 -199 -201 0
-45 -65 -66 -84 -85 -120 -121 -136 -137 -150 -152 -164 -165 -177 -178 -189 -190 -199 -201 0
-45 -65 -66 -84 -85 -120 -121 -136 -137 -151 -152 -164 -166 -177 -178 -189 -190 -199 -201 0
-45 -65 -66 -84 -85 -120 -121 -136 -137 -151 -152 -165 -166 -177 -179 -189 -190 -199 -201 0
-45 -65 -66 -84 -85 -120 -121 -136 -137 -151 -152 -165 -166 -178 -179 -189 -191 -199 -201 0
-45 -65 -66 -84 -85 -120 -121 -136 -137 -151 -152 -165 -166 -178 -179 -190 -191 -199 -202 0
-44 -64 -65 -83 -84 -119 -120 -135 -136 -150 -151 -164 -165 -177 -178 -189 -190 -200 -201 0
-45 -64 -66 -83 -84 -119 -120 -135 -136 -150 -151 -164 -165 -177 -178 -189 -190 -200 -201 0
-45 -65 -66 -83 -85 -119 -120 -135 -136 -150 -151 -164 -165 -177 -178 -189 -190 -200 -201 0
-45 -65 -66 -84 -85 -119 -121 -135 -136 -150 -151 -164 -165 -177 -178 -189 -190 -200 -201 0
-45 -65 -66 -84 -85 -120 -121 -135 -137 -150 -151 -164 -165 -177 -178 -189 -190 -200 -201 0
-45 -65 -66 -84 -85 -120 -121 -136 -137 -150 -152 -164 -165 -177 -178 -189 -190 -200 -201 0
-45 -65 -66 -84 -85 -120 -121 -136 -137 -151 -152 -164 -166 -177 -178 -189 -190 -200 -201 0
-45 -65 -66 -84 -85 -120 -121 -136 -137 -151 -152 -165 -166 -177 -179 -189 -190 -200 -201 0
-45 -65 -66 -84 -85 -120 -121 -136 -137 -151 -152 -165 -166 -178 -179 -189 -191 -200 -201 0
-45 -65 -66 -84 -85 -120 -121 -136 -137 -151 -152 -165 -166 -178 -179 -190 -191 -200 -202 0
-45 -65 -66 -84 -85 -120 -121 -136 -137 -151 -152 -165 -166 -178 -179 -190 -191 -201 -202 0
-44 -64 -65 -83 -84 -119 -120 -135 -136 -150 -151 -164 -165 -177 -178 -189 -190 -211 -212 0
-45 -64 -66 -83 -84 -119 -120 -135 -136 -150 -151 -164 -165 -177 -178 -189 -190 -211 -212 0
-45 -65 -66 -83 -85 -119 -120 -135 -136 -150 -151 -164 -165 -177 -178 -189 -190 -211 -212 0
-45 -65 -66 -84 -85 -119 -121 -135 -136 -150 -151 -164 -165 -177 -178 -189 -190 -211 -212 0
-45 -65 -66 -84 -85 -120 -121 -135 -137 -150 -151 -164 -165 -177 -178 -189 -190 -211 -212 0
-45 -65 -66 -84 -85 -120 -121 -136 -137 -150 -152 -164 -165 -177 -178 -189 -190 -211 -212 0
-45 -65 -66 -84 -85 -120 -121 -136 -137 -151 -152 -164 -166 -177 -178 -189 -190 -211 -212 0
-45 -65 -66 -84 -85 -120 -121 -136 -137 -151 -152 -165 -166 -177 -179 -189 -190 -211 -212 0
-45 -65 -66 -84 -85 -120 -121 -136 -137 -151 -152 -165 -166 -178 -179 -189 -191 -211 -212 0
-45 -65 -66 -84 -85 -120 -121 -136 -137 -151 -152 -165 -166 -178 -179 -190 -191 -211 -213 0
-45 -65 -66 -84 -85 -120 -121 -136 -137 -151 -152 -165 -166 -178 -179 -190 -191 -212 -213 0
-45 -65 -66 -84 -85 -120 -121 -136 -137 -151 -152 -165 -166 -178 -179 -190 -191 -222 -223 0
-44 -64 -65 -83 -84 -119 -120 -135 -136 -150 -151 -164 -165 -177 -178 -201 -202 -211 -212 0
-45 -64 -66 -83 -84 -119 -120 -135 -136 -150 -151 -164 -165 -177 -178 -201 -202 -211 -212 0
-45 -65 -66 -83 -85 -119 -120 -135 -136 -150 -151 -164 -165 -177 -178 -201 -202 -211 -212 0
-45 -65 -66 -84 -85 -119 -121 -135 -136 -150 -151 -164 -165 -177 -178 -201 -202 -211 -212 0
-45 -65 -66 -84 -85 -120 -121 -135 -137 -150 -151 -164 -165 -177 -178 -201 -202 -211 -212 0
-45 -65 -66 -84 -85 -120 -121 -136 -137 -150 -152 -164 -165 -177 -178 -201 -202 -211 -212 0
-45 -65 -66 -84 -85 -120 -121 -136 -137 -151 -152 -164 -166 -177 -178 -201 -202 -211 -212 0
-45 -65 -66 -84 -85 -120 -121 -136 -137 -151 -152 -165 -166 -177 -179 -201 -202 -211 -212 0
-45 -65 -66 -84 -85 -120 -121 -136 -137 -151 -152 -165 -166 -178 -179 -201 -203 -211 -212 0
-45 -65 -66 -84 -85 -120 -121 -136 -137 -151 -152 -165 -166 -178 -179 -202 -203 -211 -213 0
-45 -65 -66 -84 -85 -120 -121 -136 -137 -151 -152 -165 -166 -178 -179 -202 -203 -212 -213 0
-45 -65 -66 -84 -85 -120 -121 -136 -137 -151 -152 -165 -166 -178 -179 -202 -203 -222 -223 0
-45 -65 -66 -84 -85 -120 -121 -136 -137 -151 -152 -165 -166 -178 -179 -213 -214 -222 -223 0
-44 -64 -65 -83 -84 -119 -120 -135 -136 -150 -151 -164 -165 -190 -191 -201 -202 -211 -212 0
-45 -64 -66 -83 -84 -119 -120 -135 -136 -150 -151 -164 -165 -190 -191 -201 -202 -211 -212 0
-45 -65 -66 -83 -85 -119 -120 -135 -136 -150 -151 -164 -165 -190 -191 -201 -202 -211 -212 0
-45 -65 -66 -84 -85 -119 -121 -135 -136 -150 -151 -164 -165 -190 -191 -201 -202 -211 -212 0
-45 -65 -66 -84 -85 -120 -121 -135 -137 -150 -151 -164 -165 -190 -191 -201 -202 -211 -212 0
-45 -65 -66 -84 -85 -120 -121 -136 -137 -150 -152 -164 -165 -190 -191 -201 -202 -211 -212 0
-45 -65 -66 -84 -85 -120 -121 -136 -137 -151 -152 -164 -166 -190 -191 -201 -202 -211 -212 0
-45 -65 -66 -84 -85 -120 -121 -136 -137 -151 -152 -165 -166 -190 -192 -201 -202 -211 -212 0
-45 -65 -66 -84 -85 -120 -121 -136 -137 -151 -152 -165 -166 -191 -192 -201 -203 -211 -212 0
-45 -65 -66 -84 -85 -120 -121 -136 -137 -151 -152 -165 -166 -191 -192 -202 -203 -211 -213 0
-45 -65 -66 -84 -85 -120 -121 -136 -137 -151 -152 -165 -166 -191 -192 -202 -203 -212 -213 0
-45 -65 -66 -84 -85 -120 -121 -136 -137 -151 -152 -165 -166 -191 -192 -202 -203 -222 -223 0
-45 -65 -66 -84 -85 -120 -121 -136 -137 -151 -152 -165 -166 -191 -192 -213 -214 -222 -223 0
-45 -65 -66 -84 -85 -120 -121 -136 -137 -151 -152 -165 -166 -203 -204 -213 -214 -222 -223 0
-44 -64 -65 -83 -84 -119 -120 -135 -136 -150 -151 -178 -179 -190 -191 -201 -202 -211 -212 0
-45 -64 -66 -83 -84 -119 -120 -135 -136 -150 -151 -178 -179 -190 -191 -201 -202 -211 -212 0
-45 -65 -66 -83 -85 -119 -120 -135 -136 -150 -151 -178 -179 -190 -191 -201 -202 -211 -212 0
-45 -65 -66 -84 -85 -119 -121 -135 -136 -150 -151 -178 -179 -190 -191 -201 -202 -211 -212 0
-45 -65 -66 -84 -85 -120 -121 -135 -137 -150 -151 -178 -179 -190 -191 -201 -202 -211 -212 0
-45 -65 -66 -84 -85 -120 -121 -136 -137 -150 -152 -178 -179 -190 -191 -201 -202 -211 -212 0
-45 -65 -66 -84 -85 -120 -121 -136 -137 -151 -152 -178 -180 -190 -191 -201 -202 -211 -212 0
-45 -65 -66 -84 -85 -120 -121 -136 -137 -151 -152 -179 -180 -190 -192 -201 -202 -211 -212 0
-45 -65 -66 -84 -85 -120 -121 -136 -137 -151 -152 -179 -180 -191 -192 -201 -203 -211 -212 0
-45 -65 -66 -84 -85 -120 -121 -136 -137 -151 -152 -179 -180 -191 -192 -202 -203 -211 -213 0
-45 -65 -66 -84 -85 -120 -121 -136 -137 -151 -152 -179 -180 -191 -192 -202 -203 -212 -213 0
-45 -65 -66 -84 -85 -120 -121 -136 -137 -151 -152 -179 -180 -191 -192 -202 -203 -222 -223 0
-45 -65 -66 -84 -85 -120 -121 -136 -137 -151 -152 -179 -180 -191 -192 -213 -214 -222 -223 0
-45 -65 -66 -84 -85 -120 -121 -136 -137 -151 -152 -179 -180 -203 -204 -213 -214 -222 -223 0
-45 -65 -66 -84 -85 -120 -121 -136 -137 -151 -152 -192 -193 -203 -204 -213 -214 -222 -223 0
-44 -64 -65 -83 -84 -119 -120 -135 -136 -165 -166 -178 -179 -190 -191 -201 -202 -211 -212 0
-45 -64 -66 -83 -84 -119 -120 -135 -136 -165 -166 -178 -179 -190 -191 -201 -202 -211 -212 0
-45 -65 -66 -83 -85 -119 -120 -135 -136 -165 -166 -178 -179 -190 -191 -201 -202 -211 -212 0
-45 -65 -66 -84 -85 -119 -121 -135 -136 -165 -166 -178 -179 -190 -191 -201 -202 -211 -212 0
-45 -65 -66 -84 -85 -120 -121 -135 -137 -165 -166 -178 -179 -190 -191 -201 -202 -211 -212 0
-45 -65 -66 -84 -85 -120 -121 -136 -137 -165 -167 -178 -179 -190 -191 -201 -202 -211 -212 0
-45 -65 -66 -84 -85 -120 -121 -136 -137 -166 -167 -178 -180 -190 -191 -201 -202 -211 -212 0
-45 -65 -66 -84 -85 -120 -121 -136 -137 -166 -167 -179 -180 -190 -192 -201 -202 -211 -212 0
-45 -65 -66 -84 -85 -120 -121 -136 -137 -166 -167 -179 -180 -191 -192 -201 -203 -211 -212 0
-45 -65 -66 -84 -85 -120 -121 -136 -137 -166 -167 -179 -180 -191 -192 -202 -203 -211 -213 0
-45 -65 -66 -84 -85 -120 -121 -136 -137 -166 -167 -179 -180 -191 -192 -202 -203 -212 -213 0
-45 -65 -66 -84 -85 -120 -121 -136 -137 -166 -167 -179 -180 -191 -192 -202 -203 -222 -223 0
-45 -65 -66 -84 -85 -120 -121 -136 -137 -166 -167 -179 -180 -191 -192 -213 -214 -222 -223 0
-45 -65 -66 -84 -85 -120 -121 -136 -137 -166 -167 -179 -180 -203 -204 -213 -214 -222 -223 0
-45 -65 -66 -84 -85 -120 -121 -136 -137 -166 -167 -192 -193 -203 -204 -213 -214 -222 -223 0
-45 -65 -66 -84 -85 -120 -121 -136 -137 -180 -181 -192 -193 -203 -204 -213 -214 -222 -223 0
-44 -64 -65 -83 -84 -119 -120 -151 -152 -165 -166 -178 -179 -190 -191 -201 -202 -211 -212 0
-45 -64 -66 -83 -84 -119 -120 -151 -152 -165 -166 -178 -179 -190 -191 -201 -202 -211 -212 0
-45 -65 -66 -83 -85 -119 -120 -151 -152 -165 -166 -178 -179 -190 -191 -201 -202 -211 -212 0
-45 -65 -66 -84 -85 -119 -121 -151 -152 -165 -166 -178 -179 -190 -191 -201 -202 -211 -212 0
-45 -65 -66 -84 -85 -120 -121 -151 -153 -165 -166 -178 -179 -190 -191 -201 -202 -211 -212 0
-45 -65 -66 -84 -85 -120 -121 -152 -153 -165 -167 -178 -179 -190 -191 -201 -202 -211 -212 0
-45 -65 -66 -84 -85 -120 -121 -152 -153 -166 -167 -178 -180 -190 -191 -201 -202 -211 -212 0
-45 -65 -66 -84 -85 -120 -121 -152 -153 -166 -167 -179 -180 -190 -192 -201 -202 -211 -212 0
-45 -65 -66 -84 -85 -120 -121 -152 -153 -166 -167 -179 -180 -191 -192 -201 -203 -211 -212 0
-45 -65 -66 -84 -85 -120 -121 -152 -153 -166 -167 -179 -180 -191 -192 -202 -203 -211 -213 0
-45 -65 -66 -84 -85 -120 -121 -152 -153 -166 -167 -179 -180 -191 -192 -202 -203 -212 -213 0
-45 -65 -66 -84 -85 -120 -121 -152 -153 -166 -167 -179 -180 -191 -192 -202 -203 -222 -223 0
-45 -65 -66 -84 -85 -120 -121 -152 -153 -166 -167 -179 -180 -191 -192 -213 -214 -222 -223 0
-45 -65 -66 -84 -85 -120 -121 -152 -153 -166 -167 -179 -180 -203 -204 -213 -214 -222 -223 0
-45 -65 -66 -84 -85 -120 -121 -152 -153 -166 -167 -192 -193 -203 -204 -213 -214 -222 -223 0
-45 -65 -66 -84 -85 -120 -121 -152 -153 -180 -181 -192 -193 -203 -204 -213 -214 -222 -223 0
-45 -65 -66 -84 -85 -120 -121 -167 -168 -180 -181 -192 -193 -203 -204 -213 -214 -222 -223 0
-44 -64 -65 -83 -84 -136 -137 -151 -152 -165 -166 -178 -179 -190 -191 -201 -202 -211 -212 0
-45 -64 -66 -83 -84 -136 -137 -151 -152 -165 -166 -178 -179 -190 -191 -201 -202 -211 -212 0
-45 -65 -66 -83 -85 -136 -137 -151 -152 -165 -166 -178 -179 -190 -191 -201 -202 -211 -212 0
-45 -65 -66 -84 -85 -136 -138 -151 -152 -165 -166 -178 -179 -190 -191 -201 -202 -211 -212 0
-45 -65 -66 -84 -85 -137 -138 -151 -153 -165 -166 -178 -179 -190 -191 -201 -202 -211 -212 0
-45 -65 -66 -84 -85 -137 -138 -152 -153 -165 -167 -178 -179 -190 -191 -201 -202 -211 -212 0
-45 -65 -66 -84 -85 -137 -138 -152 -153 -166 -167 -178 -180 -190 -191 -201 -202 -211 -212 0
-45 -65 -66 -84 -85 -137 -138 -152 -153 -166 -167 -179 -180 -190 -192 -201 -202 -211 -212 0
-45 -65 -66 -84 -85 -137 -138 -152 -153 -166 -167 -179 -180 -191 -192 -201 -203 -211 -212 0
-45 -65 -66 -84 -85 -137 -138 -152 -153 -166 -167 -179 -180 -191 -192 -202 -203 -211 -213 0
-45 -65 -66 -84 -85 -137 -138 -152 -153 -166 -167 -179 -180 -191 -192 -202 -203 -212 -213 0
-45 -65 -66 -84 -85 -137 -138 -152 -153 -166 -167 -179 -180 -191 -192 -202 -203 -222 -223 0
-45 -65 -66 -84 -85 -137 -138 -152 -153 -166 -167 -179 -180 -191 -192 -213 -214 -222 -223 0
-45 -65 -66 -84 -85 -137 -138 -152 -153 -166 -167 -179 -180 -203 -204 -213 -214 -222 -223 0
-45 -65 -66 -84 -85 -137 -138 -152 -153 -166 -167 -192 -193 -203 -204 -213 -214 -222 -223 0
-45 -65 -66 -84 -85 -137 -138 -152 -153 -180 -181 -192 -193 -203 -204 -213 -214 -222 -223 0
-45 -65 -66 -84 -85 -137 -138 -167 -168 -180 -181 -192 -193 -203 -204 -213 -214 -222 -223 0
-45 -65 -66 -84 -85 -153 -154 -167 -168 -180 -181 -192 -193 -203 -204 -213 -214 -222 -223 0
-43 -63 -64 -101 -102 -118 -119 -134 -135 -149 -150 -163 -164 -176 -177 -188 -189 -199 -200 0
-44 -63 -65 -101 -102 -118 -119 -134 -135 -149 -150 -163 -164 -176 -177 -188 -189 -199 -200 0
-45 -63 -66 -101 -102 -118 -119 -134 -135 -149 -150 -163 -164 -176 -177 -188 -189 -199 -200 0
-44 -64 -65 -101 -103 -118 -119 -134 -135 -149 -150 -163 -164 -176 -177 -188 -189 -199 -200 0
-45 -64 -66 -101 -103 -118 -119 -134 -135 -149 -150 -163 -164 -176 -177 -188 -189 -199 -200 0
-45 -65 -66 -101 -104 -118 -119 -134 -135 -149 -150 -163 -164 -176 -177 -188 -189 -199 -200 0
-44 -64 -65 -102 -103 -118 -120 -134 -135 -149 -150 -163 -164 -176 -177 -188 -189 -199 -200 0
-45 -64 -66 -102 -103 -118 -120 -134 -135 -149 -150 -163 -164 -176 -177 -188 -189 -199 -200 0
-45 -65 -66 -102 -104 -118 -120 -134 -135 -149 -150 -163 -164 -176 -177 -188 -189 -199 -200 0
-45 -65 -66 -103 -104 -118 -121 -134 -135 -149 -150 -163 -164 -176 -177 -188 -189 -199 -200 0
-44 -64 -65 -102 -103 -119 -120 -134 -136 -149 -150 -163 -164 -176 -177 -188 -189 -199 -200 0
-45 -64 -66 -102 -103 -119 -120 -134 -136 -149 -150 -163 -164 -176 -177 -188 -189 -199 -200 0
-45 -65 -66 -102 -104 -119 -120 -134 -136 -149 -150 -163 -164 -176 -177 -188 -189 -199 -200 0
-45 -65 -66 -103 -104 -119 -121 -134 -136 -149 -150 -163 -164 -176 -177 -188 -189 -199 -200 0
-45 -65 -66 -103 -104 -120 -121 -134 -137 -149 -150 -163 -164 -176 -177 -188 -189 -199 -200 0
-44 -64 -65 -102 -103 -119 -120 -135 -136 -149 -151 -163 -164 -176 -177 -188 -189 -199 -200 0
-45 -64 -66 -102 -103 -119 -120 -135 -136 -149 -151 -163 -164 -176 -177 -188 -189 -199 -200 0
-45 -65 -66 -102 -104 -119 -120 -135 -136 -149 -151 -163 -164 -176 -177 -188 -189 -199 -200 0
-45 -65 -66 -103 -104 -119 -121 -135 -136 -149 -151 -163 -164 -176 -177 -188 -189 -199 -200 0
-45 -65 -66 -103 -104 -120 -121 -135 -137 -149 -151 -163 -164 -176 -177 -188 -189 -199 -200 0
-45 -65 -66 -103 -104 -120 -121 -136 -137 -149 -152 -163 -164 -176 -177 -188 -189 -199 -200 0
-44 -64 -65 -102 -103 -119 -120 -135 -136 -150 -151 -163 -165 -176 -177 -188 -189 -199 -200 0
-45 -64 -66 -102 -103 -119 -120 -135 -136 -150 -151 -163 -165 -176 -177 -188 -189 -199 -200 0
-45 -65 -66 -102 -104 -119 -120 -135 -136 -150 -151 -163 -165 -176 -177 -188 -189 -199 -200 0
-45 -65 -66 -103 -104 -119 -121 -135 -136 -150 -151 -163 -165 -176 -177 -188 -189 -199 -200 0
-45 -65 -66 -103 -104 -120 -121 -135 -137 -150 -151 -163 -165 -176 -177 -188 -189 -199 -200 0
-45 -65 -66 -103 -104 -120 -121 -136 -137 -150 -152 -163 -165 -176 -177 -188 -189 -199 -200 0
-45 -65 -66 -103 -104 -120 -121 -136 -137 -151 -152 -163 -166 -176 -177 -188 -189 -199 -200 0
-44 -64 -65 -102 -103 -119 -120 -135 -136 -150 -151 -164 -165 -176 -178 -188 -189 -199 -200 0
-45 -64 -66 -102 -103 -119 -120 -135 -136 -150 -151 -164 -165 -176 -178 -188 -189 -199 -200 0
-45 -65 -66 -102 -104 -119 -120 -135 -136 -150 -151 -164 -165 -176 -178 -188 -189 -199 -200 0
-45 -65 -66 -103 -104 -119 -121 -135 -136 -150 -151 -164 -165 -176 -178 -188 -189 -199 -200 0
-45 -65 -66 -103 -104 -120 -121 -135 -137 -150 -151 -164 -165 -176 -178 -188 -189 -199 -200 0
-45 -65 -66 -103 -104 -120 -121 -136 -137 -150 -152 -164 -165 -176 -178 -188 -189 -199 -200 0
-45 -65 -66 -103 -104 -120 -121 -136 -137 -151 -152 -164 -166 -176 -178 -188 -189 -199 -200 0
-45 -65 -66 -103 -104 -120 -121 -136 -137 -151 -152 -165 -166 -176 -179 -188 -189 -199 -200 0
-44 -64 -65 -102 -103 -119 -120 -135 -136 -150 -151 -164 -165 -177 -178 -188 -190 -199 -200 0
-45 -64 -66 -102 -103 -119 -120 -135 -136 -150 -151 -164 -165 -177 -178 -188 -190 -199 -200 0
-45 -65 -66 -102 -104 -119 -120 -135 -136 -150 -151 -164 -165 -177 -178 -188 -190 -199 -200 0
-45 -65 -66 -103 -104 -119 -121 -135 -136 -150 -151 -164 -165 -177 -178 -188 -190 -199 -200 0
-45 -65 -66 -103 -104 -120 -121 -135 -137 -150 -151 -164 -165 -177 -178 -188 -190 -199 -200 0
-45 -65 -66 -103 -104 -120 -121 -136 -137 -150 -152 -164 -165 -177 -178 -188 -190 -199 -200 0
-45 -65 -66 -103 -104 -120 -121 -136 -137 -151 -152 -164 -166 -177 -178 -188 -190 -199 -200 0
-45 -65 -66 -103 -104 -120 -121 -136 -137 -151 -152 -165 -166 -177 -179 -188 -190 -199 -200 0
-45 -65 -66 -103 -104 -120 -121 -136 -137 -151 -152 -165 -166 -178 -179 -188 -191 -199 -200 0
-44 -64 -65 -102 -103 -119 -120 -135 -136 -150 -151 -164 -165 -177 -178 -189 -190 -199 -201 0
-45 -64 -66 -102 -103 -119 -120 -135 -136 -150 -151 -164 -165 -177 -178 -189 -190 -199 -201 0
-45 -65 -66 -102 -104 -119 -120 -135 -136 -150 -151 -164 -165 -177 -178 -189 -190 -199 -201 0
-45 -65 -66 -103 -104 -119 -121 -135 -136 -150 -151 -164 -165 -177 -178 -189 -190 -199 -201 0
-45 -65 -66 -103 -104 -120 -121 -135 -137 -150 -151 -164 -165 -177 -178 -189 -190 -199 -201 0
-45 -65 -66 -103 -104 -120 -121 -136 -137 -150 -152 -164 -165 -177 -178 -189 -190 -199 -201 0
-45 -65 -66 -103 -104 -120 -121 -136 -137 -151 -152 -164 -166 -177 -178 -189 -190 -199 -201 0
-45 -65 -66 -103 -104 -120 -121 -136 -137 -151 -152 -165 -166 -177 -179 -189 -190 -199 -201 0
-45 -65 -66 -103 -104 -120 -121 -136 -137 -151 -152 -165 -166 -178 -179 -189 -191 -199 -201 0
-45 -65 -66 -103 -104 -120 -121 -136 -137 -151 -152 -165 -166 -178 -179 -190 -191 -199 -202 0
-44 -64 -65 -102 -103 -119 -120 -135 -136 -150 -151 -164 -165 -177 -178 -189 -190 -200 -201 0
-45 -64 -66 -102 -103 -119 -120 -135 -136 -150 -151 -164 -165 -177 -178 -189 -190 -200 -201 0
-45 -65 -66 -102 -104 -119 -120 -135 -136 -150 -151 -164 -165 -177 -178 -189 -190 -200 -201 0
-45 -65 -66 -103 -104 -119 -121 -135 -136 -150 -151 -164 -165 -177 -178 -189 -190 -200 -201 0
-45 -65 -66 -103 -104 -120 -121 -135 -137 -150 -151 -164 -165 -177 -178 -189 -190 -200 -201 0
-45 -65 -66 -103 -104 -120 -121 -136 -137 -150 -152 -164 -165 -177 -178 -189 -190 -200 -201 0
-45 -65 -66 -103 -104 -120 -121 -136 -137 -151 -152 -164 -166 -177 -178 -189 -190 -200 -201 0
-45 -65 -66 -103 -104 -120 -121 -136 -137 -151 -152 -165 -166 -177 -179 -189 -190 -200 -201 0
-45 -65 -66 -103 -104 -120 -121 -136 -137 -151 -152 -165 -166 -178 -179 -189 -191 -200 -201 0
-45 -65 -66 -103 -104 -120 -121 -136 -137 -151 -152 -165 -166 -178 -179 -190 -191 -200 -202 0
-45 -65 -66 -103 -104 -120 -121 -136 -137 -151 -152 -165 -166 -178 -179 -190 -191 -201 -202 0
-44 -64 -65 -102 -103 -119 -120 -135 -136 -150 -151 -164 -165 -177 -178 -189 -190 -211 -212 0
-45 -64 -66 -102 -103 -119 -120 -135 -136 -150 -151 -164 -165 -177 -178 -189 -190 -211 -212 0
-45 -65 -66 -102 -104 -119 -120 -135 -136 -150 -151 -164 -165 -177 -178 -189 -190 -211 -212 0
-45 -65 -66 -103 -104 -119 -121 -135 -136 -150 -151 -164 -165 -177 -178 -189 -190 -211 -212 0
-45 -65 -66 -103 -104 -120 -121 -135 -137 -150 -151 -164 -165 -177 -178 -189 -190 -211 -212 0
-45 -65 -66 -103 -104 -120 -121 -136 -137 -150 -152 -164 -165 -177 -178 -189 -190 -211 -212 0
-45 -65 -66 -103 -104 -120 -121 -136 -137 -151 -152 -164 -166 -177 -178 -189 -190 -211 -212 0
-45 -65 -66 -103 -104 -120 -121 -136 -137 -151 -152 -165 -166 -177 -179 -189 -190 -211 -212 0
-45 -65 -66 -103 -104 -120 -121 -136 -137 -151 -152 -165 -166 -178 -179 -189 -191 -211 -212 0
-45 -65 -66 -103 -104 -120 -121 -136 -137 -151 -152 -165 -166 -178 -179 -190 -191 -211 -213 0
-45 -65 -66 -103 -104 -120 -121 -136 -137 -151 -152 -165 -166 -178 -179 -190 -191 -212 -213 0
-45 -65 -66 -103 -104 -120 -121 -136 -137 -151 -152 -165 -166 -178 -179 -190 -191 -222 -223 0
-44 -64 -65 -102 -103 -119 -120 -135 -136 -150 -151 -164 -165 -177 -178 -201 -202 -211 -212 0
-45 -64 -66 -102 -103 -119 -120 -135 -136 -150 -151 -164 -165 -177 -178 -201 -202 -211 -212 0
-45 -65 -66 -102 -104 -119 -120 -135 -136 -150 -151 -164 -165 -177 -178 -201 -202 -211 -212 0
-45 -65 -66 -103 -104 -119 -121 -135 -136 -150 -151 -164 -165 -177 -178 -201 -202 -211 -212 0
-45 -65 -66 -103 -104 -120 -121 -135 -137 -150 -151 -164 -165 -177 -178 -201 -202 -211 -212 0
-45 -65 -66 -103 -104 -120 -121 -136 -137 -150 -152 -164 -165 -177 -178 -201 -202 -211 -212 0
-45 -65 -66 -103 -104 -120 -121 -136 -137 -151 -152 -164 -166 -177 -178 -201 -202 -211 -212 0
-45 -65 -66 -103 -104 -120 -121 -136 -137 -151 -152 -165 -166 -177 -179 -201 -202 -211 -212 0
-45 -65 -66 -103 -104 -120 -121 -136 -137 -151 -152 -165 -166 -178 -179 -201 -203 -211 -212 0
-45 -65 -66 -103 -104 -120 -121 -136 -137 -151 -152 -165 -166 -178 -179 -202 -203 -211 -213 0
-45 -65 -66 -103 -104 -120 -121 -136 -137 -151 -152 -165 -166 -178 -179 -202 -203 -212 -213 0
-45 -65 -66 -103 -104 -120 -121 -136 -137 -151 -152 -165 -166 -178 -179 -202 -203 -222 -223 0
-45 -65 -66 -103 -104 -120 -121 -136 -137 -151 -152 -165 -166 -178 -179 -213 -214 -222 -223 0
-44 -64 -65 -102 -103 -119 -120 -135 -136 -150 -151 -164 -165 -190 -191 -201 -202 -211 -212 0
-45 -64 -66 -102 -103 -119 -120 -135 -136 -150 -151 -164 -165 -190 -191 -201 -202 -211 -212 0
-45 -65 -66 -102 -104 -119 -120 -135 -136 -150 -151 -164 -165 -190 -191 -201 -202 -211 -212 0
-45 -65 -66 -103 -104 -119 -121 -135 -136 -150 -151 -164 -165 -190 -191 -201 -202 -211 -212 0
-45 -65 -66 -103 -104 -120 -121 -135 -137 -150 -151 -164 -165 -190 -191 -201 -202 -211 -212 0
-45 -65 -66 -103 -104 -120 -121 -136 -137 -150 -152 -164 -165 -190 -191 -201 -202 -211 -212 0
-45 -65 -66 -103 -104 -120 -121 -136 -137 -151 -152 -164 -166 -190 -191 -201 -202 -211 -212 0
-45 -65 -66 -103 -104 -120 -121 -136 -137 -151 -152 -165 -166 -190 -192 -201 -202 -211 -212 0
-45 -65 -66 -103 -104 -120 -121 -136 -137 -151 -152 -165 -166 -191 -192 -201 -203 -211 -212 0
-45 -65 -66 -103 -104 -120 -121 -136 -137 -151 -152 -165 -166 -191 -192 -202 -203 -211 -213 0
-45 -65 -66 -103 -104 -120 -121 -136 -137 -151 -152 -165 -166 -191 -192 -202 -203 -212 -213 0
-45 -65 -66 -103 -104 -120 -121 -136 -137 -151 -152 -165 -166 -191 -192 -202 -203 -222 -223 0
-45 -65 -66 -103 -104 -120 -121 -136 -137 -151 -152 -165 -166 -191 -192 -213 -214 -222 -223 0
-45 -65 -66 -103 -104 -120 -121 -136 -137 -151 -152 -165 -166 -203 -204 -213 -214 -222 -223 0
-44 -64 -65 -102 -103 -119 -120 -135 -136 -150 -151 -178 -179 -190 -191 -201 -202 -211 -212 0
-45 -64 -66 -102 -103 -119 -120 -135 -136 -150 -151 -178 -179 -190 -191 -201 -202 -211 -212 0
-45 -65 -66 -102 -104 -119 -120 -135 -136 -150 -151 -178 -179 -190 -191 -201 -202 -211 -212 0
-45 -65 -66 -103 -104 -119 -121 -135 -136 -150 -151 -178 -179 -190 -191 -201 -202 -211 -212 0
-45 -65 -66 -103 -104 -120 -121 -135 -137 -150 -151 -178 -179 -190 -191 -201 -202 -211 -212 0
-45 -65 -66 -103 -104 -120 -121 -136 -137 -150 -152 -178 -179 -190 -191 -201 -202 -211 -212 0
-45 -65 -66 -103 -104 -120 -121 -136 -137 -151 -152 -178 -180 -190 -191 -201 -202 -211 -212 0
-45 -65 -66 -103 -104 -120 -121 -136 -137 -151 -152 -179 -180 -190 -192 -201 -202 -211 -212 0
-45 -65 -66 -103 -104 -120 -121 -136 -137 -151 -152 -179 -180 -191 -192 -201 -203 -211 -212 0
-45 -65 -66 -103 -104 -120 -121 -136 -137 -151 -152 -179 -180 -191 -192 -202 -203 -211 -213 0
-45 -65 -66 -103 -104 -120 -121 -136 -137 -151 -152 -179 -180 -191 -192 -202 -203 -212 -213 0
-45 -65 -66 -103 -104 -120 -121 -136 -137 -151 -152 -179 -180 -191 -192 -202 -203 -222 -223 0
-45 -65 -66 -103 -104 -120 -121 -136 -137 -151 -152 -179 -180 -191 -192 -213 -214 -222 -223 0
-45 -65 -66 -103 -104 -120 -121 -136 -137 -151 -152 -179 -180 -203 -204 -213 -214 -222 -223 0
-45 -65 -66 -103 -104 -120 -121 -136 -137 -151 -152 -192 -193 -203 -204 -213 -214 -222 -223 0
-44 -64 -65 -102 -103 -119 -120 -135 -136 -165 -166 -178 -179 -190 -191 -201 -202 -211 -212 0
-45 -64 -66 -102 -103 -119 -120 -135 -136 -165 -166 -178 -179 -190 -191 -201 -202 -211 -212 0
-45 -65 -66 -102 -104 -119 -120 -135 -136 -165 -166 -178 -179 -190 -191 -201 -202 -211 -212 0
-45 -65 -66 -103 -104 -119 -121 -135 -136 -165 -166 -178 -179 -190 -191 -201 -202 -211 -212 0
-45 -65 -66 -103 -104 -120 -121 -135 -137 -165 -166 -178 -179 -190 -191 -201 -202 -211 -212 0
-45 -65 -66 -103 -104 -120 -121 -136 -137 -165 -167 -178 -179 -190 -191 -201 -202 -211 -212 0
-45 -65 -66 -103 -104 -120 -121 -136 -137 -166 -167 -178 -180 -190 -191 -201 -202 -211 -212 0
-45 -65 -66 -103 -104 -120 -121 -136 -137 -166 -167 -179 -180 -190 -192 -201 -202 -211 -212 0
-45 -65 -66 -103 -104 -120 -121 -136 -137 -166 -167 -179 -180 -191 -192 -201 -203 -211 -212 0
-45 -65 -66 -103 -104 -120 -121 -136 -137 -166 -167 -179 -180 -191 -192 -202 -203 -211 -213 0
-45 -65 -66 -103 -104 -120 -121 -136 -137 -166 -167 -179 -180 -191 -192 -202 -203 -212 -213 0
-45 -65 -66 -103 -104 -120 -121 -136 -137 -166 -167 -179 -180 -191 -192 -202 -203 -222 -223 0
-45 -65 -66 -103 -104 -120 -121 -136 -137 -166 -167 -179 -180 -191 -192 -213 -214 -222 -223 0
-45 -65 -66 -103 -104 -120 -121 -136 -137 -166 -167 -179 -180 -203 -204 -213 -214 -222 -223 0
-45 -65 -66 -103 -104 -120 -121 -136 -137 -166 -167 -192 -193 -203 -204 -213 -214 -222 -223 0
-45 -65 -66 -103 -104 -120 -121 -136 -137 -180 -181 -192 -193 -203 -204 -213 -214 -222 -223 0
-44 -64 -65 -102 -103 -119 -120 -151 -152 -165 -166 -178 -179 -190 -191 -201 -202 -211 -212 0
-45 -64 -66 -102 -103 -119 -120 -151 -152 -165 -166 -178 -179 -190 -191 -201 -202 -211 -212 0
-45 -65 -66 -102 -104 -119 -120 -151 -152 -165 -166 -178 -179 -190 -191 -201 -202 -211 -212 0
-45 -65 -66 -103 -104 -119 -121 -151 -152 -165 -166 -178 -179 -190 -191 -201 -202 -211 -212 0
-45 -65 -66 -103 -104 -120 -121 -151 -153 -165 -166 -178 -179 -190 -191 -201 -202 -211 -212 0
-45 -65 -66 -103 -104 -120 -121 -152 -153 -165 -167 -178 -179 -190 -191 -201 -202 -211 -212 0
-45 -65 -66 -103 -104 -120 -121 -152 -153 -166 -167 -178 -180 -190 -191 -201 -202 -211 -212 0
-45 -65 -66 -103 -104 -120 -121 -152 -153 -166 -167 -179 -180 -190 -192 -201 -202 -211 -212 0
-45 -65 -66 -103 -104 -120 -121 -152 -153 -166 -167 -179 -180 -191 -192 -201 -203 -211 -212 0
-45 -65 -66 -103 -104 -120 -121 -152 -153 -166 -167 -179 -180 -191 -192 -202 -203 -211 -213 0
-45 -65 -66 -103 -104 -120 -121 -152 -153 -166 -167 -179 -180 -191 -192 -202 -203 -212 -213 0
-45 -65 -66 -103 -104 -120 -121 -152 -153 -166 -167 -179 -180 -191 -192 -202 -203 -222 -223 0
-45 -65 -66 -103 -104 -120 -121 -152 -153 -166 -167 -179 -180 -191 -192 -213 -214 -222 -223 0
-45 -65 -66 -103 -104 -120 -121 -152 -153 -166 -167 -179 -180 -203 -204 -213 -214 -222 -223 0
-45 -65 -66 -103 -104 -120 -121 -152 -153 -166 -167 -192 -193 -203 -204 -213 -214 -222 -223 0
-45 -65 -66 -103 -104 -120 -121 -152 -153 -180 -181 -192 -193 -203 -204 -213 -214 -222 -223 0
-45 -65 -66 -103 -104 -120 -121 -167 -168 -180 -181 -192 -193 -203 -204 -213 -214 -222 -223 0
-44 -64 -65 -102 -103 -136 -137 -151 -152 -165 -166 -178 -179 -190 -191 -201 -202 -211 -212 0
-45 -64 -66 -102 -103 -136 -137 -151 -152 -165 -166 -178 -179 -190 -191 -201 -202 -211 -212 0
-45 -65 -66 -102 -104 -136 -137 -151 -152 -165 -166 -178 -179 -190 -191 -201 -202 -211 -212 0
-45 -65 -66 -103 -104 -136 -138 -151 -152 -165 -166 -178 -179 -190 -191 -201 -202 -211 -212 0
-45 -65 -66 -103 -104 -137 -138 -151 -153 -165 -166 -178 -179 -190 -191 -201 -202 -211 -212 0
-45 -65 -66 -103 -104 -137 -138 -152 -153 -165 -167 -178 -179 -190 -191 -201 -202 -211 -212 0
-45 -65 -66 -103 -104 -137 -138 -152 -153 -166 -167 -178 -180 -190 -191 -201 -202 -211 -212 0
-45 -65 -66 -103 -104 -137 -138 -152 -153 -166 -167 -179 -180 -190 -192 -201 -202 -211 -212 0
-45 -65 -66 -103 -104 -137 -138 -152 -153 -166 -167 -179 -180 -191 -192 -201 -203 -211 -212 0
-45 -65 -66 -103 -104 -137 -138 -152 -153 -166 -167 -179 -180 -191 -192 -202 -203 -211 -213 0
-45 -65 -66 -103 -104 -137 -138 -152 -153 -166 -167 -179 -180 -191 -192 -202 -203 -212 -213 0
-45 -65 -66 -103 -104 -137 -138 -152 -153 -166 -167 -179 -180 -191 -192 -202 -203 -222 -223 0
-45 -65 -66 -103 -104 -137 -138 -152 -153 -166 -167 -179 -180 -191 -192 -213 -214 -222 -223 0
-45 -65 -66 -103 -104 -137 -138 -152 -153 -166 -167 -179 -180 -203 -204 -213 -214 -222 -223 0
-45 -65 -66 -103 -104 -137 -138 -152 -153 -166 -167 -192 -193 -203 -204 -213 -214 -222 -223 0
-45 -65 -66 -103 -104 -137 -138 -152 -153 -180 -181 -192 -193 -203 -204 -213 -214 -222 -223 0
-45 -65 -66 -103 -104 -137 -138 -167 -168 -180 -181 -192 -193 -203 -204 -213 -214 -222 -223 0
-45 -65 -66 -103 -104 -153 -154 -167 -168 -180 -181 -192 -193 -203 -204 -213 -214 -222 -223 0
-44 -64 -65 -120 -121 -136 -137 -151 -152 -165 -166 -178 -179 -190 -191 -201 -202 -211 -212 0
-45 -64 -66 -120 -121 -136 -137 -151 -152 -165 -166 -178 -179 -190 -191 -201 -202 -211 -212 0
-45 -65 -66 -120 -122 -136 -137 -151 -152 -165 -166 -178 -179 -190 -191 -201 -202 -211 -212 0
-45 -65 -66 -121 -122 -136 -138 -151 -152 -165 -166 -178 -179 -190 -191 -201 -202 -211 -212 0
-45 -65 -66 -121 -122 -137 -138 -151 -153 -165 -166 -178 -179 -190 -191 -201 -202 -211 -212 0
-45 -65 -66 -121 -122 -137 -138 -152 -153 -165 -167 -178 -179 -190 -191 -201 -202 -211 -212 0
-45 -65 -66 -121 -122 -137 -138 -152 -153 -166 -167 -178 -180 -190 -191 -201 -202 -211 -212 0
-45 -65 -66 -121 -122 -137 -138 -152 -153 -166 -167 -179 -180 -190 -192 -201 -202 -211 -212 0
-45 -65 -66 -121 -122 -137 -138 -152 -153 -166 -167 -179 -180 -191 -192 -201 -203 -211 -212 0
-45 -65 -66 -121 -122 -137 -138 -152 -153 -166 -167 -179 -180 -191 -192 -202 -203 -211 -213 0
-45 -65 -66 -121 -122 -137 -138 -152 -153 -166 -167 -179 -180 -191 -192 -202 -203 -212 -213 0
-45 -65 -66 -121 -122 -137 -138 -152 -153 -166 -167 -179 -180 -191 -192 -202 -203 -222 -223 0
-45 -65 -66 -121 -122 -137 -138 -152 -153 -166 -167 -179 -180 -191 -192 -213 -214 -222 -223 0
-45 -65 -66 -121 -122 -137 -138 -152 -153 -166 -167 -179 -180 -203 -204 -213 -214 -222 -223 0
-45 -65 -66 -121 -122 -137 -138 -152 -153 -166 -167 -192 -193 -203 -204 -213 -214 -222 -223 0
-45 -65 -66 -121 -122 -137 -138 -152 -153 -180 -181 -192 -193 -203 -204 -213 -214 -222 -223 0
-45 -65 -66 -121 -122 -137 -138 -167 -168 -180 -181 -192 -193 -203 -204 -213 -214 -222 -223 0
-45 -65 -66 -121 -122 -153 -154 -167 -168 -180 -181 -192 -193 -203 -204 -213 -214 -222 -223 0
-45 -65 -66 -138 -139 -153 -154 -167 -168 -180 -181 -192 -193 -203 -204 -213 -214 -222 -223 0
-43 -83 -84 -101 -102 -118 -119 -134 -135 -149 -150 -163 -164 -176 -177 -188 -189 -199 -200 0
-44 -83 -85 -101 -102 -118 -119 -134 -135 -149 -150 -163 -164 -176 -177 -188 -189 -199 -200 0
-45 -83 -86 -101 -102 -118 -119 -134 -135 -149 -150 -163 -164 -176 -177 -188 -189 -199 -200 0
-44 -84 -85 -101 -103 -118 -119 -134 -135 -149 -150 -163 -164 -176 -177 -188 -189 -199 -200 0
-45 -84 -86 -101 -103 -118 -119 -134 -135 -149 -150 -163 -164 -176 -177 -188 -189 -199 -200 0
-45 -85 -86 -101 -104 -118 -119 -134 -135 -149 -150 -163 -164 -176 -177 -188 -189 -199 -200 0
-44 -84 -85 -102 -103 -118 -120 -134 -135 -149 -150 -163 -164 -176 -177 -188 -189 -199 -200 0
-45 -84 -86 -102 -103 -118 -120 -134 -135 -149 -150 -163 -164 -176 -177 -188 -189 -199 -200 0
-45 -85 -86 -102 -104 -118 -120 -134 -135 -149 -150 -163 -164 -176 -177 -188 -189 -199 -200 0
-45 -85 -86 -103 -104 -118 -121 -134 -135 -149 -150 -163 -164 -176 -177 -188 -189 -199 -200 0
-44 -84 -85 -102 -103 -119 -120 -134 -136 -149 -150 -163 -164 -176 -177 -188 -189 -199 -200 0
-45 -84 -86 -102 -103 -119 -120 -134 -136 -149 -150 -163 -164 -176 -177 -188 -189 -199 -200 0
-45 -85 -86 -102 -104 -119 -120 -134 -136 -149 -150 -163 -164 -176 -177 -188 -189 -199 -200 0
-45 -85 -86 -103 -104 -119 -121 -134 -136 -149 -150 -163 -164 -176 -177 -188 -189 -199 -200 0
-45 -85 -86 -103 -104 -120 -121 -134 -137 -149 -150 -163 -164 -176 -177 -188 -189 -199 -200 0
-44 -84 -85 -102 -103 -119 -120 -135 -136 -149 -151 -163 -164 -176 -177 -188 -189 -199 -200 0
-45 -84 -86 -102 -103 -119 -120 -135 -136 -149 -151 -163 -164 -176 -177 -188 -189 -199 -200 0
-45 -85 -86 -102 -104 -119 -120 -135 -136 -149 -151 -163 -164 -176 -177 -188 -189 -199 -200 0
-45 -85 -86 -103 -104 -119 -121 -135 -136 -149 -151 -163 -164 -176 -177 -188 -189 -199 -200 0
-45 -85 -86 -103 -104 -120 -121 -135 -137 -149 -151 -163 -164 -176 -177 -188 -189 -199 -200 0
-45 -85 -86 -103 -104 -120 -121 -136 -137 -149 -152 -163 -164 -176 -177 -188 -189 -199 -200 0
-44 -84 -85 -102 -103 -119 -120 -135 -136 -150 -151 -163 -165 -176 -177 -188 -189 -199 -200 0
-45 -84 -86 -102 -103 -119 -120 -135 -136 -150 -151 -163 -165 -176 -177 -188 -189 -199 -200 0
-45 -85 -86 -102 -104 -119 -120 -135 -136 -150 -151 -163 -165 -176 -177 -188 -189 -199 -200 0
-45 -85 -86 -103 -104 -119 -121 -135 -136 -150 -151 -163 -165 -176 -177 -188 -189 -199 -200 0
-45 -85 -86 -103 -104 -120 -121 -135 -137 -150 -151 -163 -165 -176 -177 -188 -189 -199 -200 0
-45 -85 -86 -103 -104 -120 -121 -136 -137 -150 -152 -163 -165 -176 -177 -188 -189 -199 -200 0
-45 -85 -86 -103 -104 -120 -121 -136 -137 -151 -152 -163 -166 -176 -177 -188 -189 -199 -200 0
-44 -84 -85 -102 -103 -119 -120 -135 -136 -150 -151 -164 -165 -176 -178 -188 -189 -199 -200 0
-45 -84 -86 -102 -103 -119 -120 -135 -136 -150 -151 -164 -165 -176 -178 -188 -189 -199 -200 0
-45 -85 -86 -102 -104 -119 -120 -135 -136 -150 -151 -164 -165 -176 -178 -188 -189 -199 -200 0
-45 -85 -86 -103 -104 -119 -121 -135 -136 -150 -151 -164 -165 -176 -178 -188 -189 -199 -200 0
-45 -85 -86 -103 -104 -120 -121 -135 -137 -150 -151 -164 -165 -176 -178 -188 -189 -199 -200 0
-45 -85 -86 -103 -104 -120 -121 -136 -137 -150 -152 -164 -165 -176 -178 -188 -189 -199 -200 0
-45 -85 -86 -103 -104 -120 -121 -136 -137 -151 -152 -164 -166 -176 -178 -188 -189 -199 -200 0
-45 -85 -86 -103 -104 -120 -121 -136 -137 -151 -152 -165 -166 -176 -179 -188 -189 -199 -200 0
-44 -84 -85 -102 -103 -119 -120 -135 -136 -150 -151 -164 -165 -177 -178 -188 -190 -199 -200 0
-45 -84 -86 -102 -103 -119 -120 -135 -136 -150 -151 -164 -165 -177 -178 -188 -190 -199 -200 0
-45 -85 -86 -102 -104 -119 -120 -135 -136 -150 -151 -164 -165 -177 -178 -188 -190 -199 -200 0
-45 -85 -86 -103 -104 -119 -121 -135 -136 -150 -151 -164 -165 -177 -178 -188 -190 -199 -200 0
-45 -85 -86 -103 -104 -120 -121 -135 -137 -150 -151 -164 -165 -177 -178 -188 -190 -199 -200 0
-45 -85 -86 -103 -104 -120 -121 -136 -137 -150 -152 -164 -165 -177 -178 -188 -190 -199 -200 0
-45 -85 -86 -103 -104 -120 -121 -136 -137 -151 -152 -164 -166 -177 -178 -188 -190 -199 -200 0
-45 -85 -86 -103 -104 -120 -121 -136 -137 -151 -152 -165 -166 -177 -179 -188 -190 -199 -200 0
-45 -85 -86 -103 -104 -120 -121 -136 -137 -151 -152 -165 -166 -178 -179 -188 -191 -199 -200 0
-44 -84 -85 -102 -103 -119 -120 -135 -136 -150 -151 -164 -165 -177 -178 -189 -190 -199 -201 0
-45 -84 -86 -102 -103 -119 -120 -135 -136 -150 -151 -164 -165 -177 -178 -189 -190 -199 -201 0
-45 -85 -86 -102 -104 -119 -120 -135 -136 -150 -151 -164 -165 -177 -178 -189 -190 -199 -201 0
-45 -85 -86 -103 -104 -119 -121 -135 -136 -150 -151 -164 -165 -177 -178 -189 -190 -199 -201 0
-45 -85 -86 -103 -104 -120 -121 -135 -137 -150 -151 -164 -165 -177 -178 -189 -190 -199 -201 0
-45 -85 -86 -103 -104 -120 -121 -136 -137 -150 -152 -164 -165 -177 -178 -189 -190 -199 -201 0
-45 -85 -86 -103 -104 -120 -121 -136 -137 -151 -152 -164 -166 -177 -178 -189 -190 -199 -201 0
-45 -85 -86 -103 -104 -120 -121 -136 -137 -151 -152 -165 -166 -177 -179 -189 -190 -199 -201 0
-45 -85 -86 -103 -104 -120 -121 -136 -137 -151 -152 -165 -166 -178 -179 -189 -191 -199 -201 0
-45 -85 -86 -103 -104 -120 -121 -136 -137 -151 -152 -165 -166 -178 -179 -190 -191 -199 -202 0
-44 -84 -85 -102 -103 -119 -120 -135 -136 -150 -151 -164 -165 -177 -178 -189 -190 -200 -201 0
-45 -84 -86 -102 -103 -119 -120 -135 -136 -150 -151 -164 -165 -177 -178 -189 -190 -200 -201 0
-45 -85 -86 -102 -104 -119 -120 -135 -136 -150 -151 -164 -165 -177 -178 -189 -190 -200 -201 0
-45 -85 -86 -103 -104 -119 -121 -135 -136 -150 -151 -164 -165 -177 -178 -189 -190 -200 -201 0
-45 -85 -86 -103 -104 -120 -121 -135 -137 -150 -151 -164 -165 -177 -178 -189 -190 -200 -201 0
-45 -85 -86 -103 -104 -120 -121 -136 -137 -150 -152 -164 -165 -177 -178 -189 -190 -200 -201 0
-45 -85 -86 -103 -104 -120 -121 -136 -137 -151 -152 -164 -166 -177 -178 -189 -190 -200 -201 0
-45 -85 -86 -103 -104 -120 -121 -136 -137 -151 -152 -165 -166 -177 -179 -189 -190 -200 -201 0
-45 -85 -86 -103 -104 -120 -121 -136 -137 -151 -152 -165 -166 -178 -179 -189 -191 -200 -201 0
-45 -85 -86 -103 -104 -120 -121 -136 -137 -151 -152 -165 -166 -178 -179 -190 -191 -200 -202 0
-45 -85 -86 -103 -104 -120 -121 -136 -137 -151 -152 -165 -166 -178 -179 -190 -191 -201 -202 0
-44 -84 -85 -102 -103 -119 -120 -135 -136 -150 -151 -164 -165 -177 -178 -189 -190 -211 -212 0
-45 -84 -86 -102 -103 -119 -120 -135 -136 -150 -151 -164 -165 -177 -178 -189 -190 -211 -212 0
-45 -85 -86 -102 -104 -119 -120 -135 -136 -150 -151 -164 -165 -177 -178 -189 -190 -211 -212 0
-45 -85 -86 -103 -104 -119 -121 -135 -136 -150 -151 -164 -165 -177 -178 -189 -190 -211 -212 0
-45 -85 -86 -103 -104 -120 -121 -135 -137 -150 -151 -164 -165 -177 -178 -189 -190 -211 -212 0
-45 -85 -86 -103 -104 -120 -121 -136 -137 -150 -152 -164 -165 -177 -178 -189 -190 -211 -212 0
-45 -85 -86 -103 -104 -120 -121 -136 -137 -151 -152 -164 -166 -177 -178 -189 -190 -211 -212 0
-45 -85 -86 -103 -104 -120 -121 -136 -137 -151 -152 -165 -166 -177 -179 -189 -190 -211 -212 0
-45 -85 -86 -103 -104 -120 -121 -136 -137 -151 -152 -165 -166 -178 -179 -189 -191 -211 -212 0
-45 -85 -86 -103 -104 -120 -121 -136 -137 -151 -152 -165 -166 -178 -179 -190 -191 -211 -213 0
-45 -85 -86 -103 -104 -120 -121 -136 -137 -151 -152 -165 -166 -178 -179 -190 -191 -212 -213 0
-45 -85 -86 -103 -104 -120 -121 -136 -137 -151 -152 -165 -166 -178 -179 -190 -191 -222 -223 0
-44 -84 -85 -102 -103 -119 -120 -135 -136 -150 -151 -164 -165 -177 -178 -201 -202 -211 -212 0
-45 -84 -86 -102 -103 -119 -120 -135 -136 -150 -151 -164 -165 -177 -178 -201 -202 -211 -212 0
-45 -85 -86 -102 -104 -119 -120 -135 -136 -150 -151 -164 -165 -177 -178 -201 -202 -211 -212 0
-45 -85 -86 -103 -104 -119 -121 -135 -136 -150 -151 -164 -165 -177 -178 -201 -202 -211 -212 0
-45 -85 -86 -103 -104 -120 -121 -135 -137 -150 -151 -164 -165 -177 -178 -201 -202 -211 -212 0
-45 -85 -86 -103 -104 -120 -121 -136 -137 -150 -152 -164 -165 -177 -178 -201 -202 -211 -212 0
-45 -85 -86 -103 -104 -120 -121 -136 -137 -151 -152 -164 -166 -177 -178 -201 -202 -211 -212 0
-45 -85 -86 -103 -104 -120 -121 -136 -137 -151 -152 -165 -166 -177 -179 -201 -202 -211 -212 0
-45 -85 -86 -103 -104 -120 -121 -136 -137 -151 -152 -165 -166 -178 -179 -201 -203 -211 -212 0
-45 -85 -86 -103 -104 -120 -121 -136 -137 -151 -152 -165 -166 -178 -179 -202 -203 -211 -213 0
-45 -85 -86 -103 -104 -120 -121 -136 -137 -151 -152 -165 -166 -178 -179 -202 -203 -212 -213 0
-45 -85 -86 -103 -104 -120 -121 -136 -137 -151 -152 -165 -166 -178 -179 -202 -203 -222 -223 0
-45 -85 -86 -103 -104 -120 -121 -136 -137 -151 -152 -165 -166 -178 -179 -213 -214 -222 -223 0
-44 -84 -85 -102 -103 -119 -120 -135 -136 -150 -151 -164 -165 -190 -191 -201 -202 -211 -212 0
-45 -84 -86 -102 -103 -119 -120 -135 -136 -150 -151 -164 -165 -190 -191 -201 -202 -211 -212 0
-45 -85 -86 -102 -104 -119 -120 -135 -136 -150 -151 -164 -165 -190 -191 -201 -202 -211 -212 0
-45 -85 -86 -103 -104 -119 -121 -135 -136 -150 -151 -164 -165 -190 -191 -201 -202 -211 -212 0
-45 -85 -86 -103 -104 -120 -121 -135 -137 -150 -151 -164 -165 -190 -191 -201 -202 -211 -212 0
-45 -85 -86 -103 -104 -120 -121 -136 -137 -150 -152 -164 -165 -190 -191 -201 -202 -211 -212 0
-45 -85 -86 -103 -104 -120 -121 -136 -137 -151 -152 -164 -166 -190 -191 -201 -202 -211 -212 0
-45 -85 -86 -103 -104 -120 -121 -136 -137 -151 -152 -165 -166 -190 -192 -201 -202 -211 -212 0
-45 -85 -86 -103 -104 -120 -121 -136 -137 -151 -152 -165 -166 -191 -192 -201 -203 -211 -212 0
-45 -85 -86 -103 -104 -120 -121 -136 -137 -151 -152 -165 -166 -191 -192 -202 -203 -211 -213 0
-45 -85 -86 -103 -104 -120 -121 -136 -137 -151 -152 -165 -166 -191 -192 -202 -203 -212 -213 0
-45 -85 -86 -103 -104 -120 -121 -136 -137 -151 -152 -165 -166 -191 -192 -202 -203 -222 -223 0
-45 -85 -86 -103 -104 -120 -121 -136 -137 -151 -152 -165 -166 -191 -192 -213 -214 -222 -223 0
-45 -85 -86 -103 -104 -120 -121 -136 -137 -151 -152 -165 -166 -203 -204 -213 -214 -222 -223 0
-44 -84 -85 -102 -103 -119 -120 -135 -136 -150 -151 -178 -179 -190 -191 -201 -202 -211 -212 0
-45 -84 -86 -102 -103 -119 -120 -135 -136 -150 -151 -178 -179 -190 -191 -201 -202 -211 -212 0
-45 -85 -86 -102 -104 -119 -120 -135 -136 -150 -151 -178 -179 -190 -191 -201 -202 -211 -212 0
-45 -85 -86 -103 -104 -119 -121 -135 -136 -150 -151 -178 -179 -190 -191 -201 -202 -211 -212 0
-45 -85 -86 -103 -104 -120 -121 -135 -137 -150 -151 -178 -179 -190 -191 -201 -202 -211 -212 0
-45 -85 -86 -103 -104 -120 -121 -136 -137 -150 -152 -178 -179 -190 -191 -201 -202 -211 -212 0
-45 -85 -86 -103 -104 -120 -121 -136 -137 -151 -152 -178 -180 -190 -191 -201 -202 -211 -212 0
-45 -85 -86 -103 -104 -120 -121 -136 -137 -151 -152 -179 -180 -190 -192 -201 -202 -211 -212 0
-45 -85 -86 -103 -104 -120 -121 -136 -137 -151 -152 -179 -180 -191 -192 -201 -203 -211 -212 0
-45 -85 -86 -103 -104 -120 -121 -136 -137 -151 -152 -179 -180 -191 -192 -202 -203 -211 -213 0
-45 -85 -86 -103 -104 -120 -121 -136 -137 -151 -152 -179 -180 -191 -192 -202 -203 -212 -213 0
-45 -85 -86 -103 -104 -120 -121 -136 -137 -151 -152 -179 -180 -191 -192 -202 -203 -222 -223 0
-45 -85 -86 -103 -104 -120 -121 -136 -137 -151 -152 -179 -180 -191 -192 -213 -214 -222 -223 0
-45 -85 -86 -103 -104 -120 -121 -136 -137 -151 -152 -179 -180 -203 -204 -213 -214 -222 -223 0
-45 -85 -86 -103 -104 -120 -121 -136 -137 -151 -152 -192 -193 -203 -204 -213 -214 -222 -223 0
-44 -84 -85 -102 -103 -119 -120 -135 -136 -165 -166 -178 -179 -190 -191 -201 -202 -211 -212 0
-45 -84 -86 -102 -103 -119 -120 -135 -136 -165 -166 -178 -179 -190 -191 -201 -202 -211 -212 0
-45 -85 -86 -102 -104 -119 -120 -135 -136 -165 -166 -178 -179 -190 -191 -201 -202 -211 -212 0
-45 -85 -86 -103 -104 -119 -121 -135 -136 -165 -166 -178 -179 -190 -191 -201 -202 -211 -212 0
-45 -85 -86 -103 -104 -120 -121 -135 -137 -165 -166 -178 -179 -190 -191 -201 -202 -211 -212 0
-45 -85 -86 -103 -104 -120 -121 -136 -137 -165 -167 -178 -179 -190 -191 -201 -202 -211 -212 0
-45 -85 -86 -103 -104 -120 -121 -136 -137 -166 -167 -178 -180 -190 -191 -201 -202 -211 -212 0
-45 -85 -86 -103 -104 -120 -121 -136 -137 -166 -167 -179 -180 -190 -192 -201 -202 -211 -212 0
-45 -85 -86 -103 -104 -120 -121 -136 -137 -166 -167 -179 -180 -191 -192 -201 -203 -211 -212 0
-45 -85 -86 -103 -104 -120 -121 -136 -137 -166 -167 -179 -180 -191 -192 -202 -203 -211 -213 0
-45 -85 -86 -103 -104 -120 -121 -136 -137 -166 -167 -179 -180 -191 -192 -202 -203 -212 -213 0
-45 -85 -86 -103 -104 -120 -121 -136 -137 -166 -167 -179 -180 -191 -192 -202 -203 -222 -223 0
-45 -85 -86 -103 -104 -120 -121 -136 -137 -166 -167 -179 -180 -191 -192 -213 -214 -222 -223 0
-45 -85 -86 -103 -104 -120 -121 -136 -137 -166 -167 -179 -180 -203 -204 -213 -214 -222 -223 0
-45 -85 -86 -103 -104 -120 -121 -136 -137 -166 -167 -192 -193 -203 -204 -213 -214 -222 -223 0
-45 -85 -86 -103 -104 -120 -121 -136 -137 -180 -181 -192 -193 -203 -204 -213 -214 -222 -223 0
-44 -84 -85 -102 -103 -119 -120 -151 -152 -165 -166 -178 -179 -190 -191 -201 -202 -211 -212 0
-45 -84 -86 -102 -103 -119 -120 -151 -152 -165 -166 -178 -179 -190 -191 -201 -202 -211 -212 0
-45 -85 -86 -102 -104 -119 -120 -151 -152 -165 -166 -178 -179 -190 -191 -201 -202 -211 -212 0
-45 -85 -86 -103 -104 -119 -121 -151 -152 -165 -166 -178 -179 -190 -191 -201 -202 -211 -212 0
-45 -85 -86 -103 -104 -120 -121 -151 -153 -165 -166 -178 -179 -190 -191 -201 -202 -211 -212 0
-45 -85 -86 -103 -104 -120 -121 -152 -153 -165 -167 -178 -179 -190 -191 -201 -202 -211 -212 0
-45 -85 -86 -103 -104 -120 -121 -152 -153 -166 -167 -178 -180 -190 -191 -201 -202 -211 -212 0
-45 -85 -86 -103 -104 -120 -121 -152 -153 -166 -167 -179 -180 -190 -192 -201 -202 -211 -212 0
-45 -85 -86 -103 -104 -120 -121 -152 -153 -166 -167 -179 -180 -191 -192 -201 -203 -211 -212 0
-45 -85 -86 -103 -104 -120 -121 -152 -153 -166 -167 -179 -180 -191 -192 -202 -203 -211 -213 0
-45 -85 -86 -103 -104 -120 -121 -152 -153 -166 -167 -179 -180 -191 -192 -202 -203 -212 -213 0
-45 -85 -86 -103 -104 -120 -121 -152 -153 -166 -167 -179 -180 -191 -192 -202 -203 -222 -223 0
-45 -85 -86 -103 -104 -120 -121 -152 -153 -166 -167 -179 -180 -191 -192 -213 -214 -222 -223 0
-45 -85 -86 -103 -104 -120 -121 -152 -153 -166 -167 -179 -180 -203 -204 -213 -214 -222 -223 0
-45 -85 -86 -103 -104 -120 -121 -152 -153 -166 -167 -192 -193 -203 -204 -213 -214 -222 -223 0
-45 -85 -86 -103 -104 -120 -121 -152 -153 -180 -181 -192 -193 -203 -204 -213 -214 -222 -223 0
-45 -85 -86 -103 -104 -120 -121 -167 -168 -180 -181 -192 -193 -203 -204 -213 -214 -222 -223 0
-44 -84 -85 -102 -103 -136 -137 -151 -152 -165 -166 -178 -179 -190 -191 -201 -202 -211 -212 0
-45 -84 -86 -102 -103 -136 -137 -151 -152 -165 -166 -178 -179 -190 -191 -201 -202 -211 -212 0
-45 -85 -86 -102 -104 -136 -137 -151 -152 -165 -166 -178 -179 -190 -191 -201 -202 -211 -212 0
-45 -85 -86 -103 -104 -136 -138 -151 -152 -165 -166 -178 -179 -190 -191 -201 -202 -211 -212 0
-45 -85 -86 -103 -104 -137 -138 -151 -153 -165 -166 -178 -179 -190 -191 -201 -202 -211 -212 0
-45 -85 -86 -103 -104 -137 -138 -152 -153 -165 -167 -178 -179 -190 -191 -201 -202 -211 -212 0
-45 -85 -86 -103 -104 -137 -138 -152 -153 -166 -167 -178 -180 -190 -191 -201 -202 -211 -212 0
-45 -85 -86 -103 -104 -137 -138 -152 -153 -166 -167 -179 -180 -190 -192 -201 -202 -211 -212 0
-45 -85 -86 -103 -104 -137 -138 -152 -153 -166 -167 -179 -180 -191 -192 -201 -203 -211 -212 0
-45 -85 -86 -103 -104 -137 -138 -152 -153 -166 -167 -179 -180 -191 -192 -202 -203 -211 -213 0
-45 -85 -86 -103 -104 -137 -138 -152 -153 -166 -167 -179 -180 -191 -192 -202 -203 -212 -213 0
-45 -85 -86 -103 -104 -137 -138 -152 -153 -166 -167 -179 -180 -191 -192 -202 -203 -222 -223 0
-45 -85 -86 -103 -104 -137 -138 -152 -153 -166 -167 -179 -180 -191 -192 -213 -214 -222 -223 0
-45 -85 -86 -103 -104 -137 -138 -152 -153 -166 -167 -179 -180 -203 -204 -213 -214 -222 -223 0
-45 -85 -86 -103 -104 -137 -138 -152 -153 -166 -167 -192 -193 -203 -204 -213 -214 -222 -223 0
-45 -85 -86 -103 -104 -137 -138 -152 -153 -180 -181 -192 -193 -203 -204 -213 -214 -222 -223 0
-45 -85 -86 -103 -104 -137 -138 -167 -168 -180 -181 -192 -193 -203 -204 -213 -214 -222 -223 0
-45 -85 -86 -103 -104 -153 -154 -167 -168 -180 -181 -192 -193 -203 -204 -213 -214 -222 -223 0
-44 -84 -85 -120 -121 -136 -137 -151 -152 -165 -166 -178 -179 -190 -191 -201 -202 -211 -212 0
-45 -84 -86 -120 -121 -136 -137 -151 -152 -165 -166 -178 -179 -190 -191 -201 -202 -211 -212 0
-45 -85 -86 -120 -122 -136 -137 -151 -152 -165 -166 -178 -179 -190 -191 -201 -202 -211 -212 0
-45 -85 -86 -121 -122 -136 -138 -151 -152 -165 -166 -178 -179 -190 -191 -201 -202 -211 -212 0
-45 -85 -86 -121 -122 -137 -138 -151 -153 -165 -166 -178 -179 -190 -191 -201 -202 -211 -212 0
-45 -85 -86 -121 -122 -137 -138 -152 -153 -165 -167 -178 -179 -190 -191 -201 -202 -211 -212 0
-45 -85 -86 -121 -122 -137 -138 -152 -153 -166 -167 -178 -180 -190 -191 -201 -202 -211 -212 0
-45 -85 -86 -121 -122 -137 -138 -152 -153 -166 -167 -179 -180 -190 -192 -201 -202 -211 -212 0
-45 -85 -86 -121 -122 -137 -138 -152 -153 -166 -167 -179 -180 -191 -192 -201 -203 -211 -212 0
-45 -85 -86 -121 -122 -137 -138 -152 -153 -166 -167 -179 -180 -191 -192 -202 -203 -211 -213 0
-45 -85 -86 -121 -122 -137 -138 -152 -153 -166 -167 -179 -180 -191 -192 -202 -203 -212 -213 0
-45 -85 -86 -121 -122 -137 -138 -152 -153 -166 -167 -179 -180 -191 -192 -202 -203 -222 -223 0
-45 -85 -86 -121 -122 -137 -138 -152 -153 -166 -167 -179 -180 -191 -192 -213 -214 -222 -223 0
-45 -85 -86 -121 -122 -137 -138 -152 -153 -166 -167 -179 -180 -203 -204 -213 -214 -222 -223 0
-45 -85 -86 -121 -122 -137 -138 -152 -153 -166 -167 -192 -193 -203 -204 -213 -214 -222 -223 0
-45 -85 -86 -121 -122 -137 -138 -152 -153 -180 -181 -192 -193 -203 -204 -213 -214 -222 -223 0
-45 -85 -86 -121 -122 -137 -138 -167 -168 -180 -181 -192 -193 -203 -204 -213 -214 -222 -223 0
-45 -85 -86 -121 -122 -153 -154 -167 -168 -180 -181 -192 -193 -203 -204 -213 -214 -222 -223 0
-45 -85 -86 -138 -139 -153 -154 -167 -168 -180 -181 -192 -193 -203 -204 -213 -214 -222 -223 0
-44 -103 -104 -120 -121 -136 -137 -151 -152 -165 -166 -178 -179 -190 -191 -201 -202 -211 -212 0
-45 -103 -105 -120 -121 -136 -137 -151 -152 -165 -166 -178 -179 -190 -191 -201 -202 -211 -212 0
-45 -104 -105 -120 -122 -136 -137 -151 -152 -165 -166 -178 -179 -190 -191 -201 -202 -211 -212 0
-45 -104 -105 -121 -122 -136 -138 -151 -152 -165 -166 -178 -179 -190 -191 -201 -202 -211 -212 0
-45 -104 -105 -121 -122 -137 -138 -151 -153 -165 -166 -178 -179 -190 -191 -201 -202 -211 -212 0
-45 -104 -105 -121 -122 -137 -138 -152 -153 -165 -167 -178 -179 -190 -191 -201 -202 -211 -212 0
-45 -104 -105 -121 -122 -137 -138 -152 -153 -166 -167 -178 -180 -190 -191 -201 -202 -211 -212 0
-45 -104 -105 -121 -122 -137 -138 -152 -153 -166 -167 -179 -180 -190 -192 -201 -202 -211 -212 0
-45 -104 -105 -121 -122 -137 -138 -152 -153 -166 -167 -179 -180 -191 -192 -201 -203 -211 -212 0
-45 -104 -105 -121 -122 -137 -138 -152 -153 -166 -167 -179 -180 -191 -192 -202 -203 -211 -213 0
-45 -104 -105 -121 -122 -137 -138 -152 -153 -166 -167 -179 -180 -191 -192 -202 -203 -212 -213 0
-45 -104 -105 -121 -122 -137 -138 -152 -153 -166 -167 -179 -180 -191 -192 -202 -203 -222 -223 0
-45 -104 -105 -121 -122 -137 -138 -152 -153 -166 -167 -179 -180 -191 -192 -213 -214 -222 -223 0
-45 -104 -105 -121 -122 -137 -138 -152 -153 -166 -167 -179 -180 -203 -204 -213 -214 -222 -223 0
-45 -104 -105 -121 -122 -137 -138 -152 -153 -166 -167 -192 -193 -203 -204 -213 -214 -222 -223 0
-45 -104 -105 -121 -122 -137 -138 -152 -153 -180 -181 -192 -193 -203 -204 -213 -214 -222 -223 0
-45 -104 -105 -121 -122 -137 -138 -167 -168 -180 -181 -192 -193 -203 -204 -213 -214 -222 -223 0
-45 -104 -105 -121 -122 -153 -154 -167 -168 -180 -181 -192 -193 -203 -204 -213 -214 -222 -223 0
-45 -104 -105 -138 -139 -153 -154 -167 -168 -180 -181 -192 -193 -203 -204 -213 -214 -222 -223 0
-45 -122 -123 -138 -139 -153 -154 -167 -168 -180 -181 -192 -193 -203 -204 -213 -214 -222 -223 0
-64 -83 -84 -101 -102 -118 -119 -134 -135 -149 -150 -163 -164 -176 -177 -188 -189 -199 -200 0
-65 -83 -85 -101 -102 -118 -119 -134 -135 -149 -150 -163 -164 -176 -177 -188 -189 -199 -200 0
-66 -83 -86 -101 -102 -118 -119 -134 -135 -149 -150 -163 -164 -176 -177 -188 -189 -199 -200 0
-65 -84 -85 -101 -103 -118 -119 -134 -135 -149 -150 -163 -164 -176 -177 -188 -189 -199 -200 0
-66 -84 -86 -101 -103 -118 -119 -134 -135 -149 -150 -163 -164 -176 -177 -188 -189 -199 -200 0
-66 -85 -86 -101 -104 -118 -119 -134 -135 -149 -150 -163 -164 -176 -177 -188 -189 -199 -200 0
-65 -84 -85 -102 -103 -118 -120 -134 -135 -149 -150 -163 -164 -176 -177 -188 -189 -199 -200 0
-66 -84 -86 -102 -103 -118 -120 -134 -135 -149 -150 -163 -164 -176 -177 -188 -189 -199 -200 0
-66 -85 -86 -102 -104 -118 -120 -134 -135 -149 -150 -163 -164 -176 -177 -188 -189 -199 -200 0
-66 -85 -86 -103 -104 -118 -121 -134 -135 -149 -150 -163 -164 -176 -177 -188 -189 -199 -200 0
-65 -84 -85 -102 -103 -119 -120 -134 -136 -149 -150 -163 -164 -176 -177 -188 -189 -199 -200 0
-66 -84 -86 -102 -103 -119 -120 -134 -136 -149 -150 -163 -164 -176 -177 -188 -189 -199 -200 0
-66 -85 -86 -102 -104 -119 -120 -134 -136 -149 -150 -163 -164 -176 -177 -188 -189 -199 -200 0
-66 -85 -86 -103 -104 -119 -121 -134 -136 -149 -150 -163 -164 -176 -177 -188 -189 -199 -200 0
-66 -85 -86 -103 -104 -120 -121 -134 -137 -149 -150 -163 -164 -176 -177 -188 -189 -199 -200 0
-65 -84 -85 -102 -103 -119 -120 -135 -136 -149 -151 -163 -164 -176 -177 -188 -189 -199 -200 0
-66 -84 -86 -102 -103 -119 -120 -135 -136 -149 -151 -163 -164 -176 -177 -188 -189 -199 -200 0
-66 -85 -86 -102 -104 -119 -120 -135 -136 -149 -151 -163 -164 -176 -177 -188 -189 -199 -200 0
-66 -85 -86 -103 -104 -119 -121 -135 -136 -149 -151 -163 -164 -176 -177 -188 -189 -199 -200 0
-66 -85 -86 -103 -104 -120 -121 -135 -137 -149 -151 -163 -164 -176 -177 -188 -189 -199 -200 0
-66 -85 -86 -103 -104 -120 -121 -136 -137 -149 -152 -163 -164 -176 -177 -188 -189 -199 -200 0
-65 -84 -85 -102 -103 -119 -120 -135 -136 -150 -151 -163 -165 -176 -177 -188 -189 -199 -200 0
-66 -84 -86 -102 -103 -119 -120 -135 -136 -150 -151 -163 -165 -176 -177 -188 -189 -199 -200 0
-66 -85 -86 -102 -104 -119 -120 -135 -136 -150 -151 -163 -165 -176 -177 -188 -189 -199 -200 0
-66 -85 -86 -103 -104 -119 -121 -135 -136 -150 -151 -163 -165 -176 -177 -188 -189 -199 -200 0
-66 -85 -86 -103 -104 -120 -121 -135 -137 -150 -151 -163 -165 -176 -177 -188 -189 -199 -200 0
-66 -85 -86 -103 -104 -120 -121 -136 -137 -150 -152 -163 -165 -176 -177 -188 -189 -199 -200 0
-66 -85 -86 -103 -104 -120 -121 -136 -137 -151 -152 -163 -166 -176 -177 -188 -189 -199 -200 0
-65 -84 -85 -102 -103 -119 -120 -135 -136 -150 -151 -164 -165 -176 -178 -188 -189 -199 -200 0
-66 -84 -86 -102 -103 -119 -120 -135 -136 -150 -151 -164 -165 -176 -178 -188 -189 -199 -200 0
-66 -85 -86 -102 -104 -119 -120 -135 -136 -150 -151 -164 -165 -176 -178 -188 -189 -199 -200 0
-66 -85 -86 -103 -104 -119 -121 -135 -136 -150 -151 -164 -165 -176 -178 -188 -189 -199 -200 0
-66 -85 -86 -103 -104 -120 -121 -135 -137 -150 -151 -164 -165 -176 -178 -188 -189 -199 -200 0
-66 -85 -86 -103 -104 -120 -121 -136 -137 -150 -152 -164 -165 -176 -178 -188 -189 -199 -200 0
-66 -85 -86 -103 -104 -120 -121 -136 -137 -151 -152 -164 -166 -176 -178 -188 -189 -199 -200 0
-66 -85 -86 -103 -104 -120 -121 -136 -137 -151 -152 -165 -166 -176 -179 -188 -189 -199 -200 0
-65 -84 -85 -102 -103 -119 -120 -135 -136 -150 -151 -164 -165 -177 -178 -188 -190 -199 -200 0
-66 -84 -86 -102 -103 -119 -120 -135 -136 -150 -151 -164 -165 -177 -178 -188 -190 -199 -200 0
-66 -85 -86 -102 -104 -119 -120 -135 -136 -150 -151 -164 -165 -177 -178 -188 -190 -199 -200 0
-66 -85 -86 -103 -104 -119 -121 -135 -136 -150 -151 -164 -165 -177 -178 -188 -190 -199 -200 0
-66 -85 -86 -103 -104 -120 -121 -135 -137 -150 -151 -164 -165 -177 -178 -188 -190 -199 -200 0
-66 -85 -86 -103 -104 -120 -121 -136 -137 -150 -152 -164 -165 -177 -178 -188 -190 -199 -200 0
-66 -85 -86 -103 -104 -120 -121 -136 -137 -151 -152 -164 -166 -177 -178 -188 -190 -199 -200 0
-66 -85 -86 -103 -104 -120 -121 -136 -137 -151 -152 -165 -166 -177 -179 -188 -190 -199 -200 0
-66 -85 -86 -103 -104 -120 -121 -136 -137 -151 -152 -165 -166 -178 -179 -188 -191 -199 -200 0
-65 -84 -85 -102 -103 -119 -120 -135 -136 -150 -151 -164 -165 -177 -178 -189 -190 -199 -201 0
-66 -84 -86 -102 -103 -119 -120 -135 -136 -150 -151 -164 -165 -177 -178 -189 -190 -199 -201 0
-66 -85 -86 -102 -104 -119 -120 -135 -136 -150 -151 -164 -165 -177 -178 -189 -190 -199 -201 0
-66 -85 -86 -103 -104 -119 -121 -135 -136 -150 -151 -164 -165 -177 -178 -189 -190 -199 -201 0
-66 -85 -86 -103 -104 -120 -121 -135 -137 -150 -151 -164 -165 -177 -178 -189 -190 -199 -201 0
-66 -85 -86 -103 -104 -120 -121 -136 -137 -150 -152 -164 -165 -177 -178 -189 -190 -199 -201 0
-66 -85 -86 -103 -104 -120 -121 -136 -137 -151 -152 -164 -166 -177 -178 -189 -190 -199 -201 0
-66 -85 -86 -103 -104 -120 -121 -136 -137 -151 -152 -165 -166 -177 -179 -189 -190 -199 -201 0
-66 -85 -86 -103 -104 -120 -121 -136 -137 -151 -152 -165 -166 -178 -179 -189 -191 -199 -201 0
-66 -85 -86 -103 -104 -120 -121 -136 -137 -151 -152 -165 -166 -178 -179 -190 -191 -199 -202 0
-65 -84 -85 -102 -103 -119 -120 -135 -136 -150 -151 -164 -165 -177 -178 -189 -190 -200 -201 0
-66 -84 -86 -102 -103 -119 -120 -135 -136 -150 -151 -164 -165 -177 -178 -189 -190 -200 -201 0
-66 -85 -86 -102 -104 -119 -120 -135 -136 -150 -151 -164 -165 -177 -178 -189 -190 -200 -201 0
-66 -85 -86 -103 -104 -119 -121 -135 -136 -150 -151 -164 -165 -177 -178 -189 -190 -200 -201 0
-66 -85 -86 -103 -104 -120 -121 -135 -137 -150 -151 -164 -165 -177 -178 -189 -190 -200 -201 0
-66 -85 -86 -103 -104 -120 -121 -136 -137 -150 -152 -164 -165 -177 -178 -189 -190 -200 -201 0
-66 -85 -86 -103 -104 -120 -121 -136 -137 -151 -152 -164 -166 -177 -178 -189 -190 -200 -201 0
-66 -85 -86 -103 -104 -120 -121 -136 -137 -151 -152 -165 -166 -177 -179 -189 -190 -200 -201 0
-66 -85 -86 -103 -104 -120 -121 -136 -137 -151 -152 -165 -166 -178 -179 -189 -191 -200 -201 0
-66 -85 -86 -103 -104 -120 -121 -136 -137 -151 -152 -165 -166 -178 -179 -190 -191 -200 -202 0
-66 -85 -86 -103 -104 -120 -121 -136 -137 -151 -152 -165 -166 -178 -179 -190 -191 -201 -202 0
-65 -84 -85 -102 -103 -119 -120 -135 -136 -150 -151 -164 -165 -177 -178 -189 -190 -211 -212 0
-66 -84 -86 -102 -103 -119 -120 -135 -136 -150 -151 -164 -165 -177 -178 -189 -190 -211 -212 0
-66 -85 -86 -102 -104 -119 -120 -135 -136 -150 -151 -164 -165 -177 -178 -189 -190 -211 -212 0
-66 -85 -86 -103 -104 -119 -121 -135 -136 -150 -151 -164 -165 -177 -178 -189 -190 -211 -212 0
-66 -85 -86 -103 -104 -120 -121 -135 -137 -150 -151 -164 -165 -177 -178 -189 -190 -211 -212 0
-66 -85 -86 -103 -104 -120 -121 -136 -137 -150 -152 -164 -165 -177 -178 -189 -190 -211 -212 0
-66 -85 -86 -103 -104 -120 -121 -136 -137 -151 -152 -164 -166 -177 -178 -189 -190 -211 -212 0
-66 -85 -86 -103 -104 -120 -121 -136 -137 -151 -152 -165 -166 -177 -179 -189 -190 -211 -212 0
-66 -85 -86 -103 -104 -120 -121 -136 -137 -151 -152 -165 -166 -178 -179 -189 -191 -211 -212 0
-66 -85 -86 -103 -104 -120 -121 -136 -137 -151 -152 -165 -166 -178 -179 -190 -191 -211 -213 0
-66 -85 -86 -103 -104 -120 -121 -136 -137 -151 -152 -165 -166 -178 -179 -190 -191 -212 -213 0
-66 -85 -86 -103 -104 -120 -121 -136 -137 -151 -152 -165 -166 -178 -179 -190 -191 -222 -223 0
-65 -84 -85 -102 -103 -119 -120 -135 -136 -150 -151 -164 -165 -177 -178 -201 -202 -211 -212 0
-66 -84 -86 -102 -103 -119 -120 -135 -136 -150 -151 -164 -165 -177 -178 -201 -202 -211 -212 0
-66 -85 -86 -102 -104 -119 -120 -135 -136 -150 -151 -164 -165 -177 -178 -201 -202 -211 -212 0
-66 -85 -86 -103 -104 -119 -121 -135 -136 -150 -151 -164 -165 -177 -178 -201 -202 -211 -212 0
-66 -85 -86 -103 -104 -120 -121 -135 -137 -150 -151 -164 -165 -177 -178 -201 -202 -211 -212 0
-66 -85 -86 -103 -104 -120 -121 -136 -137 -150 -152 -164 -165 -177 -178 -201 -202 -211 -212 0
-66 -85 -86 -103 -104 -120 -121 -136 -137 -151 -152 -164 -166 -177 -178 -201 -202 -211 -212 0
-66 -85 -86 -103 -104 -120 -121 -136 -137 -151 -152 -165 -166 -177 -179 -201 -202 -211 -212 0
-66 -85 -86 -103 -104 -120 -121 -136 -137 -151 -152 -165 -166 -178 -179 -201 -203 -211 -212 0
-66 -85 -86 -103 -104 -120 -121 -136 -137 -151 -152 -165 -166 -178 -179 -202 -203 -211 -213 0
-66 -85 -86 -103 -104 -120 -121 -136 -137 -151 -152 -165 -166 -178 -179 -202 -203 -212 -213 0
-66 -85 -86 -103 -104 -120 -121 -136 -137 -151 -152 -165 -166 -178 -179 -202 -203 -222 -223 0
-66 -85 -86 -103 -104 -120 -121 -136 -137 -151 -152 -165 -166 -178 -179 -213 -214 -222 -223 0
-65 -84 -85 -102 -103 -119 -120 -135 -136 -150 -151 -164 -165 -190 -191 -201 -202 -211 -212 0
-66 -84 -86 -102 -103 -119 -120 -135 -136 -150 -151 -164 -165 -190 -191 -201 -202 -211 -212 0
-66 -85 -86 -102 -104 -119 -120 -135 -136 -150 -151 -164 -165 -190 -191 -201 -202 -211 -212 0
-66 -85 -86 -103 -104 -119 -121 -135 -136 -150 -151 -164 -165 -190 -191 -201 -202 -211 -212 0
-66 -85 -86 -103 -104 -120 -121 -135 -137 -150 -151 -164 -165 -190 -191 -201 -202 -211 -212 0
-66 -85 -86 -103 -104 -120 -121 -136 -137 -150 -152 -164 -165 -190 -191 -201 -202 -211 -212 0
-66 -85 -86 -103 -104 -120 -121 -136 -137 -151 -152 -164 -166 -190 -191 -201 -202 -211 -212 0
-66 -85 -86 -103 -104 -120 -121 -136 -137 -151 -152 -165 -166 -190 -192 -201 -202 -211 -212 0
-66 -85 -86 -103 -104 -120 -121 -136 -137 -151 -152 -165 -166 -191 -192 -201 -203 -211 -212 0
-66 -85 -86 -103 -104 -120 -121 -136 -137 -151 -152 -165 -166 -191 -192 -202 -203 -211 -213 0
-66 -85 -86 -103 -104 -120 -121 -136 -137 -151 -152 -165 -166 -191 -192 -202 -203 -212 -213 0
-66 -85 -86 -103 -104 -120 -121 -136 -137 -151 -152 -165 -166 -191 -192 -202 -203 -222 -223 0
-66 -85 -86 -103 -104 -120 -121 -136 -137 -151 -152 -165 -166 -191 -192 -213 -214 -222 -223 0
-66 -85 -86 -103 -104 -120 -121 -136 -137 -151 -152 -165 -166 -203 -204 -213 -214 -222 -223 0
-65 -84 -85 -102 -103 -119 -120 -135 -136 -150 -151 -178 -179 -190 -191 -201 -202 -211 -212 0
-66 -84 -86 -102 -103 -119 -120 -135 -136 -150 -151 -178 -179 -190 -191 -201 -202 -211 -212 0
-66 -85 -86 -102 -104 -119 -120 -135 -136 -150 -151 -178 -179 -190 -191 -201 -202 -211 -212 0
-66 -85 -86 -103 -104 -119 -121 -135 -136 -150 -151 -178 -179 -190 -191 -201 -202 -211 -212 0
-66 -85 -86 -103 -104 -120 -121 -135 -137 -150 -151 -178 -179 -190 -191 -201 -202 -211 -212 0
-66 -85 -86 -103 -104 -120 -121 -136 -137 -150 -152 -178 -179 -190 -191 -201 -202 -211 -212 0
-66 -85 -86 -103 -104 -120 -121 -136 -137 -151 -152 -178 -180 -190 -191 -201 -202 -211 -212 0
-66 -85 -86 -103 -104 -120 -121 -136 -137 -151 -152 -179 -180 -190 -192 -201 -202 -211 -212 0
-66 -85 -86 -103 -104 -120 -121 -136 -137 -151 -152 -179 -180 -191 -192 -201 -203 -211 -212 0
-66 -85 -86 -103 -104 -120 -121 -136 -137 -151 -152 -179 -180 -191 -192 -202 -203 -211 -213 0
-66 -85 -86 -103 -104 -120 -121 -136 -137 -151 -152 -179 -180 -191 -192 -202 -203 -212 -213 0
-66 -85 -86 -103 -104 -120 -121 -136 -137 -151 -152 -179 -180 -191 -192 -202 -203 -222 -223 0
-66 -85 -86 -103 -104 -120 -121 -136 -137 -151 -152 -179 -180 -191 -192 -213 -214 -222 -223 0
-66 -85 -86 -103 -104 -120 -121 -136 -137 -151 -152 -179 -180 -203 -204 -213 -214 -222 -223 0
-66 -85 -86 -103 -104 -120 -121 -136 -137 -151 -152 -192 -193 -203 -204 -213 -214 -222 -223 0
-65 -84 -85 -102 -103 -119 -120 -135 -136 -165 -166 -178 -179 -190 -191 -201 -202 -211 -212 0
-66 -84 -86 -102 -103 -119 -120 -135 -136 -165 -166 -178 -179 -190 -191 -201 -202 -211 -212 0
-66 -85 -86 -102 -104 -119 -120 -135 -136 -165 -166 -178 -179 -190 -191 -201 -202 -211 -212 0
-66 -85 -86 -103 -104 -119 -121 -135 -136 -165 -166 -178 -179 -190 -191 -201 -202 -211 -212 0
-66 -85 -86 -103 -104 -120 -121 -135 -137 -165 -166 -178 -179 -190 -191 -201 -202 -211 -212 0
-66 -85 -86 -103 -104 -120 -121 -136 -137 -165 -167 -178 -179 -190 -191 -201 -202 -211 -212 0
-66 -85 -86 -103 -104 -120 -121 -136 -137 -166 -167 -178 -180 -190 -191 -201 -202 -211 -212 0
-66 -85 -86 -103 -104 -120 -121 -136 -137 -166 -167 -179 -180 -190 -192 -201 -202 -211 -212 0
-66 -85 -86 -103 -104 -120 -121 -136 -137 -166 -167 -179 -180 -191 -192 -201 -203 -211 -212 0
-66 -85 -86 -103 -104 -120 -121 -136 -137 -166 -167 -179 -180 -191 -192 -202 -203 -211 -213 0
-66 -85 -86 -103 -104 -120 -121 -136 -137 -166 -167 -179 -180 -191 -192 -202 -203 -212 -213 0
-66 -85 -86 -103 -104 -120 -121 -136 -137 -166 -167 -179 -180 -191 -192 -202 -203 -222 -223 0
-66 -85 -86 -103 -104 -120 -121 -136 -137 -166 -167 -179 -180 -191 -192 -213 -214 -222 -223 0
-66 -85 -86 -103 -104 -120 -121 -136 -137 -166 -167 -179 -180 -203 -204 -213 -214 -222 -223 0
-66 -85 -86 -103 -104 -120 -121 -136 -137 -166 -167 -192 -193 -203 -204 -213 -214 -222 -223 0
-66 -85 -86 -103 -104 -120 -121 -136 -137 -180 -181 -192 -193 -203 -204 -213 -214 -222 -223 0
-65 -84 -85 -102 -103 -119 -120 -151 -152 -165 -166 -178 -179 -190 -191 -201 -202 -211 -212 0
-66 -84 -86 -102 -103 -119 -120 -151 -152 -165 -166 -178 -179 -190 -191 -201 -202 -211 -212 0
-66 -85 -86 -102 -104 -119 -120 -151 -152 -165 -166 -178 -179 -190 -191 -201 -202 -211 -212 0
-66 -85 -86 -103 -104 -119 -121 -151 -152 -165 -166 -178 -179 -190 -191 -201 -202 -211 -212 0
-66 -85 -86 -103 -104 -120 -121 -151 -153 -165 -166 -178 -179 -190 -191 -201 -202 -211 -212 0
-66 -85 -86 -103 -104 -120 -121 -152 -153 -165 -167 -178 -179 -190 -191 -201 -202 -211 -212 0
-66 -85 -86 -103 -104 -120 -121 -152 -153 -166 -167 -178 -180 -190 -191 -201 -202 -211 -212 0
-66 -85 -86 -103 -104 -120 -121 -152 -153 -166 -167 -179 -180 -190 -192 -201 -202 -211 -212 0
-66 -85 -86 -103 -104 -120 -121 -152 -153 -166 -167 -179 -180 -191 -192 -201 -203 -211 -212 0
-66 -85 -86 -103 -104 -120 -121 -152 -153 -166 -167 -179 -180 -191 -192 -202 -203 -211 -213 0
-66 -85 -86 -103 -104 -120 -121 -152 -153 -166 -167 -179 -180 -191 -192 -202 -203 -212 -213 0
-66 -85 -86 -103 -104 -120 -121 -152 -153 -166 -167 -179 -180 -191 -192 -202 -203 -222 -223 0
-66 -85 -86 -103 -104 -120 -121 -152 -153 -166 -167 -179 -180 -191 -192 -213 -214 -222 -223 0
-66 -85 -86 -103 -104 -120 -121 -152 -153 -166 -167 -179 -180 -203 -204 -213 -214 -222 -223 0
-66 -85 -86 -103 -104 -120 -121 -152 -153 -166 -167 -192 -193 -203 -204 -213 -214 -222 -223 0
-66 -85 -86 -103 -104 -120 -121 -152 -153 -180 -181 -192 -193 -203 -204 -213 -214 -222 -223 0
-66 -85 -86 -103 -104 -120 -121 -167 -168 -180 -181 -192 -193 -203 -204 -213 -214 -222 -223 0
-65 -84 -85 -102 -103 -136 -137 -151 -152 -165 -166 -178 -179 -190 -191 -201 -202 -211 -212 0
-66 -84 -86 -102 -103 -136 -137 -151 -152 -165 -166 -178 -179 -190 -191 -201 -202 -211 -212 0
-66 -85 -86 -102 -104 -136 -137 -151 -152 -165 -166 -178 -179 -190 -191 -201 -202 -211 -212 0
-66 -85 -86 -103 -104 -136 -138 -151 -152 -165 -166 -178 -179 -190 -191 -201 -202 -211 -212 0
-66 -85 -86 -103 -104 -137 -138 -151 -153 -165 -166 -178 -179 -190 -191 -201 -202 -211 -212 0
-66 -85 -86 -103 -104 -137 -138 -152 -153 -165 -167 -178 -179 -190 -191 -201 -202 -211 -212 0
-66 -85 -86 -103 -104 -137 -138 -152 -153 -166 -167 -178 -180 -190 -191 -201 -202 -211 -212 0
-66 -85 -86 -103 -104 -137 -138 -152 -153 -166 -167 -179 -180 -190 -192 -201 -202 -211 -212 0
-66 -85 -86 -103 -104 -137 -138 -152 -153 -166 -167 -179 -180 -191 -192 -201 -203 -211 -212 0
-66 -85 -86 -103 -104 -137 -138 -152 -153 -166 -167 -179 -180 -191 -192 -202 -203 -211 -213 0
-66 -85 -86 -103 -104 -137 -138 -152 -153 -166 -167 -179 -180 -191 -192 -202 -203 -212 -213 0
-66 -85 -86 -103 -104 -137 -138 -152 -153 -166 -167 -179 -180 -191 -192 -202 -203 -222 -223 0
-66 -85 -86 -103 -104 -137 -138 -152 -153 -166 -167 -179 -180 -191 -192 -213 -214 -222 -223 0
-66 -85 -86 -103 -104 -137 -138 -152 -153 -166 -167 -179 -180 -203 -204 -213 -214 -222 -223 0
-66 -85 -86 -103 -104 -137 -138 -152 -153 -166 -167 -192 -193 -203 -204 -213 -214 -222 -223 0
-66 -85 -86 -103 -104 -137 -138 -152 -153 -180 -181 -192 -193 -203 -204 -213 -214 -222 -223 0
-66 -85 -86 -103 -104 -137 -138 -167 -168 -180 -181 -192 -193 -203 -204 -213 -214 -222 -223 0
-66 -85 -86 -103 -104 -153 -154 -167 -168 -180 -181 -192 -193 -203 -204 -213 -214 -222 -223 0
-65 -84 -85 -120 -121 -136 -137 -151 -152 -165 -166 -178 -179 -190 -191 -201 -202 -211 -212 0
-66 -84 -86 -120 -121 -136 -137 -151 -152 -165 -166 -178 -179 -190 -191 -201 -202 -211 -212 0
-66 -85 -86 -120 -122 -136 -137 -151 -152 -165 -166 -178 -179 -190 -191 -201 -202 -211 -212 0
-66 -85 -86 -121 -122 -136 -138 -151 -152 -165 -166 -178 -179 -190 -191 -201 -202 -211 -212 0
-66 -85 -86 -121 -122 -137 -138 -151 -153 -165 -166 -178 -179 -190 -191 -201 -202 -211 -212 0
-66 -85 -86 -121 -122 -137 -138 -152 -153 -165 -167 -178 -179 -190 -191 -201 -202 -211 -212 0
-66 -85 -86 -121 -122 -137 -138 -152 -153 -166 -167 -178 -180 -190 -191 -201 -202 -211 -212 0
-66 -85 -86 -121 -122 -137 -138 -152 -153 -166 -167 -179 -180 -190 -192 -201 -202 -211 -212 0
-66 -85 -86 -121 -122 -137 -138 -152 -153 -166 -167 -179 -180 -191 -192 -201 -203 -211 -212 0
-66 -85 -86 -121 -122 -137 -138 -152 -153 -166 -167 -179 -180 -191 -192 -202 -203 -211 -213 0
-66 -85 -86 -121 -122 -137 -138 -152 -153 -166 -167 -179 -180 -191 -192 -202 -203 -212 -213 0
-66 -85 -86 -121 -122 -137 -138 -152 -153 -166 -167 -179 -180 -191 -192 -202 -203 -222 -223 0
-66 -85 -86 -121 -122 -137 -138 -152 -153 -166 -167 -179 -180 -191 -192 -213 -214 -222 -223 0
-66 -85 -86 -121 -122 -137 -138 -152 -153 -166 -167 -179 -180 -203 -204 -213 -214 -222 -223 0
-66 -85 -86 -121 -122 -137 -138 -152 -153 -166 -167 -192 -193 -203 -204 -213 -214 -222 -223 0
-66 -85 -86 -121 -122 -137 -138 -152 -153 -180 -181 -192 -193 -203 -204 -213 -214 -222 -223 0
-66 -85 -86 -121 -122 -137 -138 -167 -168 -180 -181 -192 -193 -203 -204 -213 -214 -222 -223 0
-66 -85 -86 -121 -122 -153 -154 -167 -168 -180 -181 -192 -193 -203 -204 -213 -214 -222 -223 0
-66 -85 -86 -138 -139 -153 -154 -167 -168 -180 -181 -192 -193 -203 -204 -213 -214 -222 -223 0
-65 -103 -104 -120 -121 -136 -137 -151 -152 -165 -166 -178 -179 -190 -191 -201 -202 -211 -212 0
-66 -103 -105 -120 -121 -136 -137 -151 -152 -165 -166 -178 -179 -190 -191 -201 -202 -211 -212 0
-66 -104 -105 -120 -122 -136 -137 -151 -152 -165 -166 -178 -179 -190 -191 -201 -202 -211 -212 0
-66 -104 -105 -121 -122 -136 -138 -151 -152 -165 -166 -178 -179 -190 -191 -201 -202 -211 -212 0
-66 -104 -105 -121 -122 -137 -138 -151 -153 -165 -166 -178 -179 -190 -191 -201 -202 -211 -212 0
-66 -104 -105 -121 -122 -137 -138 -152 -153 -165 -167 -178 -179 -190 -191 -201 -202 -211 -212 0
-66 -104 -105 -121 -122 -137 -138 -152 -153 -166 -167 -178 -180 -190 -191 -201 -202 -211 -212 0
-66 -104 -105 -121 -122 -137 -138 -152 -153 -166 -167 -179 -180 -190 -192 -201 -202 -211 -212 0
-66 -104 -105 -121 -122 -137 -138 -152 -153 -166 -167 -179 -180 -191 -192 -201 -203 -211 -212 0
-66 -104 -105 -121 -122 -137 -138 -152 -153 -166 -167 -179 -180 -191 -192 -202 -203 -211 -213 0
-66 -104 -105 -121 -122 -137 -138 -152 -153 -166 -167 -179 -180 -191 -192 -202 -203 -212 -213 0
-66 -104 -105 -121 -122 -137 -138 -152 -153 -166 -167 -179 -180 -191 -192 -202 -203 -222 -223 0
-66 -104 -105 -121 -122 -137 -138 -152 -153 -166 -167 -179 -180 -191 -192 -213 -214 -222 -223 0
-66 -104 -105 -121 -122 -137 -138 -152 -153 -166 -167 -179 -180 -203 -204 -213 -214 -222 -223 0
-66 -104 -105 -121 -122 -137 -138 -152 -153 -166 -167 -192 -193 -203 -204 -213 -214 -222 -223 0
-66 -104 -105 -121 -122 -137 -138 -152 -153 -180 -181 -192 -193 -203 -204 -213 -214 -222 -223 0
-66 -104 -105 -121 -122 -137 -138 -167 -168 -180 -181 -192 -193 -203 -204 -213 -214 -222 -223 0
-66 -104 -105 -121 -122 -153 -154 -167 -168 -180 -181 -192 -193 -203 -204 -213 -214 -222 -223 0
-66 -104 -105 -138 -139 -153 -154 -167 -168 -180 -181 -192 -193 -203 -204 -213 -214 -222 -223 0
-66 -122 -123 -138 -139 -153 -154 -167 -168 -180 -181 -192 -193 -203 -204 -213 -214 -222 -223 0
-85 -103 -104 -120 -121 -136 -137 -151 -152 -165 -166 -178 -179 -190 -191 -201 -202 -211 -212 0
-86 -103 -105 -120 -121 -136 -137 -151 -152 -165 -166 -178 -179 -190 -191 -201 -202 -211 -212 0
-86 -104 -105 -120 -122 -136 -137 -151 -152 -165 -166 -178 -179 -190 -191 -201 -202 -211 -212 0
-86 -104 -105 -121 -122 -136 -138 -151 -152 -165 -166 -178 -179 -190 -191 -201 -202 -211 -212 0
-86 -104 -105 -121 -122 -137 -138 -151 -153 -165 -166 -178 -179 -190 -191 -201 -202 -211 -212 0
-86 -104 -105 -121 -122 -137 -138 -152 -153 -165 -167 -178 -179 -190 -191 -201 -202 -211 -212 0
-86 -104 -105 -121 -122 -137 -138 -152 -153 -166 -167 -178 -180 -190 -191 -201 -202 -211 -212 0
-86 -104 -105 -121 -122 -137 -138 -152 -153 -166 -167 -179 -180 -190 -192 -201 -202 -211 -212 0
-86 -104 -105 -121 -122 -137 -138 -152 -153 -166 -167 -179 -180 -191 -192 -201 -203 -211 -212 0
-86 -104 -105 -121 -122 -137 -138 -152 -153 -166 -167 -179 -180 -191 -192 -202 -203 -211 -213 0
-86 -104 -105 -121 -122 -137 -138 -152 -153 -166 -167 -179 -180 -191 -192 -202 -203 -212 -213 0
-86 -104 -105 -121 -122 -137 -138 -152 -153 -166 -167 -179 -180 -191 -192 -202 -203 -222 -223 0
-86 -104 -105 -121 -122 -137 -138 -152 -153 -166 -167 -179 -180 -191 -192 -213 -214 -222 -223 0
-86 -104 -105 -121 -122 -137 -138 -152 -153 -166 -167 -179 -180 -203 -204 -213 -214 -222 -223 0
-86 -104 -105 -121 -122 -137 -138 -152 -153 -166 -167 -192 -193 -203 -204 -213 -214 -222 -223 0
-86 -104 -105 -121 -122 -137 -138 -152 -153 -180 -181 -192 -193 -203 -204 -213 -214 -222 -223 0
-86 -104 -105 -121 -122 -137 -138 -167 -168 -180 -181 -192 -193 -203 -204 -213 -214 -222 -223 0
-86 -104 -105 -121 -122 -153 -154 -167 -168 -180 -181 -192 -193 -203 -204 -213 -214 -222 -223 0
-86 -104 -105 -138 -139 -153 -154 -167 -168 -180 -181 -192 -193 -203 -204 -213 -214 -222 -223 0
-86 -122 -123 -138 -139 -153 -154 -167 -168 -180 -181 -192 -193 -203 -204 -213 -214 -222 -223 0
-105 -122 -123 -138 -139 -153 -154 -167 -168 -180 -181 -192 -193 -203 -204 -213 -214 -222 -223 0
