c Ordered Ramsey CNF instance
c n = 5, N = 7
c Positive literal = blue edge
c Negative literal = red edge
p cnf 21 56
1 2 0
1 3 0
1 4 0
1 5 0
1 6 0
2 3 0
2 4 0
2 5 0
2 6 0
3 4 0
3 5 0
3 6 0
4 5 0
4 6 0
5 6 0
7 8 0
7 9 0
7 10 0
7 11 0
8 9 0
8 10 0
8 11 0
9 10 0
9 11 0
10 11 0
12 13 0
12 14 0
12 15 0
13 14 0
13 15 0
14 15 0
16 17 0
16 18 0
17 18 0
19 20 0
-4 -8 -9 -12 0
-5 -8 -10 -12 0
-6 -8 -11 -12 0
-5 -9 -10 -13 0
-6 -9 -11 -13 0
-6 -10 -11 -14 0
-5 -9 -10 -16 0
-6 -9 -11 -16 0
-6 -10 -11 -17 0
-6 -10 -11 -19 0
-5 -13 -14 -16 0
-6 -13 -15 -16 0
-6 -14 -15 -17 0
-6 -14 -15 -19 0
-6 -17 -18 -19 0
-10 -13 -14 -16 0
-11 -13 -15 -16 0
-11 -14 -15 -17 0
-11 -14 -15 -19 0
-11 -17 -18 -19 0
-15 -17 -18 -19 0
