c Ordered Ramsey CNF instance
c n = 6, N = 8
c Positive literal = blue edge
c Negative literal = red edge
p cnf 28 84
1 2 0
1 3 0
1 4 0
1 5 0
1 6 0
1 7 0
2 3 0
2 4 0
2 5 0
2 6 0
2 7 0
3 4 0
3 5 0
3 6 0
3 7 0
4 5 0
4 6 0
4 7 0
5 6 0
5 7 0
6 7 0
8 9 0
8 10 0
8 11 0
8 12 0
8 13 0
9 10 0
9 11 0
9 12 0
9 13 0
10 11 0
10 12 0
10 13 0
11 12 0
11 13 0
12 13 0
14 15 0
14 16 0
14 17 0
14 18 0
15 16 0
15 17 0
15 18 0
16 17 0
16 18 0
17 18 0
19 20 0
19 21 0
19 22 0
20 21 0
20 22 0
21 22 0
23 24 0
23 25 0
24 25 0
26 27 0
-5 -10 -11 -14 -15 0
-6 -10 -12 -14 -15 0
-7 -10 -13 -14 -15 0
-6 -11 -12 -14 -16 0
-7 -11 -13 -14 -16 0
-7 -12 -13 -14 -17 0
-6 -11 -12 -15 -16 0
-7 -11 -13 -15 -16 0
-7 -12 -13 -15 -17 0
-7 -12 -13 -16 -17 0
-6 -11 -12 -19 -20 0
-7 -11 -13 -19 -20 0
-7 -12 -13 -19 -21 0
-7 -12 -13 -20 -21 0
-7 -12 -13 -23 -24 0
-6 -16 -17 -19 -20 0
-7 -16 -18 -19 -20 0
-7 -17 -18 -19 -21 0
-7 -17 -18 -20 -21 0
-7 -17 -18 -23 -24 0
-7 -21 -22 -23 -24 0
-12 -16 -17 -19 -20 0
-13 -16 -18 -19 -20 0
-13 -17 -18 -19 -21 0
-13 -17 -18 -20 -21 0
-13 -17 -18 -23 -24 0
-13 -21 -22 -23 -24 0
-18 -21 -22 -23 -24 0
