c Ordered Ramsey CNF instance
c n = 7, N = 10
c Positive literal = blue edge
c Negative literal = red edge
p cnf 45 240
1 2 0
1 3 0
1 4 0
1 5 0
1 6 0
1 7 0
1 8 0
1 9 0
2 3 0
2 4 0
2 5 0
2 6 0
2 7 0
2 8 0
2 9 0
3 4 0
3 5 0
3 6 0
3 7 0
3 8 0
3 9 0
4 5 0
4 6 0
4 7 0
4 8 0
4 9 0
5 6 0
5 7 0
5 8 0
5 9 0
6 7 0
6 8 0
6 9 0
7 8 0
7 9 0
8 9 0
10 11 0
10 12 0
10 13 0
10 14 0
10 15 0
10 16 0
10 17 0
11 12 0
11 13 0
11 14 0
11 15 0
11 16 0
11 17 0
12 13 0
12 14 0
12 15 0
12 16 0
12 17 0
13 14 0
13 15 0
13 16 0
13 17 0
14 15 0
14 16 0
14 17 0
15 16 0
15 17 0
16 17 0
18 19 0
18 20 0
18 21 0
18 22 0
18 23 0
18 24 0
19 20 0
19 21 0
19 22 0
19 23 0
19 24 0
20 21 0
20 22 0
20 23 0
20 24 0
21 22 0
21 23 0
21 24 0
22 23 0
22 24 0
23 24 0
25 26 0
25 27 0
25 28 0
25 29 0
25 30 0
26 27 0
26 28 0
26 29 0
26 30 0
27 28 0
27 29 0
27 30 0
28 29 0
28 30 0
29 30 0
31 32 0
31 33 0
31 34 0
31 35 0
32 33 0
32 34 0
32 35 0
33 34 0
33 35 0
34 35 0
36 37 0
36 38 0
36 39 0
37 38 0
37 39 0
38 39 0
40 41 0
40 42 0
41 42 0
43 44 0
-6 -13 -14 -19 -20 -25 0
-7 -13 -15 -19 -20 -25 0
-8 -13 -16 -19 -20 -25 0
-9 -13 -17 -19 -20 -25 0
-7 -14 -15 -19 -21 -25 0
-8 -14 -16 -19 -21 -25 0
-9 -14 -17 -19 -21 -25 0
-8 -15 -16 -19 -22 -25 0
-9 -15 -17 -19 -22 -25 0
-9 -16 -17 -19 -23 -25 0
-7 -14 -15 -20 -21 -26 0
-8 -14 -16 -20 -21 -26 0
-9 -14 -17 -20 -21 -26 0
-8 -15 -16 -20 -22 -26 0
-9 -15 -17 -20 -22 -26 0
-9 -16 -17 -20 -23 -26 0
-8 -15 -16 -21 -22 -27 0
-9 -15 -17 -21 -22 -27 0
-9 -16 -17 -21 -23 -27 0
-9 -16 -17 -22 -23 -28 0
-7 -14 -15 -20 -21 -31 0
-8 -14 -16 -20 -21 -31 0
-9 -14 -17 -20 -21 -31 0
-8 -15 -16 -20 -22 -31 0
-9 -15 -17 -20 -22 -31 0
-9 -16 -17 -20 -23 -31 0
-8 -15 -16 -21 -22 -32 0
-9 -15 -17 -21 -22 -32 0
-9 -16 -17 -21 -23 -32 0
-9 -16 -17 -22 -23 -33 0
-8 -15 -16 -21 -22 -36 0
-9 -15 -17 -21 -22 -36 0
-9 -16 -17 -21 -23 -36 0
-9 -16 -17 -22 -23 -37 0
-9 -16 -17 -22 -23 -40 0
-7 -14 -15 -26 -27 -31 0
-8 -14 -16 -26 -27 -31 0
-9 -14 -17 -26 -27 -31 0
-8 -15 -16 -26 -28 -31 0
-9 -15 -17 -26 -28 -31 0
-9 -16 -17 -26 -29 -31 0
-8 -15 -16 -27 -28 -32 0
-9 -15 -17 -27 -28 -32 0
-9 -16 -17 -27 -29 -32 0
-9 -16 -17 -28 -29 -33 0
-8 -15 -16 -27 -28 -36 0
-9 -15 -17 -27 -28 -36 0
-9 -16 -17 -27 -29 -36 0
-9 -16 -17 -28 -29 -37 0
-9 -16 -17 -28 -29 -40 0
-8 -15 -16 -32 -33 -36 0
-9 -15 -17 -32 -33 -36 0
-9 -16 -17 -32 -34 -36 0
-9 -16 -17 -33 -34 -37 0
-9 -16 -17 -33 -34 -40 0
-9 -16 -17 -37 -38 -40 0
-7 -21 -22 -26 -27 -31 0
-8 -21 -23 -26 -27 -31 0
-9 -21 -24 -26 -27 -31 0
-8 -22 -23 -26 -28 -31 0
-9 -22 -24 -26 -28 -31 0
-9 -23 -24 -26 -29 -31 0
-8 -22 -23 -27 -28 -32 0
-9 -22 -24 -27 -28 -32 0
-9 -23 -24 -27 -29 -32 0
-9 -23 -24 -28 -29 -33 0
-8 -22 -23 -27 -28 -36 0
-9 -22 -24 -27 -28 -36 0
-9 -23 -24 -27 -29 -36 0
-9 -23 -24 -28 -29 -37 0
-9 -23 -24 -28 -29 -40 0
-8 -22 -23 -32 -33 -36 0
-9 -22 -24 -32 -33 -36 0
-9 -23 -24 -32 -34 -36 0
-9 -23 -24 -33 -34 -37 0
-9 -23 -24 -33 -34 -40 0
-9 -23 -24 -37 -38 -40 0
-8 -28 -29 -32 -33 -36 0
-9 -28 -30 -32 -33 -36 0
-9 -29 -30 -32 -34 -36 0
-9 -29 -30 -33 -34 -37 0
-9 -29 -30 -33 -34 -40 0
-9 -29 -30 -37 -38 -40 0
-9 -34 -35 -37 -38 -40 0
-15 -21 -22 -26 -27 -31 0
-16 -21 -23 -26 -27 -31 0
-17 -21 -24 -26 -27 -31 0
-16 -22 -23 -26 -28 -31 0
-17 -22 -24 -26 -28 -31 0
-17 -23 -24 -26 -29 -31 0
-16 -22 -23 -27 -28 -32 0
-17 -22 -24 -27 -28 -32 0
-17 -23 -24 -27 -29 -32 0
-17 -23 -24 -28 -29 -33 0
-16 -22 -23 -27 -28 -36 0
-17 -22 -24 -27 -28 -36 0
-17 -23 -24 -27 -29 -36 0
-17 -23 -24 -28 -29 -37 0
-17 -23 -24 -28 -29 -40 0
-16 -22 -23 -32 -33 -36 0
-17 -22 -24 -32 -33 -36 0
-17 -23 -24 -32 -34 -36 0
-17 -23 -24 -33 -34 -37 0
-17 -23 -24 -33 -34 -40 0
-17 -23 -24 -37 -38 -40 0
-16 -28 -29 -32 -33 -36 0
-17 -28 -30 -32 -33 -36 0
-17 -29 -30 -32 -34 -36 0
-17 -29 -30 -33 -34 -37 0
-17 -29 -30 -33 -34 -40 0
-17 -29 -30 -37 -38 -40 0
-17 -34 -35 -37 -38 -40 0
-23 -28 -29 -32 -33 -36 0
-24 -28 -30 -32 -33 -36 0
-24 -29 -30 -32 -34 -36 0
-24 -29 -30 -33 -34 -37 0
-24 -29 -30 -33 -34 -40 0
-24 -29 -30 -37 -38 -40 0
-24 -34 -35 -37 -38 -40 0
-30 -34 -35 -37 -38 -40 0
