c Ordered Ramsey CNF instance
c n = 8, N = 11
c Positive literal = blue edge
c Negative literal = red edge
p cnf 55 330
1 2 0
1 3 0
1 4 0
1 5 0
1 6 0
1 7 0
1 8 0
1 9 0
1 10 0
2 3 0
2 4 0
2 5 0
2 6 0
2 7 0
2 8 0
2 9 0
2 10 0
3 4 0
3 5 0
3 6 0
3 7 0
3 8 0
3 9 0
3 10 0
4 5 0
4 6 0
4 7 0
4 8 0
4 9 0
4 10 0
5 6 0
5 7 0
5 8 0
5 9 0
5 10 0
6 7 0
6 8 0
6 9 0
6 10 0
7 8 0
7 9 0
7 10 0
8 9 0
8 10 0
9 10 0
11 12 0
11 13 0
11 14 0
11 15 0
11 16 0
11 17 0
11 18 0
11 19 0
12 13 0
12 14 0
12 15 0
12 16 0
12 17 0
12 18 0
12 19 0
13 14 0
13 15 0
13 16 0
13 17 0
13 18 0
13 19 0
14 15 0
14 16 0
14 17 0
14 18 0
14 19 0
15 16 0
15 17 0
15 18 0
15 19 0
16 17 0
16 18 0
16 19 0
17 18 0
17 19 0
18 19 0
20 21 0
20 22 0
20 23 0
20 24 0
20 25 0
20 26 0
20 27 0
21 22 0
21 23 0
21 24 0
21 25 0
21 26 0
21 27 0
22 23 0
22 24 0
22 25 0
22 26 0
22 27 0
23 24 0
23 25 0
23 26 0
23 27 0
24 25 0
24 26 0
24 27 0
25 26 0
25 27 0
26 27 0
28 29 0
28 30 0
28 31 0
28 32 0
28 33 0
28 34 0
29 30 0
29 31 0
29 32 0
29 33 0
29 34 0
30 31 0
30 32 0
30 33 0
30 34 0
31 32 0
31 33 0
31 34 0
32 33 0
32 34 0
33 34 0
35 36 0
35 37 0
35 38 0
35 39 0
35 40 0
36 37 0
36 38 0
36 39 0
36 40 0
37 38 0
37 39 0
37 40 0
38 39 0
38 40 0
39 40 0
41 42 0
41 43 0
41 44 0
41 45 0
42 43 0
42 44 0
42 45 0
43 44 0
43 45 0
44 45 0
46 47 0
46 48 0
46 49 0
47 48 0
47 49 0
48 49 0
50 51 0
50 52 0
51 52 0
53 54 0
-7 -15 -16 -22 -23 -28 -29 0
-8 -15 -17 -22 -23 -28 -29 0
-9 -15 -18 -22 -23 -28 -29 0
-10 -15 -19 -22 -23 -28 -29 0
-8 -16 -17 -22 -24 -28 -29 0
-9 -16 -18 -22 -24 -28 -29 0
-10 -16 -19 -22 -24 -28 -29 0
-9 -17 -18 -22 -25 -28 -29 0
-10 -17 -19 -22 -25 -28 -29 0
-10 -18 -19 -22 -26 -28 -29 0
-8 -16 -17 -23 -24 -28 -30 0
-9 -16 -18 -23 -24 -28 -30 0
-10 -16 -19 -23 -24 -28 -30 0
-9 -17 -18 -23 -25 -28 -30 0
-10 -17 -19 -23 -25 -28 -30 0
-10 -18 -19 -23 -26 -28 -30 0
-9 -17 -18 -24 -25 -28 -31 0
-10 -17 -19 -24 -25 -28 -31 0
-10 -18 -19 -24 -26 -28 -31 0
-10 -18 -19 -25 -26 -28 -32 0
-8 -16 -17 -23 -24 -29 -30 0
-9 -16 -18 -23 -24 -29 -30 0
-10 -16 -19 -23 -24 -29 -30 0
-9 -17 -18 -23 -25 -29 -30 0
-10 -17 -19 -23 -25 -29 -30 0
-10 -18 -19 -23 -26 -29 -30 0
-9 -17 -18 -24 -25 -29 -31 0
-10 -17 -19 -24 -25 -29 -31 0
-10 -18 -19 -24 -26 -29 -31 0
-10 -18 -19 -25 -26 -29 -32 0
-9 -17 -18 -24 -25 -30 -31 0
-10 -17 -19 -24 -25 -30 -31 0
-10 -18 -19 -24 -26 -30 -31 0
-10 -18 -19 -25 -26 -30 -32 0
-10 -18 -19 -25 -26 -31 -32 0
-8 -16 -17 -23 -24 -35 -36 0
-9 -16 -18 -23 -24 -35 -36 0
-10 -16 -19 -23 -24 -35 -36 0
-9 -17 -18 -23 -25 -35 -36 0
-10 -17 -19 -23 -25 -35 -36 0
-10 -18 -19 -23 -26 -35 -36 0
-9 -17 -18 -24 -25 -35 -37 0
-10 -17 -19 -24 -25 -35 -37 0
-10 -18 -19 -24 -26 -35 -37 0
-10 -18 -19 -25 -26 -35 -38 0
-9 -17 -18 -24 -25 -36 -37 0
-10 -17 -19 -24 -25 -36 -37 0
-10 -18 -19 -24 -26 -36 -37 0
-10 -18 -19 -25 -26 -36 -38 0
-10 -18 -19 -25 -26 -37 -38 0
-9 -17 -18 -24 -25 -41 -42 0
-10 -17 -19 -24 -25 -41 -42 0
-10 -18 -19 -24 -26 -41 -42 0
-10 -18 -19 -25 -26 -41 -43 0
-10 -18 -19 -25 -26 -42 -43 0
-10 -18 -19 -25 -26 -46 -47 0
-8 -16 -17 -30 -31 -35 -36 0
-9 -16 -18 -30 -31 -35 -36 0
-10 -16 -19 -30 -31 -35 -36 0
-9 -17 -18 -30 -32 -35 -36 0
-10 -17 -19 -30 -32 -35 -36 0
-10 -18 -19 -30 -33 -35 -36 0
-9 -17 -18 -31 -32 -35 -37 0
-10 -17 -19 -31 -32 -35 -37 0
-10 -18 -19 -31 -33 -35 -37 0
-10 -18 -19 -32 -33 -35 -38 0
-9 -17 -18 -31 -32 -36 -37 0
-10 -17 -19 -31 -32 -36 -37 0
-10 -18 -19 -31 -33 -36 -37 0
-10 -18 -19 -32 -33 -36 -38 0
-10 -18 -19 -32 -33 -37 -38 0
-9 -17 -18 -31 -32 -41 -42 0
-10 -17 -19 -31 -32 -41 -42 0
-10 -18 -19 -31 -33 -41 -42 0
-10 -18 -19 -32 -33 -41 -43 0
-10 -18 -19 -32 -33 -42 -43 0
-10 -18 -19 -32 -33 -46 -47 0
-9 -17 -18 -37 -38 -41 -42 0
-10 -17 -19 -37 -38 -41 -42 0
-10 -18 -19 -37 -39 -41 -42 0
-10 -18 -19 -38 -39 -41 -43 0
-10 -18 -19 -38 -39 -42 -43 0
-10 -18 -19 -38 -39 -46 -47 0
-10 -18 -19 -43 -44 -46 -47 0
-8 -24 -25 -30 -31 -35 -36 0
-9 -24 -26 -30 -31 -35 -36 0
-10 -24 -27 -30 -31 -35 -36 0
-9 -25 -26 -30 -32 -35 -36 0
-10 -25 -27 -30 -32 -35 -36 0
-10 -26 -27 -30 -33 -35 -36 0
-9 -25 -26 -31 -32 -35 -37 0
-10 -25 -27 -31 -32 -35 -37 0
-10 -26 -27 -31 -33 -35 -37 0
-10 -26 -27 -32 -33 -35 -38 0
-9 -25 -26 -31 -32 -36 -37 0
-10 -25 -27 -31 -32 -36 -37 0
-10 -26 -27 -31 -33 -36 -37 0
-10 -26 -27 -32 -33 -36 -38 0
-10 -26 -27 -32 -33 -37 -38 0
-9 -25 -26 -31 -32 -41 -42 0
-10 -25 -27 -31 -32 -41 -42 0
-10 -26 -27 -31 -33 -41 -42 0
-10 -26 -27 -32 -33 -41 -43 0
-10 -26 -27 -32 -33 -42 -43 0
-10 -26 -27 -32 -33 -46 -47 0
-9 -25 -26 -37 -38 -41 -42 0
-10 -25 -27 -37 -38 -41 -42 0
-10 -26 -27 -37 -39 -41 -42 0
-10 -26 -27 -38 -39 -41 -43 0
-10 -26 -27 -38 -39 -42 -43 0
-10 -26 -27 -38 -39 -46 -47 0
-10 -26 -27 -43 -44 -46 -47 0
-9 -32 -33 -37 -38 -41 -42 0
-10 -32 -34 -37 -38 -41 -42 0
-10 -33 -34 -37 -39 -41 -42 0
-10 -33 -34 -38 -39 -41 -43 0
-10 -33 -34 -38 -39 -42 -43 0
-10 -33 -34 -38 -39 -46 -47 0
-10 -33 -34 -43 -44 -46 -47 0
-10 -39 -40 -43 -44 -46 -47 0
-17 -24 -25 -30 -31 -35 -36 0
-18 -24 -26 -30 -31 -35 -36 0
-19 -24 -27 -30 -31 -35 -36 0
-18 -25 -26 -30 -32 -35 -36 0
-19 -25 -27 -30 -32 -35 -36 0
-19 -26 -27 -30 -33 -35 -36 0
-18 -25 -26 -31 -32 -35 -37 0
-19 -25 -27 -31 -32 -35 -37 0
-19 -26 -27 -31 -33 -35 -37 0
-19 -26 -27 -32 -33 -35 -38 0
-18 -25 -26 -31 -32 -36 -37 0
-19 -25 -27 -31 -32 -36 -37 0
-19 -26 -27 -31 -33 -36 -37 0
-19 -26 -27 -32 -33 -36 -38 0
-19 -26 -27 -32 -33 -37 -38 0
-18 -25 -26 -31 -32 -41 -42 0
-19 -25 -27 -31 -32 -41 -42 0
-19 -26 -27 -31 -33 -41 -42 0
-19 -26 -27 -32 -33 -41 -43 0
-19 -26 -27 -32 -33 -42 -43 0
-19 -26 -27 -32 -33 -46 -47 0
-18 -25 -26 -37 -38 -41 -42 0
-19 -25 -27 -37 -38 -41 -42 0
-19 -26 -27 -37 -39 -41 -42 0
-19 -26 -27 -38 -39 -41 -43 0
-19 -26 -27 -38 -39 -42 -43 0
-19 -26 -27 -38 -39 -46 -47 0
-19 -26 -27 -43 -44 -46 -47 0
-18 -32 -33 -37 -38 -41 -42 0
-19 -32 -34 -37 -38 -41 -42 0
-19 -33 -34 -37 -39 -41 -42 0
-19 -33 -34 -38 -39 -41 -43 0
-19 -33 -34 -38 -39 -42 -43 0
-19 -33 -34 -38 -39 -46 -47 0
-19 -33 -34 -43 -44 -46 -47 0
-19 -39 -40 -43 -44 -46 -47 0
-26 -32 -33 -37 -38 -41 -42 0
-27 -32 -34 -37 -38 -41 -42 0
-27 -33 -34 -37 -39 -41 -42 0
-27 -33 -34 -38 -39 -41 -43 0
-27 -33 -34 -38 -39 -42 -43 0
-27 -33 -34 -38 -39 -46 -47 0
-27 -33 -34 -43 -44 -46 -47 0
-27 -39 -40 -43 -44 -46 -47 0
-34 -39 -40 -43 -44 -46 -47 0
