c Ordered Ramsey CNF instance
c n = 9, N = 12
c Positive literal = blue edge
c Negative literal = red edge
p cnf 66 440
1 2 0
1 3 0
1 4 0
1 5 0
1 6 0
1 7 0
1 8 0
1 9 0
1 10 0
1 11 0
2 3 0
2 4 0
2 5 0
2 6 0
2 7 0
2 8 0
2 9 0
2 10 0
2 11 0
3 4 0
3 5 0
3 6 0
3 7 0
3 8 0
3 9 0
3 10 0
3 11 0
4 5 0
4 6 0
4 7 0
4 8 0
4 9 0
4 10 0
4 11 0
5 6 0
5 7 0
5 8 0
5 9 0
5 10 0
5 11 0
6 7 0
6 8 0
6 9 0
6 10 0
6 11 0
7 8 0
7 9 0
7 10 0
7 11 0
8 9 0
8 10 0
8 11 0
9 10 0
9 11 0
10 11 0
12 13 0
12 14 0
12 15 0
12 16 0
12 17 0
12 18 0
12 19 0
12 20 0
12 21 0
13 14 0
13 15 0
13 16 0
13 17 0
13 18 0
13 19 0
13 20 0
13 21 0
14 15 0
14 16 0
14 17 0
14 18 0
14 19 0
14 20 0
14 21 0
15 16 0
15 17 0
15 18 0
15 19 0
15 20 0
15 21 0
16 17 0
16 18 0
16 19 0
16 20 0
16 21 0
17 18 0
17 19 0
17 20 0
17 21 0
18 19 0
18 20 0
18 21 0
19 20 0
19 21 0
20 21 0
22 23 0
22 24 0
22 25 0
22 26 0
22 27 0
22 28 0
22 29 0
22 30 0
23 24 0
23 25 0
23 26 0
23 27 0
23 28 0
23 29 0
23 30 0
24 25 0
24 26 0
24 27 0
24 28 0
24 29 0
24 30 0
25 26 0
25 27 0
25 28 0
25 29 0
25 30 0
26 27 0
26 28 0
26 29 0
26 30 0
27 28 0
27 29 0
27 30 0
28 29 0
28 30 0
29 30 0
31 32 0
31 33 0
31 34 0
31 35 0
31 36 0
31 37 0
31 38 0
32 33 0
32 34 0
32 35 0
32 36 0
32 37 0
32 38 0
33 34 0
33 35 0
33 36 0
33 37 0
33 38 0
34 35 0
34 36 0
34 37 0
34 38 0
35 36 0
35 37 0
35 38 0
36 37 0
36 38 0
37 38 0
39 40 0
39 41 0
39 42 0
39 43 0
39 44 0
39 45 0
40 41 0
40 42 0
40 43 0
40 44 0
40 45 0
41 42 0
41 43 0
41 44 0
41 45 0
42 43 0
42 44 0
42 45 0
43 44 0
43 45 0
44 45 0
46 47 0
46 48 0
46 49 0
46 50 0
46 51 0
47 48 0
47 49 0
47 50 0
47 51 0
48 49 0
48 50 0
48 51 0
49 50 0
49 51 0
50 51 0
52 53 0
52 54 0
52 55 0
52 56 0
53 54 0
53 55 0
53 56 0
54 55 0
54 56 0
55 56 0
57 58 0
57 59 0
57 60 0
58 59 0
58 60 0
59 60 0
61 62 0
61 63 0
62 63 0
64 65 0
-8 -17 -18 -25 -26 -32 -33 -39 0
-9 -17 -19 -25 -26 -32 -33 -39 0
-10 -17 -20 -25 -26 -32 -33 -39 0
-11 -17 -21 -25 -26 -32 -33 -39 0
-9 -18 -19 -25 -27 -32 -33 -39 0
-10 -18 -20 -25 -27 -32 -33 -39 0
-11 -18 -21 -25 -27 -32 -33 -39 0
-10 -19 -20 -25 -28 -32 -33 -39 0
-11 -19 -21 -25 -28 -32 -33 -39 0
-11 -20 -21 -25 -29 -32 -33 -39 0
-9 -18 -19 -26 -27 -32 -34 -39 0
-10 -18 -20 -26 -27 -32 -34 -39 0
-11 -18 -21 -26 -27 -32 -34 -39 0
-10 -19 -20 -26 -28 -32 -34 -39 0
-11 -19 -21 -26 -28 -32 -34 -39 0
-11 -20 -21 -26 -29 -32 -34 -39 0
-10 -19 -20 -27 -28 -32 -35 -39 0
-11 -19 -21 -27 -28 -32 -35 -39 0
-11 -20 -21 -27 -29 -32 -35 -39 0
-11 -20 -21 -28 -29 -32 -36 -39 0
-9 -18 -19 -26 -27 -33 -34 -40 0
-10 -18 -20 -26 -27 -33 -34 -40 0
-11 -18 -21 -26 -27 -33 -34 -40 0
-10 -19 -20 -26 -28 -33 -34 -40 0
-11 -19 -21 -26 -28 -33 -34 -40 0
-11 -20 -21 -26 -29 -33 -34 -40 0
-10 -19 -20 -27 -28 -33 -35 -40 0
-11 -19 -21 -27 -28 -33 -35 -40 0
-11 -20 -21 -27 -29 -33 -35 -40 0
-11 -20 -21 -28 -29 -33 -36 -40 0
-10 -19 -20 -27 -28 -34 -35 -41 0
-11 -19 -21 -27 -28 -34 -35 -41 0
-11 -20 -21 -27 -29 -34 -35 -41 0
-11 -20 -21 -28 -29 -34 -36 -41 0
-11 -20 -21 -28 -29 -35 -36 -42 0
-9 -18 -19 -26 -27 -33 -34 -46 0
-10 -18 -20 -26 -27 -33 -34 -46 0
-11 -18 -21 -26 -27 -33 -34 -46 0
-10 -19 -20 -26 -28 -33 -34 -46 0
-11 -19 -21 -26 -28 -33 -34 -46 0
-11 -20 -21 -26 -29 -33 -34 -46 0
-10 -19 -20 -27 -28 -33 -35 -46 0
-11 -19 -21 -27 -28 -33 -35 -46 0
-11 -20 -21 -27 -29 -33 -35 -46 0
-11 -20 -21 -28 -29 -33 -36 -46 0
-10 -19 -20 -27 -28 -34 -35 -47 0
-11 -19 -21 -27 -28 -34 -35 -47 0
-11 -20 -21 -27 -29 -34 -35 -47 0
-11 -20 -21 -28 -29 -34 -36 -47 0
-11 -20 -21 -28 -29 -35 -36 -48 0
-10 -19 -20 -27 -28 -34 -35 -52 0
-11 -19 -21 -27 -28 -34 -35 -52 0
-11 -20 -21 -27 -29 -34 -35 -52 0
-11 -20 -21 -28 -29 -34 -36 -52 0
-11 -20 -21 -28 -29 -35 -36 -53 0
-11 -20 -21 -28 -29 -35 -36 -57 0
-9 -18 -19 -26 -27 -40 -41 -46 0
-10 -18 -20 -26 -27 -40 -41 -46 0
-11 -18 -21 -26 -27 -40 -41 -46 0
-10 -19 -20 -26 -28 -40 -41 -46 0
-11 -19 -21 -26 -28 -40 -41 -46 0
-11 -20 -21 -26 -29 -40 -41 -46 0
-10 -19 -20 -27 -28 -40 -42 -46 0
-11 -19 -21 -27 -28 -40 -42 -46 0
-11 -20 -21 -27 -29 -40 -42 -46 0
-11 -20 -21 -28 -29 -40 -43 -46 0
-10 -19 -20 -27 -28 -41 -42 -47 0
-11 -19 -21 -27 -28 -41 -42 -47 0
-11 -20 -21 -27 -29 -41 -42 -47 0
-11 -20 -21 -28 -29 -41 -43 -47 0
-11 -20 -21 -28 -29 -42 -43 -48 0
-10 -19 -20 -27 -28 -41 -42 -52 0
-11 -19 -21 -27 -28 -41 -42 -52 0
-11 -20 -21 -27 -29 -41 -42 -52 0
-11 -20 -21 -28 -29 -41 -43 -52 0
-11 -20 -21 -28 -29 -42 -43 -53 0
-11 -20 -21 -28 -29 -42 -43 -57 0
-10 -19 -20 -27 -28 -47 -48 -52 0
-11 -19 -21 -27 -28 -47 -48 -52 0
-11 -20 -21 -27 -29 -47 -48 -52 0
-11 -20 -21 -28 -29 -47 -49 -52 0
-11 -20 -21 -28 -29 -48 -49 -53 0
-11 -20 -21 -28 -29 -48 -49 -57 0
-11 -20 -21 -28 -29 -53 -54 -57 0
-9 -18 -19 -34 -35 -40 -41 -46 0
-10 -18 -20 -34 -35 -40 -41 -46 0
-11 -18 -21 -34 -35 -40 -41 -46 0
-10 -19 -20 -34 -36 -40 -41 -46 0
-11 -19 -21 -34 -36 -40 -41 -46 0
-11 -20 -21 -34 -37 -40 -41 -46 0
-10 -19 -20 -35 -36 -40 -42 -46 0
-11 -19 -21 -35 -36 -40 -42 -46 0
-11 -20 -21 -35 -37 -40 -42 -46 0
-11 -20 -21 -36 -37 -40 -43 -46 0
-10 -19 -20 -35 -36 -41 -42 -47 0
-11 -19 -21 -35 -36 -41 -42 -47 0
-11 -20 -21 -35 -37 -41 -42 -47 0
-11 -20 -21 -36 -37 -41 -43 -47 0
-11 -20 -21 -36 -37 -42 -43 -48 0
-10 -19 -20 -35 -36 -41 -42 -52 0
-11 -19 -21 -35 -36 -41 -42 -52 0
-11 -20 -21 -35 -37 -41 -42 -52 0
-11 -20 -21 -36 -37 -41 -43 -52 0
-11 -20 -21 -36 -37 -42 -43 -53 0
-11 -20 -21 -36 -37 -42 -43 -57 0
-10 -19 -20 -35 -36 -47 -48 -52 0
-11 -19 -21 -35 -36 -47 -48 -52 0
-11 -20 -21 -35 -37 -47 -48 -52 0
-11 -20 -21 -36 -37 -47 -49 -52 0
-11 -20 -21 -36 -37 -48 -49 -53 0
-11 -20 -21 -36 -37 -48 -49 -57 0
-11 -20 -21 -36 -37 -53 -54 -57 0
-10 -19 -20 -42 -43 -47 -48 -52 0
-11 -19 -21 -42 -43 -47 -48 -52 0
-11 -20 -21 -42 -44 -47 -48 -52 0
-11 -20 -21 -43 -44 -47 -49 -52 0
-11 -20 -21 -43 -44 -48 -49 -53 0
-11 -20 -21 -43 -44 -48 -49 -57 0
-11 -20 -21 -43 -44 -53 -54 -57 0
-11 -20 -21 -49 -50 -53 -54 -57 0
-9 -27 -28 -34 -35 -40 -41 -46 0
-10 -27 -29 -34 -35 -40 -41 -46 0
-11 -27 -30 -34 -35 -40 -41 -46 0
-10 -28 -29 -34 -36 -40 -41 -46 0
-11 -28 -30 -34 -36 -40 -41 -46 0
-11 -29 -30 -34 -37 -40 -41 -46 0
-10 -28 -29 -35 -36 -40 -42 -46 0
-11 -28 -30 -35 -36 -40 -42 -46 0
-11 -29 -30 -35 -37 -40 -42 -46 0
-11 -29 -30 -36 -37 -40 -43 -46 0
-10 -28 -29 -35 -36 -41 -42 -47 0
-11 -28 -30 -35 -36 -41 -42 -47 0
-11 -29 -30 -35 -37 -41 -42 -47 0
-11 -29 -30 -36 -37 -41 -43 -47 0
-11 -29 -30 -36 -37 -42 -43 -48 0
-10 -28 -29 -35 -36 -41 -42 -52 0
-11 -28 -30 -35 -36 -41 -42 -52 0
-11 -29 -30 -35 -37 -41 -42 -52 0
-11 -29 -30 -36 -37 -41 -43 -52 0
-11 -29 -30 -36 -37 -42 -43 -53 0
-11 -29 -30 -36 -37 -42 -43 -57 0
-10 -28 -29 -35 -36 -47 -48 -52 0
-11 -28 -30 -35 -36 -47 -48 -52 0
-11 -29 -30 -35 -37 -47 -48 -52 0
-11 -29 -30 -36 -37 -47 -49 -52 0
-11 -29 -30 -36 -37 -48 -49 -53 0
-11 -29 -30 -36 -37 -48 -49 -57 0
-11 -29 -30 -36 -37 -53 -54 -57 0
-10 -28 -29 -42 -43 -47 -48 -52 0
-11 -28 -30 -42 -43 -47 -48 -52 0
-11 -29 -30 -42 -44 -47 -48 -52 0
-11 -29 -30 -43 -44 -47 -49 -52 0
-11 -29 -30 -43 -44 -48 -49 -53 0
-11 -29 -30 -43 -44 -48 -49 -57 0
-11 -29 -30 -43 -44 -53 -54 -57 0
-11 -29 -30 -49 -50 -53 -54 -57 0
-10 -36 -37 -42 -43 -47 -48 -52 0
-11 -36 -38 -42 -43 -47 -48 -52 0
-11 -37 -38 -42 -44 -47 -48 -52 0
-11 -37 -38 -43 -44 -47 -49 -52 0
-11 -37 -38 -43 -44 -48 -49 -53 0
-11 -37 -38 -43 -44 -48 -49 -57 0
-11 -37 -38 -43 -44 -53 -54 -57 0
-11 -37 -38 -49 -50 -53 -54 -57 0
-11 -44 -45 -49 -50 -53 -54 -57 0
-19 -27 -28 -34 -35 -40 -41 -46 0
-20 -27 -29 -34 -35 -40 -41 -46 0
-21 -27 -30 -34 -35 -40 -41 -46 0
-20 -28 -29 -34 -36 -40 -41 -46 0
-21 -28 -30 -34 -36 -40 -41 -46 0
-21 -29 -30 -34 -37 -40 -41 -46 0
-20 -28 -29 -35 -36 -40 -42 -46 0
-21 -28 -30 -35 -36 -40 -42 -46 0
-21 -29 -30 -35 -37 -40 -42 -46 0
-21 -29 -30 -36 -37 -40 -43 -46 0
-20 -28 -29 -35 -36 -41 -42 -47 0
-21 -28 -30 -35 -36 -41 -42 -47 0
-21 -29 -30 -35 -37 -41 -42 -47 0
-21 -29 -30 -36 -37 -41 -43 -47 0
-21 -29 -30 -36 -37 -42 -43 -48 0
-20 -28 -29 -35 -36 -41 -42 -52 0
-21 -28 -30 -35 -36 -41 -42 -52 0
-21 -29 -30 -35 -37 -41 -42 -52 0
-21 -29 -30 -36 -37 -41 -43 -52 0
-21 -29 -30 -36 -37 -42 -43 -53 0
-21 -29 -30 -36 -37 -42 -43 -57 0
-20 -28 -29 -35 -36 -47 -48 -52 0
-21 -28 -30 -35 -36 -47 -48 -52 0
-21 -29 -30 -35 -37 -47 -48 -52 0
-21 -29 -30 -36 -37 -47 -49 -52 0
-21 -29 -30 -36 -37 -48 -49 -53 0
-21 -29 -30 -36 -37 -48 -49 -57 0
-21 -29 -30 -36 -37 -53 -54 -57 0
-20 -28 -29 -42 -43 -47 -48 -52 0
-21 -28 -30 -42 -43 -47 -48 -52 0
-21 -29 -30 -42 -44 -47 -48 -52 0
-21 -29 -30 -43 -44 -47 -49 -52 0
-21 -29 -30 -43 -44 -48 -49 -53 0
-21 -29 -30 -43 -44 -48 -49 -57 0
-21 -29 -30 -43 -44 -53 -54 -57 0
-21 -29 -30 -49 -50 -53 -54 -57 0
-20 -36 -37 -42 -43 -47 -48 -52 0
-21 -36 -38 -42 -43 -47 -48 -52 0
-21 -37 -38 -42 -44 -47 -48 -52 0
-21 -37 -38 -43 -44 -47 -49 -52 0
-21 -37 -38 -43 -44 -48 -49 -53 0
-21 -37 -38 -43 -44 -48 -49 -57 0
-21 -37 -38 -43 -44 -53 -54 -57 0
-21 -37 -38 -49 -50 -53 -54 -57 0
-21 -44 -45 -49 -50 -53 -54 -57 0
-29 -36 -37 -42 -43 -47 -48 -52 0
-30 -36 -38 -42 -43 -47 -48 -52 0
-30 -37 -38 -42 -44 -47 -48 -52 0
-30 -37 -38 -43 -44 -47 -49 -52 0
-30 -37 -38 -43 -44 -48 -49 -53 0
-30 -37 -38 -43 -44 -48 -49 -57 0
-30 -37 -38 -43 -44 -53 -54 -57 0
-30 -37 -38 -49 -50 -53 -54 -57 0
-30 -44 -45 -49 -50 -53 -54 -57 0
-38 -44 -45 -49 -50 -53 -54 -57 0
